*SPEF "ieee 1481-1999"
*DESIGN "gcd"
*DATE "00:01:01 Friday January 16, 2026"
*VENDOR "The OpenROAD Project"
*PROGRAM "OpenROAD"
*VERSION "26Q1-54-gb42159587e"
*DESIGN_FLOW "NAME_SCOPE LOCAL" "PIN_CAP NONE"
*DIVIDER /
*DELIMITER :
*BUS_DELIMITER []
*T_UNIT 1 NS
*C_UNIT 1 PF
*R_UNIT 1 OHM
*L_UNIT 1 HENRY

*NAME_MAP
*1 _000_
*2 _001_
*3 _002_
*4 _003_
*5 _004_
*6 _005_
*7 _006_
*8 _007_
*9 _008_
*10 _009_
*11 _010_
*12 _011_
*13 _012_
*14 _013_
*15 _014_
*16 _015_
*17 _016_
*18 _017_
*19 _018_
*20 _019_
*21 _020_
*22 _021_
*23 _022_
*24 _023_
*25 _024_
*26 _025_
*27 _026_
*28 _027_
*29 _028_
*30 _029_
*31 _030_
*32 _031_
*33 _032_
*34 _033_
*35 _034_
*36 _035_
*37 _036_
*38 _037_
*39 _038_
*40 _039_
*41 _040_
*42 _041_
*43 _042_
*44 _043_
*45 _044_
*46 _045_
*47 _046_
*48 _047_
*49 _048_
*50 _049_
*51 _050_
*52 _051_
*53 _052_
*54 _053_
*55 _054_
*56 _055_
*57 _056_
*58 _057_
*59 _058_
*60 _059_
*61 _060_
*62 _061_
*63 _062_
*64 _063_
*65 _064_
*66 _065_
*67 _066_
*68 _067_
*69 _068_
*70 _069_
*71 _070_
*72 _071_
*73 _072_
*74 _073_
*75 _074_
*76 _075_
*77 _076_
*78 _077_
*79 _078_
*80 _079_
*81 _080_
*82 _081_
*83 _082_
*84 _083_
*85 _084_
*86 _085_
*87 _086_
*88 _087_
*89 _088_
*90 _089_
*91 _090_
*92 _091_
*93 _092_
*94 _093_
*95 _094_
*96 _095_
*97 _096_
*98 _097_
*99 _098_
*100 _099_
*101 _100_
*102 _101_
*103 _102_
*104 req_msg[20]
*105 req_msg[1]
*106 _105_
*107 req_msg[19]
*108 _107_
*109 _108_
*110 _109_
*111 _110_
*112 _111_
*113 _112_
*114 _113_
*115 _114_
*116 _115_
*117 _116_
*118 req_msg[18]
*119 _118_
*120 _119_
*121 _120_
*122 _121_
*123 _122_
*124 _123_
*125 _124_
*126 _125_
*127 req_msg[17]
*128 _127_
*129 _128_
*130 _129_
*131 _130_
*132 _131_
*133 _132_
*134 _133_
*135 _134_
*136 _135_
*137 _136_
*138 _137_
*139 _138_
*140 _139_
*141 req_msg[16]
*142 _141_
*143 _142_
*144 _143_
*145 _144_
*146 _145_
*147 _146_
*148 req_msg[15]
*149 _148_
*150 _149_
*151 _150_
*152 _151_
*153 _152_
*154 _153_
*155 _154_
*156 _155_
*157 _156_
*158 _157_
*159 _158_
*160 _159_
*161 _160_
*162 _161_
*163 _162_
*164 _163_
*165 _164_
*166 _165_
*167 _166_
*168 _167_
*169 _168_
*170 _169_
*171 _170_
*172 _171_
*173 _172_
*174 _173_
*175 _174_
*176 _175_
*177 _176_
*178 _177_
*179 _178_
*180 _179_
*181 _180_
*182 _181_
*183 _182_
*184 _183_
*185 _184_
*186 _185_
*187 _186_
*188 _187_
*189 _188_
*190 _189_
*191 _190_
*192 _191_
*193 _192_
*194 _193_
*195 _194_
*196 _195_
*197 _196_
*198 _197_
*199 _198_
*200 _199_
*201 _200_
*202 _201_
*203 _202_
*204 _203_
*205 _204_
*206 _205_
*207 _206_
*208 _207_
*209 req_msg[14]
*210 _209_
*211 _210_
*212 req_msg[13]
*213 req_msg[12]
*214 _213_
*215 _214_
*216 _215_
*217 _216_
*218 _217_
*219 _218_
*220 _219_
*221 _220_
*222 _221_
*223 _222_
*224 _223_
*225 _224_
*226 _225_
*227 _226_
*228 _227_
*229 _228_
*230 _229_
*231 _230_
*232 _231_
*233 _232_
*234 _233_
*235 _234_
*236 _235_
*237 _236_
*238 _237_
*239 _238_
*240 _239_
*241 _240_
*242 _241_
*243 _242_
*244 _243_
*245 _244_
*246 _245_
*247 _246_
*248 _247_
*249 _248_
*250 _249_
*251 _250_
*252 _251_
*253 _252_
*254 _253_
*255 _254_
*256 _255_
*257 _256_
*258 _257_
*259 _258_
*260 _259_
*261 _260_
*262 _261_
*263 _262_
*264 _263_
*265 _264_
*266 _265_
*267 _266_
*268 _267_
*269 _268_
*270 _269_
*271 _270_
*272 _271_
*273 req_msg[11]
*274 _273_
*275 req_msg[10]
*276 _275_
*277 _276_
*278 req_msg[0]
*279 _278_
*280 _279_
*281 _280_
*282 _281_
*283 _282_
*284 clk
*285 dpath\.a_lt_b\$in0\[10\]
*286 dpath\.a_lt_b\$in0\[11\]
*287 dpath\.a_lt_b\$in0\[12\]
*288 dpath\.a_lt_b\$in0\[13\]
*289 dpath\.a_lt_b\$in0\[14\]
*290 dpath\.a_lt_b\$in0\[15\]
*291 dpath\.a_lt_b\$in0\[1\]
*292 dpath\.a_lt_b\$in0\[2\]
*293 dpath\.a_lt_b\$in0\[3\]
*294 dpath\.a_lt_b\$in0\[4\]
*295 dpath\.a_lt_b\$in0\[5\]
*296 dpath\.a_lt_b\$in0\[6\]
*297 dpath\.a_lt_b\$in0\[7\]
*298 dpath\.a_lt_b\$in0\[8\]
*299 dpath\.a_lt_b\$in0\[9\]
*300 dpath\.a_lt_b\$in1\[0\]
*301 dpath\.a_lt_b\$in1\[1\]
*302 net1
*303 net2
*304 net3
*305 net4
*306 net5
*307 net6
*308 net7
*309 net8
*310 net9
*311 net10
*312 net11
*313 net12
*314 net13
*315 net14
*316 net15
*317 net16
*318 net17
*319 net18
*320 net19
*321 net20
*322 net21
*323 net22
*324 net23
*325 net24
*326 net25
*327 net26
*328 net27
*329 net28
*330 net29
*331 net30
*332 net31
*333 net32
*334 net36
*335 net33
*336 net34
*337 net37
*338 net38
*339 net39
*340 net40
*341 net41
*342 net42
*343 net43
*344 net44
*345 net45
*346 net46
*347 net47
*348 net48
*349 net49
*350 net50
*351 net51
*352 net52
*353 net35
*354 net53
*357 req_msg[21]
*358 req_msg[22]
*359 req_msg[23]
*360 req_msg[24]
*361 req_msg[25]
*362 req_msg[26]
*363 req_msg[27]
*364 req_msg[28]
*365 req_msg[29]
*366 req_msg[2]
*367 req_msg[30]
*368 req_msg[31]
*369 req_msg[3]
*370 req_msg[4]
*371 req_msg[5]
*372 req_msg[6]
*373 req_msg[7]
*374 req_msg[8]
*375 req_msg[9]
*376 req_val
*377 reset
*378 resp_rdy
*379 req_rdy
*380 resp_msg[0]
*381 resp_msg[10]
*382 resp_msg[11]
*383 resp_msg[12]
*384 resp_msg[13]
*385 resp_msg[14]
*386 resp_msg[15]
*387 resp_msg[1]
*388 resp_msg[2]
*389 resp_msg[3]
*390 resp_msg[4]
*391 resp_msg[5]
*392 resp_msg[6]
*393 resp_msg[7]
*394 resp_msg[8]
*395 resp_msg[9]
*396 resp_val
*397 net106
*398 net155
*399 net151
*400 net150
*401 net149
*402 net107
*403 net108
*404 net148
*405 net147
*406 net146
*407 net145
*408 net109
*409 net144
*410 net184
*411 net142
*412 net141
*413 net140
*415 net139
*416 net111
*417 net112
*418 net138
*419 net113
*420 net114
*421 net137
*422 net115
*423 net135
*424 net136
*425 net116
*426 net117
*427 net121
*428 net118
*429 net119
*430 net120
*431 net122
*432 clknet_2_3__leaf_clk
*433 net123
*434 net124
*435 net125
*436 clknet_2_2__leaf_clk
*437 clknet_2_1__leaf_clk
*438 net133
*439 net126
*440 net127
*441 net128
*442 net132
*443 net129
*444 net130
*445 net131
*446 clknet_2_0__leaf_clk
*447 net134
*448 clknet_0_clk
*449 net156
*450 net157
*451 net158
*452 net159
*453 net163
*454 net176
*455 net177
*456 net178
*457 net179
*458 net180
*459 net181
*460 net182
*461 net183
*462 _283_
*463 _284_
*464 input13
*465 _286_
*466 input12
*467 _288_
*468 input11
*469 _290_
*470 _291_
*471 _292_
*472 _293_
*473 _294_
*474 _295_
*475 _296_
*476 _297_
*477 _298_
*478 _299_
*479 input10
*480 _301_
*481 _302_
*482 _303_
*483 _304_
*484 _305_
*485 _306_
*486 _307_
*487 _308_
*488 input9
*489 _310_
*490 _311_
*491 _312_
*492 _313_
*493 _314_
*494 _315_
*495 _316_
*496 _317_
*497 _318_
*498 _319_
*499 _320_
*500 _321_
*501 _322_
*502 input8
*503 _324_
*504 _325_
*505 _326_
*506 _327_
*507 _328_
*508 _329_
*509 _330_
*510 _331_
*511 input7
*512 _333_
*513 _334_
*514 _335_
*515 _336_
*516 _337_
*517 _338_
*518 _339_
*519 _340_
*520 _341_
*521 _342_
*522 _343_
*523 _344_
*524 _345_
*525 _346_
*526 _347_
*527 _348_
*528 _349_
*529 _350_
*530 _351_
*531 _352_
*532 _353_
*533 _354_
*534 _355_
*535 _356_
*536 _357_
*537 _358_
*538 _359_
*539 _360_
*540 _361_
*541 _362_
*542 _363_
*543 _364_
*544 _365_
*545 _366_
*546 _367_
*547 _368_
*548 _369_
*549 _370_
*550 _371_
*551 _372_
*552 _373_
*553 _374_
*554 _375_
*555 _376_
*556 _377_
*557 _378_
*558 _379_
*559 _380_
*560 _381_
*561 _382_
*562 _383_
*563 _384_
*564 _385_
*565 _386_
*566 _387_
*567 _388_
*568 _389_
*569 _390_
*570 _391_
*571 _392_
*572 _393_
*573 _394_
*574 _395_
*575 _396_
*576 _397_
*577 _398_
*578 _399_
*579 _400_
*580 _401_
*581 _402_
*582 _403_
*583 _404_
*584 _405_
*585 _406_
*586 _407_
*587 _408_
*588 _409_
*589 _410_
*590 _411_
*591 _412_
*592 _413_
*593 _414_
*594 _415_
*595 _416_
*596 _417_
*597 _418_
*598 _419_
*599 _420_
*600 _421_
*601 _422_
*602 _423_
*603 _424_
*604 input6
*605 _426_
*606 _427_
*607 input5
*608 input4
*609 _430_
*610 _431_
*611 _432_
*612 _433_
*613 _434_
*614 _435_
*615 _436_
*616 _437_
*617 _438_
*618 _439_
*619 _440_
*620 _441_
*621 _442_
*622 _443_
*623 _444_
*624 _445_
*625 _446_
*626 _447_
*627 _448_
*628 _449_
*629 _450_
*630 _451_
*631 _452_
*632 _453_
*633 _454_
*634 _455_
*635 _456_
*636 _457_
*637 _458_
*638 _459_
*639 _460_
*640 _461_
*641 _462_
*642 _463_
*643 _464_
*644 _465_
*645 _466_
*646 _467_
*647 _468_
*648 _469_
*649 _470_
*650 _471_
*651 _472_
*652 _473_
*653 _474_
*654 _475_
*655 _476_
*656 _477_
*657 _478_
*658 _479_
*659 _480_
*660 _481_
*661 _482_
*662 _483_
*663 _484_
*664 _485_
*665 _486_
*666 _487_
*667 _488_
*668 _489_
*669 _490_
*670 _491_
*671 _492_
*672 _493_
*673 _494_
*674 _495_
*675 _496_
*676 _497_
*677 _498_
*678 _499_
*679 _500_
*680 _501_
*681 _502_
*682 _503_
*683 _504_
*684 input3
*685 _506_
*686 input2
*687 _508_
*688 _509_
*689 input1
*690 _511_
*691 _512_
*692 _513_
*693 _514_
*694 _515_
*695 _516_
*696 _517_
*697 _518_
*698 _519_
*699 _520_
*700 _521_
*701 _522_
*702 _523_
*703 _524_
*704 _525_
*705 _526_
*706 _527_
*707 _528_
*708 _529_
*709 _530_
*710 _531_
*711 _532_
*712 _533_
*713 _534_
*714 _535_
*715 _536_
*716 _537_
*717 _538_
*718 _539_
*719 _540_
*720 _541_
*721 _542_
*722 _543_
*723 _544_
*724 _545_
*725 _546_
*726 _547_
*727 _548_
*728 ctrl\.state\.out\[0\]\$_DFF_P_
*729 ctrl\.state\.out\[1\]\$_DFF_P_
*730 ctrl\.state\.out\[2\]\$_DFF_P_
*731 dpath\.a_reg\.out\[0\]\$_DFFE_PP_
*732 dpath\.a_reg\.out\[10\]\$_DFFE_PP_
*733 dpath\.a_reg\.out\[11\]\$_DFFE_PP_
*734 dpath\.a_reg\.out\[12\]\$_DFFE_PP_
*735 dpath\.a_reg\.out\[13\]\$_DFFE_PP_
*736 dpath\.a_reg\.out\[14\]\$_DFFE_PP_
*737 dpath\.a_reg\.out\[15\]\$_DFFE_PP_
*738 dpath\.a_reg\.out\[1\]\$_DFFE_PP_
*739 dpath\.a_reg\.out\[2\]\$_DFFE_PP_
*740 dpath\.a_reg\.out\[3\]\$_DFFE_PP_
*741 dpath\.a_reg\.out\[4\]\$_DFFE_PP_
*742 dpath\.a_reg\.out\[5\]\$_DFFE_PP_
*743 dpath\.a_reg\.out\[6\]\$_DFFE_PP_
*744 dpath\.a_reg\.out\[7\]\$_DFFE_PP_
*745 dpath\.a_reg\.out\[8\]\$_DFFE_PP_
*746 dpath\.a_reg\.out\[9\]\$_DFFE_PP_
*747 dpath\.b_reg\.out\[0\]\$_DFFE_PP_
*748 dpath\.b_reg\.out\[10\]\$_DFFE_PP_
*749 dpath\.b_reg\.out\[11\]\$_DFFE_PP_
*750 dpath\.b_reg\.out\[12\]\$_DFFE_PP_
*751 dpath\.b_reg\.out\[13\]\$_DFFE_PP_
*752 dpath\.b_reg\.out\[14\]\$_DFFE_PP_
*753 dpath\.b_reg\.out\[15\]\$_DFFE_PP_
*754 dpath\.b_reg\.out\[1\]\$_DFFE_PP_
*755 dpath\.b_reg\.out\[2\]\$_DFFE_PP_
*756 dpath\.b_reg\.out\[3\]\$_DFFE_PP_
*757 dpath\.b_reg\.out\[4\]\$_DFFE_PP_
*758 dpath\.b_reg\.out\[5\]\$_DFFE_PP_
*759 dpath\.b_reg\.out\[6\]\$_DFFE_PP_
*760 dpath\.b_reg\.out\[7\]\$_DFFE_PP_
*761 dpath\.b_reg\.out\[8\]\$_DFFE_PP_
*762 dpath\.b_reg\.out\[9\]\$_DFFE_PP_
*763 PHY_EDGE_ROW_0_Right_0
*764 PHY_EDGE_ROW_1_Right_1
*765 PHY_EDGE_ROW_2_Right_2
*766 PHY_EDGE_ROW_3_Right_3
*767 PHY_EDGE_ROW_4_Right_4
*768 PHY_EDGE_ROW_5_Right_5
*769 PHY_EDGE_ROW_6_Right_6
*770 PHY_EDGE_ROW_7_Right_7
*771 PHY_EDGE_ROW_8_Right_8
*772 PHY_EDGE_ROW_9_Right_9
*773 PHY_EDGE_ROW_10_Right_10
*774 PHY_EDGE_ROW_11_Right_11
*775 PHY_EDGE_ROW_12_Right_12
*776 PHY_EDGE_ROW_13_Right_13
*777 PHY_EDGE_ROW_14_Right_14
*778 PHY_EDGE_ROW_15_Right_15
*779 PHY_EDGE_ROW_16_Right_16
*780 PHY_EDGE_ROW_17_Right_17
*781 PHY_EDGE_ROW_18_Right_18
*782 PHY_EDGE_ROW_19_Right_19
*783 PHY_EDGE_ROW_20_Right_20
*784 PHY_EDGE_ROW_21_Right_21
*785 PHY_EDGE_ROW_22_Right_22
*786 PHY_EDGE_ROW_23_Right_23
*787 PHY_EDGE_ROW_24_Right_24
*788 PHY_EDGE_ROW_25_Right_25
*789 PHY_EDGE_ROW_26_Right_26
*790 PHY_EDGE_ROW_27_Right_27
*791 PHY_EDGE_ROW_28_Right_28
*792 PHY_EDGE_ROW_29_Right_29
*793 PHY_EDGE_ROW_30_Right_30
*794 PHY_EDGE_ROW_31_Right_31
*795 PHY_EDGE_ROW_32_Right_32
*796 PHY_EDGE_ROW_33_Right_33
*797 PHY_EDGE_ROW_34_Right_34
*798 PHY_EDGE_ROW_35_Right_35
*799 PHY_EDGE_ROW_36_Right_36
*800 PHY_EDGE_ROW_37_Right_37
*801 PHY_EDGE_ROW_38_Right_38
*802 PHY_EDGE_ROW_39_Right_39
*803 PHY_EDGE_ROW_40_Right_40
*804 PHY_EDGE_ROW_41_Right_41
*805 PHY_EDGE_ROW_42_Right_42
*806 PHY_EDGE_ROW_43_Right_43
*807 PHY_EDGE_ROW_44_Right_44
*808 PHY_EDGE_ROW_45_Right_45
*809 PHY_EDGE_ROW_46_Right_46
*810 PHY_EDGE_ROW_47_Right_47
*811 PHY_EDGE_ROW_48_Right_48
*812 PHY_EDGE_ROW_49_Right_49
*813 PHY_EDGE_ROW_50_Right_50
*814 PHY_EDGE_ROW_51_Right_51
*815 PHY_EDGE_ROW_0_Left_52
*816 PHY_EDGE_ROW_1_Left_53
*817 PHY_EDGE_ROW_2_Left_54
*818 PHY_EDGE_ROW_3_Left_55
*819 PHY_EDGE_ROW_4_Left_56
*820 PHY_EDGE_ROW_5_Left_57
*821 PHY_EDGE_ROW_6_Left_58
*822 PHY_EDGE_ROW_7_Left_59
*823 PHY_EDGE_ROW_8_Left_60
*824 PHY_EDGE_ROW_9_Left_61
*825 PHY_EDGE_ROW_10_Left_62
*826 PHY_EDGE_ROW_11_Left_63
*827 PHY_EDGE_ROW_12_Left_64
*828 PHY_EDGE_ROW_13_Left_65
*829 PHY_EDGE_ROW_14_Left_66
*830 PHY_EDGE_ROW_15_Left_67
*831 PHY_EDGE_ROW_16_Left_68
*832 PHY_EDGE_ROW_17_Left_69
*833 PHY_EDGE_ROW_18_Left_70
*834 PHY_EDGE_ROW_19_Left_71
*835 PHY_EDGE_ROW_20_Left_72
*836 PHY_EDGE_ROW_21_Left_73
*837 PHY_EDGE_ROW_22_Left_74
*838 PHY_EDGE_ROW_23_Left_75
*839 PHY_EDGE_ROW_24_Left_76
*840 PHY_EDGE_ROW_25_Left_77
*841 PHY_EDGE_ROW_26_Left_78
*842 PHY_EDGE_ROW_27_Left_79
*843 PHY_EDGE_ROW_28_Left_80
*844 PHY_EDGE_ROW_29_Left_81
*845 PHY_EDGE_ROW_30_Left_82
*846 PHY_EDGE_ROW_31_Left_83
*847 PHY_EDGE_ROW_32_Left_84
*848 PHY_EDGE_ROW_33_Left_85
*849 PHY_EDGE_ROW_34_Left_86
*850 PHY_EDGE_ROW_35_Left_87
*851 PHY_EDGE_ROW_36_Left_88
*852 PHY_EDGE_ROW_37_Left_89
*853 PHY_EDGE_ROW_38_Left_90
*854 PHY_EDGE_ROW_39_Left_91
*855 PHY_EDGE_ROW_40_Left_92
*856 PHY_EDGE_ROW_41_Left_93
*857 PHY_EDGE_ROW_42_Left_94
*858 PHY_EDGE_ROW_43_Left_95
*859 PHY_EDGE_ROW_44_Left_96
*860 PHY_EDGE_ROW_45_Left_97
*861 PHY_EDGE_ROW_46_Left_98
*862 PHY_EDGE_ROW_47_Left_99
*863 PHY_EDGE_ROW_48_Left_100
*864 PHY_EDGE_ROW_49_Left_101
*865 PHY_EDGE_ROW_50_Left_102
*866 PHY_EDGE_ROW_51_Left_103
*867 input14
*868 input15
*869 input16
*870 input17
*871 input18
*872 input19
*873 input20
*874 input21
*875 input22
*876 input23
*877 input24
*878 input25
*879 input26
*880 input27
*881 input28
*882 input29
*883 input30
*884 input31
*885 input32
*886 input33
*887 input34
*888 input35
*889 output36
*890 output37
*891 output38
*892 output39
*893 output40
*894 output41
*895 output42
*896 output43
*897 output44
*898 output45
*899 output46
*900 output47
*901 output48
*902 output49
*903 output50
*904 output51
*905 output52
*906 output53
*907 place106
*908 rebuffer149
*909 rebuffer148
*910 rebuffer147
*911 rebuffer146
*912 place107
*913 place108
*914 rebuffer145
*915 rebuffer144
*916 rebuffer184
*917 rebuffer142
*918 place109
*919 rebuffer141
*920 rebuffer140
*921 rebuffer139
*922 rebuffer138
*923 rebuffer137
*924 FILLER_0_2
*925 rebuffer136
*926 place111
*927 place112
*928 rebuffer135
*929 place113
*930 place114
*931 clkload2
*932 place115
*933 clkload0
*934 clkload1
*935 place116
*936 place117
*937 place121
*938 place118
*939 place119
*940 place120
*941 place122
*942 clkbuf_2_3__f_clk
*943 place123
*944 place124
*945 place125
*946 clkbuf_2_2__f_clk
*947 clkbuf_2_1__f_clk
*948 place133
*949 place126
*950 place127
*951 place128
*952 place132
*953 place129
*954 place130
*955 place131
*956 clkbuf_2_0__f_clk
*957 place134
*958 clkbuf_0_clk
*959 rebuffer150
*960 rebuffer151
*961 rebuffer155
*962 rebuffer156
*963 rebuffer157
*964 rebuffer158
*965 rebuffer159
*966 rebuffer163
*967 rebuffer176
*968 rebuffer177
*969 rebuffer178
*970 rebuffer179
*971 rebuffer180
*972 rebuffer181
*973 rebuffer182
*974 rebuffer183
*975 FILLER_0_24
*976 FILLER_0_46
*977 FILLER_0_68
*978 FILLER_0_90
*979 FILLER_0_96
*980 FILLER_0_118
*981 FILLER_0_140
*982 FILLER_0_150
*983 FILLER_0_159
*984 FILLER_0_181
*985 FILLER_0_203
*986 FILLER_0_225
*987 FILLER_0_247
*988 FILLER_0_257
*989 FILLER_1_2
*990 FILLER_1_24
*991 FILLER_1_46
*992 FILLER_1_50
*993 FILLER_1_56
*994 FILLER_1_70
*995 FILLER_1_81
*996 FILLER_1_103
*997 FILLER_1_114
*998 FILLER_1_125
*999 FILLER_1_147
*1000 FILLER_1_151
*1001 FILLER_1_167
*1002 FILLER_1_189
*1003 FILLER_1_205
*1004 FILLER_1_227
*1005 FILLER_1_249
*1006 FILLER_1_255
*1007 FILLER_1_257
*1008 FILLER_2_2
*1009 FILLER_2_24
*1010 FILLER_2_46
*1011 FILLER_2_68
*1012 FILLER_2_90
*1013 FILLER_2_96
*1014 FILLER_2_102
*1015 FILLER_2_116
*1016 FILLER_2_122
*1017 FILLER_2_144
*1018 FILLER_2_160
*1019 FILLER_2_182
*1020 FILLER_2_204
*1021 FILLER_2_226
*1022 FILLER_2_248
*1023 FILLER_3_2
*1024 FILLER_3_24
*1025 FILLER_3_46
*1026 FILLER_3_68
*1027 FILLER_3_75
*1028 FILLER_3_81
*1029 FILLER_3_114
*1030 FILLER_3_136
*1031 FILLER_3_145
*1032 FILLER_3_185
*1033 FILLER_3_194
*1034 FILLER_3_216
*1035 FILLER_3_238
*1036 FILLER_3_252
*1037 FILLER_4_2
*1038 FILLER_4_24
*1039 FILLER_4_46
*1040 FILLER_4_52
*1041 FILLER_4_58
*1042 FILLER_4_64
*1043 FILLER_4_66
*1044 FILLER_4_79
*1045 FILLER_4_85
*1046 FILLER_4_87
*1047 FILLER_4_101
*1048 FILLER_4_115
*1049 FILLER_4_145
*1050 FILLER_4_147
*1051 FILLER_4_151
*1052 FILLER_4_173
*1053 FILLER_4_195
*1054 FILLER_4_217
*1055 FILLER_4_239
*1056 FILLER_4_253
*1057 FILLER_4_257
*1058 FILLER_5_2
*1059 FILLER_5_24
*1060 FILLER_5_46
*1061 FILLER_5_68
*1062 FILLER_5_78
*1063 FILLER_5_82
*1064 FILLER_5_88
*1065 FILLER_5_90
*1066 FILLER_5_105
*1067 FILLER_5_127
*1068 FILLER_5_149
*1069 FILLER_5_171
*1070 FILLER_5_193
*1071 FILLER_5_215
*1072 FILLER_5_237
*1073 FILLER_5_251
*1074 FILLER_5_257
*1075 FILLER_6_2
*1076 FILLER_6_24
*1077 FILLER_6_46
*1078 FILLER_6_68
*1079 FILLER_6_92
*1080 FILLER_6_94
*1081 FILLER_6_107
*1082 FILLER_6_129
*1083 FILLER_6_151
*1084 FILLER_6_173
*1085 FILLER_6_183
*1086 FILLER_6_206
*1087 FILLER_6_228
*1088 FILLER_6_250
*1089 FILLER_6_256
*1090 FILLER_7_2
*1091 FILLER_7_24
*1092 FILLER_7_46
*1093 FILLER_7_68
*1094 FILLER_7_90
*1095 FILLER_7_100
*1096 FILLER_7_113
*1097 FILLER_7_126
*1098 FILLER_7_140
*1099 FILLER_7_153
*1100 FILLER_7_162
*1101 FILLER_7_184
*1102 FILLER_7_186
*1103 FILLER_7_206
*1104 FILLER_7_214
*1105 FILLER_7_236
*1106 FILLER_8_2
*1107 FILLER_8_24
*1108 FILLER_8_44
*1109 FILLER_8_60
*1110 FILLER_8_82
*1111 FILLER_8_104
*1112 FILLER_8_118
*1113 FILLER_8_120
*1114 FILLER_8_131
*1115 FILLER_8_135
*1116 FILLER_8_162
*1117 FILLER_8_168
*1118 FILLER_8_216
*1119 FILLER_8_238
*1120 FILLER_8_252
*1121 FILLER_9_2
*1122 FILLER_9_16
*1123 FILLER_9_18
*1124 FILLER_9_25
*1125 FILLER_9_29
*1126 FILLER_9_70
*1127 FILLER_9_80
*1128 FILLER_9_100
*1129 FILLER_9_114
*1130 FILLER_9_143
*1131 FILLER_9_165
*1132 FILLER_9_187
*1133 FILLER_9_201
*1134 FILLER_9_209
*1135 FILLER_9_236
*1136 FILLER_10_7
*1137 FILLER_10_29
*1138 FILLER_10_46
*1139 FILLER_10_52
*1140 FILLER_10_62
*1141 FILLER_10_80
*1142 FILLER_10_86
*1143 FILLER_10_102
*1144 FILLER_10_114
*1145 FILLER_10_128
*1146 FILLER_10_134
*1147 FILLER_10_136
*1148 FILLER_10_143
*1149 FILLER_10_165
*1150 FILLER_10_171
*1151 FILLER_10_177
*1152 FILLER_10_199
*1153 FILLER_10_221
*1154 FILLER_10_243
*1155 FILLER_10_257
*1156 FILLER_11_2
*1157 FILLER_11_24
*1158 FILLER_11_46
*1159 FILLER_11_68
*1160 FILLER_11_70
*1161 FILLER_11_77
*1162 FILLER_11_91
*1163 FILLER_11_102
*1164 FILLER_11_115
*1165 FILLER_11_136
*1166 FILLER_11_158
*1167 FILLER_11_179
*1168 FILLER_11_201
*1169 FILLER_11_223
*1170 FILLER_11_245
*1171 FILLER_11_255
*1172 FILLER_11_257
*1173 FILLER_12_2
*1174 FILLER_12_24
*1175 FILLER_12_46
*1176 FILLER_12_60
*1177 FILLER_12_77
*1178 FILLER_12_88
*1179 FILLER_12_95
*1180 FILLER_12_109
*1181 FILLER_12_126
*1182 FILLER_12_148
*1183 FILLER_12_152
*1184 FILLER_12_176
*1185 FILLER_12_198
*1186 FILLER_12_202
*1187 FILLER_12_223
*1188 FILLER_12_245
*1189 FILLER_12_255
*1190 FILLER_12_257
*1191 FILLER_13_2
*1192 FILLER_13_24
*1193 FILLER_13_46
*1194 FILLER_13_68
*1195 FILLER_13_76
*1196 FILLER_13_80
*1197 FILLER_13_89
*1198 FILLER_13_98
*1199 FILLER_13_120
*1200 FILLER_13_142
*1201 FILLER_13_164
*1202 FILLER_13_180
*1203 FILLER_13_186
*1204 FILLER_13_188
*1205 FILLER_13_209
*1206 FILLER_13_221
*1207 FILLER_13_243
*1208 FILLER_13_257
*1209 FILLER_14_2
*1210 FILLER_14_24
*1211 FILLER_14_30
*1212 FILLER_14_52
*1213 FILLER_14_58
*1214 FILLER_14_69
*1215 FILLER_14_78
*1216 FILLER_14_90
*1217 FILLER_14_104
*1218 FILLER_14_110
*1219 FILLER_14_117
*1220 FILLER_14_151
*1221 FILLER_14_155
*1222 FILLER_14_185
*1223 FILLER_14_197
*1224 FILLER_14_199
*1225 FILLER_14_236
*1226 FILLER_14_246
*1227 FILLER_14_248
*1228 FILLER_14_254
*1229 FILLER_15_2
*1230 FILLER_15_9
*1231 FILLER_15_23
*1232 FILLER_15_63
*1233 FILLER_15_65
*1234 FILLER_15_72
*1235 FILLER_15_94
*1236 FILLER_15_98
*1237 FILLER_15_105
*1238 FILLER_15_109
*1239 FILLER_15_117
*1240 FILLER_15_131
*1241 FILLER_15_137
*1242 FILLER_15_155
*1243 FILLER_15_165
*1244 FILLER_15_167
*1245 FILLER_15_184
*1246 FILLER_15_194
*1247 FILLER_15_214
*1248 FILLER_15_228
*1249 FILLER_15_230
*1250 FILLER_15_237
*1251 FILLER_15_244
*1252 FILLER_16_2
*1253 FILLER_16_13
*1254 FILLER_16_19
*1255 FILLER_16_43
*1256 FILLER_16_57
*1257 FILLER_16_59
*1258 FILLER_16_79
*1259 FILLER_16_81
*1260 FILLER_16_88
*1261 FILLER_16_110
*1262 FILLER_16_124
*1263 FILLER_16_132
*1264 FILLER_16_146
*1265 FILLER_16_159
*1266 FILLER_16_181
*1267 FILLER_16_191
*1268 FILLER_16_199
*1269 FILLER_16_221
*1270 FILLER_16_243
*1271 FILLER_16_257
*1272 FILLER_17_2
*1273 FILLER_17_24
*1274 FILLER_17_46
*1275 FILLER_17_68
*1276 FILLER_17_82
*1277 FILLER_17_88
*1278 FILLER_17_111
*1279 FILLER_17_133
*1280 FILLER_17_143
*1281 FILLER_17_145
*1282 FILLER_17_160
*1283 FILLER_17_182
*1284 FILLER_17_196
*1285 FILLER_17_226
*1286 FILLER_17_248
*1287 FILLER_17_252
*1288 FILLER_18_2
*1289 FILLER_18_24
*1290 FILLER_18_46
*1291 FILLER_18_68
*1292 FILLER_18_82
*1293 FILLER_18_89
*1294 FILLER_18_103
*1295 FILLER_18_107
*1296 FILLER_18_111
*1297 FILLER_18_131
*1298 FILLER_18_145
*1299 FILLER_18_159
*1300 FILLER_18_173
*1301 FILLER_18_184
*1302 FILLER_18_206
*1303 FILLER_18_212
*1304 FILLER_18_217
*1305 FILLER_18_231
*1306 FILLER_18_240
*1307 FILLER_18_254
*1308 FILLER_19_2
*1309 FILLER_19_24
*1310 FILLER_19_46
*1311 FILLER_19_60
*1312 FILLER_19_71
*1313 FILLER_19_93
*1314 FILLER_19_115
*1315 FILLER_19_137
*1316 FILLER_19_147
*1317 FILLER_19_166
*1318 FILLER_19_175
*1319 FILLER_19_181
*1320 FILLER_19_189
*1321 FILLER_19_229
*1322 FILLER_19_251
*1323 FILLER_19_257
*1324 FILLER_20_2
*1325 FILLER_20_24
*1326 FILLER_20_30
*1327 FILLER_20_51
*1328 FILLER_20_73
*1329 FILLER_20_95
*1330 FILLER_20_117
*1331 FILLER_20_139
*1332 FILLER_20_161
*1333 FILLER_20_167
*1334 FILLER_20_169
*1335 FILLER_20_179
*1336 FILLER_20_193
*1337 FILLER_20_206
*1338 FILLER_20_228
*1339 FILLER_20_230
*1340 FILLER_20_242
*1341 FILLER_20_256
*1342 FILLER_21_7
*1343 FILLER_21_21
*1344 FILLER_21_23
*1345 FILLER_21_36
*1346 FILLER_21_38
*1347 FILLER_21_42
*1348 FILLER_21_64
*1349 FILLER_21_78
*1350 FILLER_21_91
*1351 FILLER_21_113
*1352 FILLER_21_135
*1353 FILLER_21_150
*1354 FILLER_21_164
*1355 FILLER_21_171
*1356 FILLER_21_177
*1357 FILLER_21_184
*1358 FILLER_21_198
*1359 FILLER_21_204
*1360 FILLER_21_211
*1361 FILLER_21_219
*1362 FILLER_21_241
*1363 FILLER_21_255
*1364 FILLER_21_257
*1365 FILLER_22_7
*1366 FILLER_22_14
*1367 FILLER_22_57
*1368 FILLER_22_66
*1369 FILLER_22_80
*1370 FILLER_22_87
*1371 FILLER_22_102
*1372 FILLER_22_124
*1373 FILLER_22_130
*1374 FILLER_22_145
*1375 FILLER_22_159
*1376 FILLER_22_178
*1377 FILLER_22_192
*1378 FILLER_22_202
*1379 FILLER_22_208
*1380 FILLER_22_210
*1381 FILLER_22_227
*1382 FILLER_22_249
*1383 FILLER_22_255
*1384 FILLER_22_257
*1385 FILLER_23_2
*1386 FILLER_23_16
*1387 FILLER_23_22
*1388 FILLER_23_29
*1389 FILLER_23_51
*1390 FILLER_23_57
*1391 FILLER_23_61
*1392 FILLER_23_71
*1393 FILLER_23_73
*1394 FILLER_23_100
*1395 FILLER_23_116
*1396 FILLER_23_118
*1397 FILLER_23_122
*1398 FILLER_23_124
*1399 FILLER_23_146
*1400 FILLER_23_152
*1401 FILLER_23_154
*1402 FILLER_23_165
*1403 FILLER_23_178
*1404 FILLER_23_188
*1405 FILLER_23_190
*1406 FILLER_23_205
*1407 FILLER_23_215
*1408 FILLER_23_243
*1409 FILLER_23_257
*1410 FILLER_24_2
*1411 FILLER_24_8
*1412 FILLER_24_10
*1413 FILLER_24_16
*1414 FILLER_24_38
*1415 FILLER_24_48
*1416 FILLER_24_62
*1417 FILLER_24_68
*1418 FILLER_24_76
*1419 FILLER_24_78
*1420 FILLER_24_95
*1421 FILLER_24_105
*1422 FILLER_24_133
*1423 FILLER_24_147
*1424 FILLER_24_153
*1425 FILLER_24_170
*1426 FILLER_24_192
*1427 FILLER_24_194
*1428 FILLER_24_209
*1429 FILLER_24_215
*1430 FILLER_24_217
*1431 FILLER_24_230
*1432 FILLER_24_232
*1433 FILLER_24_243
*1434 FILLER_25_2
*1435 FILLER_25_8
*1436 FILLER_25_14
*1437 FILLER_25_36
*1438 FILLER_25_50
*1439 FILLER_25_76
*1440 FILLER_25_91
*1441 FILLER_25_105
*1442 FILLER_25_129
*1443 FILLER_25_151
*1444 FILLER_25_173
*1445 FILLER_25_195
*1446 FILLER_25_199
*1447 FILLER_25_209
*1448 FILLER_25_223
*1449 FILLER_25_227
*1450 FILLER_25_236
*1451 FILLER_25_250
*1452 FILLER_25_256
*1453 FILLER_26_2
*1454 FILLER_26_24
*1455 FILLER_26_46
*1456 FILLER_26_68
*1457 FILLER_26_78
*1458 FILLER_26_80
*1459 FILLER_26_98
*1460 FILLER_26_120
*1461 FILLER_26_122
*1462 FILLER_26_132
*1463 FILLER_26_154
*1464 FILLER_26_166
*1465 FILLER_26_188
*1466 FILLER_26_190
*1467 FILLER_26_199
*1468 FILLER_26_214
*1469 FILLER_26_220
*1470 FILLER_26_224
*1471 FILLER_26_226
*1472 FILLER_26_230
*1473 FILLER_26_238
*1474 FILLER_26_252
*1475 FILLER_27_2
*1476 FILLER_27_8
*1477 FILLER_27_10
*1478 FILLER_27_16
*1479 FILLER_27_22
*1480 FILLER_27_24
*1481 FILLER_27_31
*1482 FILLER_27_53
*1483 FILLER_27_59
*1484 FILLER_27_63
*1485 FILLER_27_94
*1486 FILLER_27_116
*1487 FILLER_27_122
*1488 FILLER_27_139
*1489 FILLER_27_161
*1490 FILLER_27_165
*1491 FILLER_27_172
*1492 FILLER_27_179
*1493 FILLER_27_193
*1494 FILLER_27_202
*1495 FILLER_27_224
*1496 FILLER_27_228
*1497 FILLER_27_238
*1498 FILLER_27_244
*1499 FILLER_28_2
*1500 FILLER_28_24
*1501 FILLER_28_58
*1502 FILLER_28_65
*1503 FILLER_28_79
*1504 FILLER_28_87
*1505 FILLER_28_99
*1506 FILLER_28_109
*1507 FILLER_28_111
*1508 FILLER_28_118
*1509 FILLER_28_122
*1510 FILLER_28_136
*1511 FILLER_28_169
*1512 FILLER_28_173
*1513 FILLER_28_182
*1514 FILLER_28_188
*1515 FILLER_28_203
*1516 FILLER_28_225
*1517 FILLER_28_231
*1518 FILLER_28_238
*1519 FILLER_28_244
*1520 FILLER_29_2
*1521 FILLER_29_19
*1522 FILLER_29_67
*1523 FILLER_29_71
*1524 FILLER_29_87
*1525 FILLER_29_89
*1526 FILLER_29_97
*1527 FILLER_29_107
*1528 FILLER_29_123
*1529 FILLER_29_127
*1530 FILLER_29_135
*1531 FILLER_29_153
*1532 FILLER_29_167
*1533 FILLER_29_185
*1534 FILLER_29_196
*1535 FILLER_29_218
*1536 FILLER_29_240
*1537 FILLER_29_254
*1538 FILLER_30_2
*1539 FILLER_30_16
*1540 FILLER_30_28
*1541 FILLER_30_50
*1542 FILLER_30_56
*1543 FILLER_30_58
*1544 FILLER_30_65
*1545 FILLER_30_79
*1546 FILLER_30_90
*1547 FILLER_30_107
*1548 FILLER_30_119
*1549 FILLER_30_125
*1550 FILLER_30_133
*1551 FILLER_30_143
*1552 FILLER_30_152
*1553 FILLER_30_158
*1554 FILLER_30_186
*1555 FILLER_30_192
*1556 FILLER_30_202
*1557 FILLER_30_212
*1558 FILLER_30_214
*1559 FILLER_30_227
*1560 FILLER_30_239
*1561 FILLER_30_245
*1562 FILLER_30_257
*1563 FILLER_31_2
*1564 FILLER_31_24
*1565 FILLER_31_46
*1566 FILLER_31_68
*1567 FILLER_31_74
*1568 FILLER_31_76
*1569 FILLER_31_88
*1570 FILLER_31_93
*1571 FILLER_31_110
*1572 FILLER_31_132
*1573 FILLER_31_154
*1574 FILLER_31_168
*1575 FILLER_31_172
*1576 FILLER_31_184
*1577 FILLER_31_206
*1578 FILLER_31_210
*1579 FILLER_31_240
*1580 FILLER_31_256
*1581 FILLER_32_8
*1582 FILLER_32_30
*1583 FILLER_32_52
*1584 FILLER_32_74
*1585 FILLER_32_80
*1586 FILLER_32_82
*1587 FILLER_32_90
*1588 FILLER_32_97
*1589 FILLER_32_119
*1590 FILLER_32_123
*1591 FILLER_32_130
*1592 FILLER_32_132
*1593 FILLER_32_139
*1594 FILLER_32_161
*1595 FILLER_32_183
*1596 FILLER_32_187
*1597 FILLER_32_194
*1598 FILLER_32_207
*1599 FILLER_32_235
*1600 FILLER_32_257
*1601 FILLER_33_2
*1602 FILLER_33_24
*1603 FILLER_33_46
*1604 FILLER_33_68
*1605 FILLER_33_74
*1606 FILLER_33_76
*1607 FILLER_33_89
*1608 FILLER_33_91
*1609 FILLER_33_99
*1610 FILLER_33_113
*1611 FILLER_33_119
*1612 FILLER_33_158
*1613 FILLER_33_180
*1614 FILLER_33_182
*1615 FILLER_33_200
*1616 FILLER_33_222
*1617 FILLER_33_238
*1618 FILLER_33_244
*1619 FILLER_33_251
*1620 FILLER_33_257
*1621 FILLER_34_2
*1622 FILLER_34_24
*1623 FILLER_34_45
*1624 FILLER_34_51
*1625 FILLER_34_53
*1626 FILLER_34_63
*1627 FILLER_34_73
*1628 FILLER_34_81
*1629 FILLER_34_86
*1630 FILLER_34_99
*1631 FILLER_34_103
*1632 FILLER_34_107
*1633 FILLER_34_117
*1634 FILLER_34_133
*1635 FILLER_34_143
*1636 FILLER_34_157
*1637 FILLER_34_163
*1638 FILLER_34_167
*1639 FILLER_34_189
*1640 FILLER_34_198
*1641 FILLER_34_212
*1642 FILLER_34_236
*1643 FILLER_35_2
*1644 FILLER_35_24
*1645 FILLER_35_26
*1646 FILLER_35_59
*1647 FILLER_35_70
*1648 FILLER_35_76
*1649 FILLER_35_94
*1650 FILLER_35_115
*1651 FILLER_35_122
*1652 FILLER_35_133
*1653 FILLER_35_155
*1654 FILLER_35_177
*1655 FILLER_35_199
*1656 FILLER_35_221
*1657 FILLER_35_223
*1658 FILLER_35_244
*1659 FILLER_36_2
*1660 FILLER_36_24
*1661 FILLER_36_26
*1662 FILLER_36_62
*1663 FILLER_36_68
*1664 FILLER_36_75
*1665 FILLER_36_77
*1666 FILLER_36_84
*1667 FILLER_36_99
*1668 FILLER_36_121
*1669 FILLER_36_130
*1670 FILLER_36_152
*1671 FILLER_36_172
*1672 FILLER_36_187
*1673 FILLER_36_197
*1674 FILLER_36_199
*1675 FILLER_36_203
*1676 FILLER_36_219
*1677 FILLER_36_241
*1678 FILLER_36_255
*1679 FILLER_36_257
*1680 FILLER_37_2
*1681 FILLER_37_24
*1682 FILLER_37_46
*1683 FILLER_37_68
*1684 FILLER_37_90
*1685 FILLER_37_112
*1686 FILLER_37_130
*1687 FILLER_37_146
*1688 FILLER_37_181
*1689 FILLER_37_187
*1690 FILLER_37_194
*1691 FILLER_37_200
*1692 FILLER_37_207
*1693 FILLER_37_229
*1694 FILLER_37_251
*1695 FILLER_37_257
*1696 FILLER_38_2
*1697 FILLER_38_24
*1698 FILLER_38_46
*1699 FILLER_38_68
*1700 FILLER_38_90
*1701 FILLER_38_112
*1702 FILLER_38_122
*1703 FILLER_38_124
*1704 FILLER_38_139
*1705 FILLER_38_148
*1706 FILLER_38_162
*1707 FILLER_38_164
*1708 FILLER_38_171
*1709 FILLER_38_178
*1710 FILLER_38_182
*1711 FILLER_38_190
*1712 FILLER_38_196
*1713 FILLER_38_207
*1714 FILLER_38_229
*1715 FILLER_38_251
*1716 FILLER_38_257
*1717 FILLER_39_2
*1718 FILLER_39_24
*1719 FILLER_39_46
*1720 FILLER_39_68
*1721 FILLER_39_90
*1722 FILLER_39_112
*1723 FILLER_39_134
*1724 FILLER_39_158
*1725 FILLER_39_180
*1726 FILLER_39_187
*1727 FILLER_39_212
*1728 FILLER_39_216
*1729 FILLER_39_237
*1730 FILLER_39_251
*1731 FILLER_39_257
*1732 FILLER_40_2
*1733 FILLER_40_24
*1734 FILLER_40_46
*1735 FILLER_40_68
*1736 FILLER_40_90
*1737 FILLER_40_112
*1738 FILLER_40_126
*1739 FILLER_40_128
*1740 FILLER_40_151
*1741 FILLER_40_157
*1742 FILLER_40_164
*1743 FILLER_40_186
*1744 FILLER_40_220
*1745 FILLER_40_242
*1746 FILLER_40_256
*1747 FILLER_41_2
*1748 FILLER_41_24
*1749 FILLER_41_46
*1750 FILLER_41_68
*1751 FILLER_41_82
*1752 FILLER_41_88
*1753 FILLER_41_95
*1754 FILLER_41_117
*1755 FILLER_41_139
*1756 FILLER_41_161
*1757 FILLER_41_183
*1758 FILLER_41_205
*1759 FILLER_41_227
*1760 FILLER_41_249
*1761 FILLER_41_255
*1762 FILLER_41_257
*1763 FILLER_42_2
*1764 FILLER_42_24
*1765 FILLER_42_46
*1766 FILLER_42_68
*1767 FILLER_42_90
*1768 FILLER_42_112
*1769 FILLER_42_134
*1770 FILLER_42_156
*1771 FILLER_42_178
*1772 FILLER_42_200
*1773 FILLER_42_222
*1774 FILLER_42_244
*1775 FILLER_43_2
*1776 FILLER_43_24
*1777 FILLER_43_46
*1778 FILLER_43_68
*1779 FILLER_43_90
*1780 FILLER_43_112
*1781 FILLER_43_134
*1782 FILLER_43_156
*1783 FILLER_43_178
*1784 FILLER_43_200
*1785 FILLER_43_222
*1786 FILLER_43_244
*1787 FILLER_44_2
*1788 FILLER_44_24
*1789 FILLER_44_46
*1790 FILLER_44_68
*1791 FILLER_44_90
*1792 FILLER_44_112
*1793 FILLER_44_134
*1794 FILLER_44_156
*1795 FILLER_44_178
*1796 FILLER_44_200
*1797 FILLER_44_222
*1798 FILLER_44_244
*1799 FILLER_45_2
*1800 FILLER_45_24
*1801 FILLER_45_46
*1802 FILLER_45_68
*1803 FILLER_45_90
*1804 FILLER_45_112
*1805 FILLER_45_134
*1806 FILLER_45_156
*1807 FILLER_45_178
*1808 FILLER_45_200
*1809 FILLER_45_222
*1810 FILLER_45_244
*1811 FILLER_46_2
*1812 FILLER_46_24
*1813 FILLER_46_46
*1814 FILLER_46_68
*1815 FILLER_46_90
*1816 FILLER_46_112
*1817 FILLER_46_134
*1818 FILLER_46_156
*1819 FILLER_46_163
*1820 FILLER_46_185
*1821 FILLER_46_207
*1822 FILLER_46_229
*1823 FILLER_46_251
*1824 FILLER_46_257
*1825 FILLER_47_2
*1826 FILLER_47_24
*1827 FILLER_47_46
*1828 FILLER_47_68
*1829 FILLER_47_90
*1830 FILLER_47_112
*1831 FILLER_47_134
*1832 FILLER_47_156
*1833 FILLER_47_178
*1834 FILLER_47_200
*1835 FILLER_47_222
*1836 FILLER_47_244
*1837 FILLER_48_2
*1838 FILLER_48_24
*1839 FILLER_48_46
*1840 FILLER_48_68
*1841 FILLER_48_90
*1842 FILLER_48_112
*1843 FILLER_48_134
*1844 FILLER_48_143
*1845 FILLER_48_165
*1846 FILLER_48_187
*1847 FILLER_48_209
*1848 FILLER_48_231
*1849 FILLER_48_253
*1850 FILLER_48_257
*1851 FILLER_49_2
*1852 FILLER_49_24
*1853 FILLER_49_46
*1854 FILLER_49_68
*1855 FILLER_49_90
*1856 FILLER_49_112
*1857 FILLER_49_126
*1858 FILLER_49_132
*1859 FILLER_49_139
*1860 FILLER_49_161
*1861 FILLER_49_183
*1862 FILLER_49_205
*1863 FILLER_49_227
*1864 FILLER_49_249
*1865 FILLER_49_255
*1866 FILLER_49_257
*1867 FILLER_50_2
*1868 FILLER_50_24
*1869 FILLER_50_46
*1870 FILLER_50_68
*1871 FILLER_50_90
*1872 FILLER_50_112
*1873 FILLER_50_134
*1874 FILLER_50_156
*1875 FILLER_50_178
*1876 FILLER_50_200
*1877 FILLER_50_222
*1878 FILLER_50_244
*1879 FILLER_51_2
*1880 FILLER_51_24
*1881 FILLER_51_46
*1882 FILLER_51_68
*1883 FILLER_51_90
*1884 FILLER_51_112
*1885 FILLER_51_134
*1886 FILLER_51_156
*1887 FILLER_51_178
*1888 FILLER_51_200
*1889 FILLER_51_222
*1890 FILLER_51_244

*PORTS
clk I
req_msg[0] I
req_msg[10] I
req_msg[11] I
req_msg[12] I
req_msg[13] I
req_msg[14] I
req_msg[15] I
req_msg[16] I
req_msg[17] I
req_msg[18] I
req_msg[19] I
req_msg[1] I
req_msg[20] I
req_msg[21] I
req_msg[22] I
req_msg[23] I
req_msg[24] I
req_msg[25] I
req_msg[26] I
req_msg[27] I
req_msg[28] I
req_msg[29] I
req_msg[2] I
req_msg[30] I
req_msg[31] I
req_msg[3] I
req_msg[4] I
req_msg[5] I
req_msg[6] I
req_msg[7] I
req_msg[8] I
req_msg[9] I
req_rdy O
req_val I
reset I
resp_msg[0] O
resp_msg[10] O
resp_msg[11] O
resp_msg[12] O
resp_msg[13] O
resp_msg[14] O
resp_msg[15] O
resp_msg[1] O
resp_msg[2] O
resp_msg[3] O
resp_msg[4] O
resp_msg[5] O
resp_msg[6] O
resp_msg[7] O
resp_msg[8] O
resp_msg[9] O
resp_rdy I
resp_val O

*D_NET *1 1.61282e-05
*CONN
*I *728:D I *D DFFHQNx1_ASAP7_75t_R
*I *515:Y O *D AO221x1_ASAP7_75t_R
*CAP
1 *728:D 0
2 *515:Y 3.1447e-06
3 *1:8 3.1447e-06
4 *1:8 *354:10 9.83885e-06
*RES
1 *515:Y *1:8 37.779 
2 *1:8 *728:D 34.4 
*END

*D_NET *2 0.000144881
*CONN
*I *729:D I *D DFFHQNx1_ASAP7_75t_R
*I *514:Y O *D OA21x2_ASAP7_75t_R
*CAP
1 *729:D 0
2 *514:Y 6.59647e-06
3 *2:12 3.62099e-05
4 *2:8 4.28064e-05
5 *2:8 *146:10 1.0743e-05
6 *2:8 *211:134 2.67206e-05
7 *2:12 *208:22 2.18045e-05
*RES
1 *514:Y *2:8 43.4107 
2 *2:8 *2:12 35.9189 
3 *2:12 *729:D 17.2 
*END

*D_NET *3 0.000324158
*CONN
*I *730:D I *D DFFHQNx1_ASAP7_75t_R
*I *505:Y O *D NOR2x1_ASAP7_75t_R
*CAP
1 *730:D 0
2 *505:Y 1.04446e-05
3 *3:20 4.04454e-06
4 *3:14 7.42596e-05
5 *3:10 8.06596e-05
6 *3:10 *505:B 2.12481e-06
7 *3:10 *142:10 9.37774e-06
8 *3:10 *143:8 6.38405e-06
9 *3:10 *447:193 5.52807e-07
10 *3:14 *728:CLK 3.9754e-05
11 *3:14 *436:36 8.68869e-05
12 *3:20 *311:8 9.66909e-06
*RES
1 *505:Y *3:10 43.8888 
2 *3:10 *3:14 48.7547 
3 *3:14 *3:20 37.779 
4 *3:20 *730:D 17.2 
*END

*D_NET *4 1.33559e-05
*CONN
*I *957:A I *D BUFx6f_ASAP7_75t_R
*I *728:QN O *D DFFHQNx1_ASAP7_75t_R
*CAP
1 *957:A 5.94675e-06
2 *728:QN 5.94675e-06
3 *957:A *334:20 1.46238e-06
*RES
1 *728:QN *957:A 37.0741 
*END

*D_NET *5 0.000157827
*CONN
*I *915:A I *D BUFx3_ASAP7_75t_R
*I *463:A I *D INVx2_ASAP7_75t_R
*I *747:QN O *D DFFHQNx1_ASAP7_75t_R
*CAP
1 *915:A 1.20494e-05
2 *463:A 3.24529e-06
3 *747:QN 5.10084e-05
4 *5:8 1.52946e-05
5 *5:6 5.10084e-05
6 *463:A *208:212 4.10928e-06
7 *463:A *215:14 3.95007e-06
8 *915:A *208:212 1.27445e-05
9 *915:A *215:14 4.15033e-06
10 *915:A *334:257 0
11 *915:A *409:8 2.66797e-07
*RES
1 *747:QN *5:6 38.0582 
2 *5:6 *5:8 17.2 
3 *5:8 *463:A 37.779 
4 *5:8 *915:A 46.1415 
*END

*D_NET *6 7.62193e-05
*CONN
*I *586:A I *D INVx1_ASAP7_75t_R
*I *746:QN O *D DFFHQNx1_ASAP7_75t_R
*CAP
1 *586:A 1.01829e-05
2 *746:QN 1.21811e-05
3 *6:8 2.2364e-05
4 *586:A *299:6 6.6195e-06
5 *586:A *299:27 3.73144e-06
6 *6:8 *43:21 6.65157e-06
7 *6:8 *87:8 6.33206e-07
8 *6:8 *299:27 8.33296e-06
9 *6:8 *435:8 5.52264e-06
*RES
1 *746:QN *6:8 46.7897 
2 *6:8 *586:A 42.4224 
*END

*D_NET *7 0.000128803
*CONN
*I *587:A I *D INVx1_ASAP7_75t_R
*I *745:QN O *D DFFHQNx1_ASAP7_75t_R
*CAP
1 *587:A 1.01966e-05
2 *745:QN 1.96485e-05
3 *7:8 2.98451e-05
4 *587:A *267:8 0
5 *587:A *268:14 2.26775e-05
6 *587:A *419:44 3.3893e-05
7 *7:8 *274:103 1.25425e-05
*RES
1 *745:QN *7:8 42.4224 
2 *7:8 *587:A 46.2265 
*END

*D_NET *8 1.10087e-05
*CONN
*I *588:A I *D INVx1_ASAP7_75t_R
*I *744:QN O *D DFFHQNx1_ASAP7_75t_R
*CAP
1 *588:A 5.50436e-06
2 *744:QN 5.50436e-06
*RES
1 *744:QN *588:A 37.0741 
*END

*D_NET *9 1.10087e-05
*CONN
*I *589:A I *D INVx2_ASAP7_75t_R
*I *743:QN O *D DFFHQNx1_ASAP7_75t_R
*CAP
1 *589:A 5.50436e-06
2 *743:QN 5.50436e-06
*RES
1 *743:QN *589:A 37.0741 
*END

*D_NET *10 1.25651e-05
*CONN
*I *590:A I *D INVx1_ASAP7_75t_R
*I *742:QN O *D DFFHQNx1_ASAP7_75t_R
*CAP
1 *590:A 6.28254e-06
2 *742:QN 6.28254e-06
*RES
1 *742:QN *590:A 37.0741 
*END

*D_NET *11 1.20703e-05
*CONN
*I *591:A I *D INVx2_ASAP7_75t_R
*I *741:QN O *D DFFHQNx1_ASAP7_75t_R
*CAP
1 *591:A 5.25158e-06
2 *741:QN 5.25158e-06
3 *591:A *144:30 1.56713e-06
*RES
1 *741:QN *591:A 37.0741 
*END

*D_NET *12 2.74132e-05
*CONN
*I *592:A I *D INVx2_ASAP7_75t_R
*I *740:QN O *D DFFHQNx1_ASAP7_75t_R
*CAP
1 *592:A 0
2 *740:QN 8.28319e-06
3 *12:10 8.28319e-06
4 *12:10 *293:19 5.22486e-06
5 *12:10 *446:46 5.62196e-06
6 *12:10 *447:82 0
*RES
1 *740:QN *12:10 40.5098 
2 *12:10 *592:A 34.4 
*END

*D_NET *13 1.13607e-05
*CONN
*I *593:A I *D INVx1_ASAP7_75t_R
*I *739:QN O *D DFFHQNx1_ASAP7_75t_R
*CAP
1 *593:A 5.68035e-06
2 *739:QN 5.68035e-06
3 *593:A *292:6 0
*RES
1 *739:QN *593:A 37.0741 
*END

*D_NET *14 0.000493393
*CONN
*I *642:A I *D NAND2x1_ASAP7_75t_R
*I *595:A I *D INVx1_ASAP7_75t_R
*I *737:QN O *D DFFHQNx1_ASAP7_75t_R
*CAP
1 *642:A 0
2 *595:A 7.83758e-06
3 *737:QN 6.79108e-06
4 *14:22 2.6793e-05
5 *14:16 2.56465e-05
6 *14:10 3.96642e-05
7 *14:8 3.97643e-05
8 *595:A *290:10 5.25794e-06
9 *595:A *323:12 2.85598e-05
10 *14:10 *147:165 4.18264e-05
11 *14:10 *147:182 2.30332e-05
12 *14:10 *147:194 7.57697e-06
13 *14:10 *237:12 4.81408e-05
14 *14:10 *239:14 5.1098e-05
15 *14:10 *243:10 3.06124e-05
16 *14:10 *306:8 2.35211e-06
17 *14:16 *643:A2 1.34271e-05
18 *14:22 *241:8 1.692e-05
19 *14:22 *306:8 5.88243e-05
20 *14:22 *323:12 1.40724e-05
21 *14:22 *334:375 5.19498e-06
22 *14:22 *397:33 0
23 *14:22 *397:42 0
*RES
1 *737:QN *14:8 37.0741 
2 *14:8 *14:10 46.7428 
3 *14:10 *14:16 38.1438 
4 *14:16 *14:22 41.1894 
5 *14:22 *595:A 25.7572 
6 *14:22 *642:A 17.2 
*END

*D_NET *15 0.000364694
*CONN
*I *637:A I *D NAND2x1_ASAP7_75t_R
*I *596:A I *D INVx1_ASAP7_75t_R
*I *736:QN O *D DFFHQNx1_ASAP7_75t_R
*CAP
1 *637:A 1.68099e-06
2 *596:A 0
3 *736:QN 3.22839e-05
4 *15:24 2.30574e-05
5 *15:16 5.96213e-05
6 *15:10 5.35208e-05
7 *15:6 4.75598e-05
8 *637:A *239:14 1.44167e-06
9 *15:10 *736:D 0
10 *15:10 *306:16 5.26269e-05
11 *15:16 *640:A2 2.90209e-08
12 *15:16 *77:8 0
13 *15:16 *78:10 1.12894e-06
14 *15:16 *239:14 8.146e-06
15 *15:16 *306:16 1.45158e-05
16 *15:16 *342:6 2.29378e-05
17 *15:16 *342:19 7.14604e-06
18 *15:24 *211:257 1.35684e-06
19 *15:24 *277:271 9.94583e-06
20 *15:24 *343:14 2.76948e-05
*RES
1 *736:QN *15:6 34.8492 
2 *15:6 *15:10 34.6581 
3 *15:10 *15:16 38.8481 
4 *15:16 *15:24 46.871 
5 *15:24 *596:A 17.2 
6 *15:10 *637:A 35.4697 
*END

*D_NET *16 0.00014444
*CONN
*I *597:A I *D INVx1_ASAP7_75t_R
*I *635:A1 I *D AOI22x1_ASAP7_75t_R
*I *735:QN O *D DFFHQNx1_ASAP7_75t_R
*CAP
1 *597:A 0
2 *635:A1 1.28265e-05
3 *735:QN 3.62086e-05
4 *16:10 1.74994e-05
5 *16:6 4.08815e-05
6 *635:A1 *76:8 5.24059e-07
7 *635:A1 *288:10 6.47703e-06
8 *635:A1 *432:100 2.74027e-05
9 *16:10 *76:8 2.6203e-06
*RES
1 *735:QN *16:6 33.7796 
2 *16:6 *16:10 20.579 
3 *16:10 *635:A1 44.1686 
4 *16:10 *597:A 34.4 
*END

*D_NET *17 1.45594e-05
*CONN
*I *598:A I *D INVx1_ASAP7_75t_R
*I *734:QN O *D DFFHQNx1_ASAP7_75t_R
*CAP
1 *598:A 7.27972e-06
2 *734:QN 7.27972e-06
3 *598:A *287:16 0
*RES
1 *734:QN *598:A 37.0741 
*END

*D_NET *18 0.000237528
*CONN
*I *970:A I *D BUFx3_ASAP7_75t_R
*I *599:A I *D INVx1_ASAP7_75t_R
*I *733:QN O *D DFFHQNx1_ASAP7_75t_R
*CAP
1 *970:A 3.60939e-06
2 *599:A 3.17374e-05
3 *733:QN 1.50122e-05
4 *18:10 4.58255e-05
5 *18:8 2.54909e-05
6 *599:A *616:A 1.07377e-06
7 *599:A *619:A 3.68287e-06
8 *599:A *211:230 2.72676e-05
9 *599:A *286:8 1.41856e-05
10 *970:A *620:A1 6.33206e-07
11 *970:A *147:131 1.47868e-05
12 *970:A *211:234 4.49667e-06
13 *970:A *211:245 8.27965e-06
14 *18:10 *620:A1 6.78455e-06
15 *18:10 *74:10 0
16 *18:10 *147:118 1.63973e-05
17 *18:10 *147:131 1.82643e-05
18 *18:10 *211:228 0
*RES
1 *733:QN *18:8 40.2831 
2 *18:8 *18:10 11.8265 
3 *18:10 *599:A 49.9099 
4 *18:10 *970:A 39.4685 
*END

*D_NET *19 1.29334e-05
*CONN
*I *600:A I *D INVx1_ASAP7_75t_R
*I *732:QN O *D DFFHQNx1_ASAP7_75t_R
*CAP
1 *600:A 6.46672e-06
2 *732:QN 6.46672e-06
3 *600:A *285:8 0
*RES
1 *732:QN *600:A 37.0741 
*END

*D_NET *20 0.00250446
*CONN
*I *687:B I *D AO21x2_ASAP7_75t_R
*I *506:B I *D NAND2x1_ASAP7_75t_R
*I *667:C I *D AND3x1_ASAP7_75t_R
*I *663:C I *D AND3x1_ASAP7_75t_R
*I *508:A I *D INVx1_ASAP7_75t_R
*I *503:B I *D AO21x1_ASAP7_75t_R
*I *510:B I *D AND2x2_ASAP7_75t_R
*I *646:C I *D AND3x1_ASAP7_75t_R
*I *730:QN O *D DFFHQNx1_ASAP7_75t_R
*CAP
1 *687:B 0
2 *506:B 0
3 *667:C 2.56617e-06
4 *663:C 2.54438e-06
5 *508:A 6.03617e-06
6 *503:B 5.93523e-06
7 *510:B 8.61229e-07
8 *646:C 0
9 *730:QN 0
10 *20:157 1.8937e-05
11 *20:142 2.39147e-05
12 *20:136 4.20697e-05
13 *20:132 2.8301e-05
14 *20:130 3.8998e-05
15 *20:126 1.73957e-05
16 *20:120 1.37793e-05
17 *20:112 0.000180616
18 *20:110 0.000170531
19 *20:104 3.77385e-05
20 *20:89 4.67974e-05
21 *20:85 5.8789e-05
22 *20:83 8.88252e-05
23 *20:79 7.09475e-05
24 *20:75 4.96897e-05
25 *20:60 4.52708e-05
26 *20:58 2.83889e-05
27 *20:47 3.04007e-06
28 *20:45 6.51755e-05
29 *20:43 6.51755e-05
30 *20:36 8.49993e-06
31 *20:30 6.45605e-05
32 *20:26 0.000118438
33 *20:20 7.05175e-05
34 *20:14 9.4194e-05
35 *20:12 0.000108176
36 *20:4 2.21222e-05
37 *503:B *140:48 2.88806e-06
38 *510:B *147:10 5.41446e-06
39 *510:B *447:203 5.41446e-06
40 *667:C *260:8 1.40419e-08
41 *20:12 *436:28 1.26769e-05
42 *20:14 *436:36 1.28786e-05
43 *20:20 *345:10 3.56395e-06
44 *20:26 *897:A 2.69523e-06
45 *20:26 *23:6 8.19581e-05
46 *20:26 *23:12 4.76924e-06
47 *20:26 *79:10 7.21596e-07
48 *20:30 *334:46 3.19306e-05
49 *20:30 *447:32 6.1962e-06
50 *20:36 *291:16 8.06923e-06
51 *20:36 *447:38 3.56395e-06
52 *20:45 *729:CLK 3.79923e-06
53 *20:45 *142:10 0
54 *20:45 *147:10 0
55 *20:45 *208:28 5.52807e-07
56 *20:45 *436:28 4.1233e-05
57 *20:58 *147:10 1.62312e-05
58 *20:58 *447:197 8.65792e-06
59 *20:58 *447:203 7.13384e-06
60 *20:60 *687:A1 2.35211e-06
61 *20:60 *131:67 3.95845e-06
62 *20:60 *142:10 9.69354e-05
63 *20:75 *687:A1 1.08556e-05
64 *20:75 *131:57 0
65 *20:75 *139:73 5.85387e-06
66 *20:75 *140:48 0
67 *20:75 *142:10 1.19507e-05
68 *20:75 *277:6 5.51397e-07
69 *20:79 *131:57 0
70 *20:79 *135:12 5.49212e-07
71 *20:79 *139:69 1.6528e-05
72 *20:85 *145:8 8.43376e-06
73 *20:85 *447:308 1.73051e-05
74 *20:89 *158:10 0
75 *20:104 *158:10 0
76 *20:104 *334:114 1.82714e-06
77 *20:104 *448:23 4.98688e-08
78 *20:110 *158:10 0
79 *20:112 *527:A 1.54891e-05
80 *20:112 *662:A 1.59435e-05
81 *20:112 *67:42 4.43846e-06
82 *20:112 *139:142 2.48065e-06
83 *20:112 *145:23 3.46873e-06
84 *20:112 *334:120 5.70574e-05
85 *20:112 *348:8 9.59239e-06
86 *20:120 *277:131 2.00142e-07
87 *20:126 *277:131 3.6736e-06
88 *20:130 *704:C1 6.19506e-06
89 *20:130 *208:96 2.03526e-06
90 *20:130 *256:6 6.1256e-05
91 *20:130 *277:135 6.09148e-05
92 *20:132 *208:88 7.86436e-06
93 *20:132 *208:96 1.55917e-05
94 *20:132 *208:109 7.93642e-05
95 *20:132 *256:14 1.02842e-06
96 *20:132 *274:117 2.19679e-05
97 *20:136 *332:6 1.06092e-05
98 *20:142 *211:55 5.83759e-05
99 *20:142 *257:8 5.63702e-07
100 *20:142 *274:117 2.62861e-06
101 *20:142 *332:6 9.08513e-06
102 *20:157 *208:109 1.64348e-06
103 *20:157 *211:55 4.42421e-06
104 *20:157 *211:89 9.78663e-06
105 *20:157 *447:134 2.43534e-06
*RES
1 *730:QN *20:4 17.2 
2 *20:4 *20:12 47.1544 
3 *20:12 *20:14 36.9029 
4 *20:14 *20:20 40.5948 
5 *20:20 *20:26 48.1385 
6 *20:26 *20:30 41.2671 
7 *20:30 *20:36 42.2843 
8 *20:36 *646:C 17.2 
9 *20:4 *20:43 17.2 
10 *20:43 *20:45 54.6271 
11 *20:45 *20:47 17.2 
12 *20:47 *510:B 18.8045 
13 *20:47 *20:58 22.0134 
14 *20:58 *20:60 32.1005 
15 *20:60 *503:B 37.609 
16 *20:60 *20:75 30.0678 
17 *20:75 *20:79 43.1056 
18 *20:79 *20:83 36.9885 
19 *20:83 *20:85 35.8333 
20 *20:85 *20:89 20.0158 
21 *20:89 *508:A 37.0741 
22 *20:89 *20:104 41.7397 
23 *20:104 *20:110 35.2447 
24 *20:110 *20:112 105.361 
25 *20:112 *20:120 37.6256 
26 *20:120 *20:126 35.8079 
27 *20:126 *20:130 35.9189 
28 *20:130 *20:132 34.3531 
29 *20:132 *20:136 20.9438 
30 *20:136 *20:142 39.5849 
31 *20:142 *663:C 35.4697 
32 *20:136 *20:157 49.6055 
33 *20:157 *667:C 18.2696 
34 *20:83 *506:B 17.2 
35 *20:75 *687:B 17.2 
*END

*D_NET *21 3.31143e-05
*CONN
*I *507:A I *D NOR2x1_ASAP7_75t_R
*I *512:B I *D AOI21x1_ASAP7_75t_R
*I *729:QN O *D DFFHQNx1_ASAP7_75t_R
*CAP
1 *507:A 6.35452e-06
2 *512:B 0
3 *729:QN 0
4 *21:10 9.79175e-06
5 *21:4 1.61463e-05
6 *21:10 *147:89 2.68933e-07
7 *21:10 *211:134 5.52807e-07
*RES
1 *729:QN *21:4 17.2 
2 *21:4 *21:10 40.0317 
3 *21:10 *512:B 17.2 
4 *21:4 *507:A 19.8741 
*END

*D_NET *22 0.000580006
*CONN
*I *974:A I *D BUFx3_ASAP7_75t_R
*I *711:CI I *D FAx1_ASAP7_75t_R
*I *517:Y O *D INVx1_ASAP7_75t_R
*CAP
1 *974:A 3.38183e-06
2 *711:CI 9.39457e-06
3 *517:Y 9.19215e-06
4 *22:24 1.56088e-05
5 *22:20 9.88677e-05
6 *22:18 0.000104858
7 *22:12 0.00012746
8 *22:10 0.000118638
9 *22:8 9.19215e-06
10 *711:CI *208:40 0
11 *711:CI *461:10 5.52807e-07
12 *22:8 *447:227 0
13 *22:18 *142:10 4.97342e-06
14 *22:18 *447:193 3.3563e-06
15 *22:20 *144:66 3.68197e-05
16 *22:20 *211:138 1.68031e-05
17 *22:20 *408:6 1.72416e-05
18 *22:20 *461:10 3.65131e-06
19 *22:24 *461:10 1.49407e-08
*RES
1 *517:Y *22:8 40.0317 
2 *22:8 *22:10 17.2 
3 *22:10 *22:12 68.9924 
4 *22:12 *22:18 42.2843 
5 *22:18 *22:20 70.0621 
6 *22:20 *22:24 18.8895 
7 *22:24 *711:CI 23.958 
8 *22:24 *974:A 37.0741 
*END

*D_NET *23 0.000293878
*CONN
*I *711:B I *D FAx1_ASAP7_75t_R
*I *594:A I *D INVx1_ASAP7_75t_R
*I *738:QN O *D DFFHQNx1_ASAP7_75t_R
*CAP
1 *711:B 4.89478e-06
2 *594:A 0
3 *738:QN 2.91291e-05
4 *23:26 2.18428e-05
5 *23:18 4.42646e-05
6 *23:12 3.09674e-05
7 *23:6 4.25696e-05
8 *711:B *208:40 1.41403e-05
9 *711:B *301:29 0
10 *23:12 *79:10 3.05118e-08
11 *23:12 *344:8 0
12 *23:18 *79:10 7.72307e-07
13 *23:18 *208:40 8.74448e-06
14 *23:18 *301:29 0
15 *23:18 *301:37 2.20128e-06
16 *23:26 *211:183 9.93076e-07
17 *23:26 *344:25 4.71559e-06
18 *23:26 *446:16 1.88468e-06
19 *23:26 *461:16 0
20 *20:26 *23:6 8.19581e-05
21 *20:26 *23:12 4.76924e-06
*RES
1 *738:QN *23:6 38.0582 
2 *23:6 *23:12 43.4107 
3 *23:12 *23:18 27.7566 
4 *23:18 *23:26 43.3832 
5 *23:26 *594:A 34.4 
6 *23:18 *711:B 21.9869 
*END

*D_NET *24 0.000164283
*CONN
*I *469:A I *D INVx1_ASAP7_75t_R
*I *918:A I *D BUFx3_ASAP7_75t_R
*I *711:CON O *D FAx1_ASAP7_75t_R
*CAP
1 *469:A 0
2 *918:A 0
3 *711:CON 6.22909e-06
4 *24:19 3.58087e-05
5 *24:6 4.20378e-05
6 *24:6 *208:40 7.11475e-06
7 *24:6 *211:175 0
8 *24:6 *461:20 2.9059e-07
9 *24:19 *208:40 6.53364e-07
10 *24:19 *211:175 0
11 *24:19 *461:20 7.21486e-05
*RES
1 *711:CON *24:6 22.8317 
2 *24:6 *918:A 34.4 
3 *24:6 *24:19 45.7231 
4 *24:19 *469:A 17.2 
*END

*D_NET *25 0.000656586
*CONN
*I *641:A I *D INVx1_ASAP7_75t_R
*I *712:B I *D HAxp5_ASAP7_75t_R
*I *493:B I *D AND4x1_ASAP7_75t_R
*I *753:QN O *D DFFHQNx1_ASAP7_75t_R
*CAP
1 *641:A 0
2 *712:B 0
3 *493:B 0
4 *753:QN 3.23908e-05
5 *25:51 4.48244e-06
6 *25:38 3.37607e-05
7 *25:32 9.97417e-05
8 *25:30 8.49798e-05
9 *25:22 4.11608e-05
10 *25:14 5.83959e-05
11 *25:8 7.31071e-05
12 *25:14 *607:A 6.6195e-06
13 *25:14 *147:143 7.46397e-06
14 *25:14 *240:8 0
15 *25:14 *397:33 4.86296e-06
16 *25:22 *277:261 4.74885e-06
17 *25:22 *290:14 2.66797e-07
18 *25:22 *453:8 5.0041e-06
19 *25:30 *211:253 6.18268e-06
20 *25:30 *290:29 4.63777e-06
21 *25:30 *334:352 6.01533e-06
22 *25:30 *334:358 5.58297e-06
23 *25:32 *632:A1 7.09203e-05
24 *25:32 *698:A1 1.07377e-06
25 *25:32 *308:14 6.7842e-07
26 *25:38 *632:A1 3.67905e-05
27 *25:38 *28:12 2.72085e-05
28 *25:38 *41:16 2.70778e-05
29 *25:51 *421:10 1.34329e-05
30 *25:51 *444:18 0
*RES
1 *753:QN *25:8 47.7706 
2 *25:8 *25:14 43.7502 
3 *25:14 *25:22 43.1361 
4 *25:22 *25:30 43.4848 
5 *25:30 *25:32 26.2064 
6 *25:32 *25:38 40.6509 
7 *25:38 *493:B 34.4 
8 *25:32 *25:51 38.9053 
9 *25:51 *712:B 17.2 
10 *25:14 *641:A 17.2 
*END

*D_NET *26 0.000293757
*CONN
*I *499:B I *D AND4x1_ASAP7_75t_R
*I *500:A1 I *D AOI21x1_ASAP7_75t_R
*I *491:B I *D OAI21x1_ASAP7_75t_R
*I *712:CON O *D HAxp5_ASAP7_75t_R
*CAP
1 *499:B 0
2 *500:A1 0
3 *491:B 3.32884e-06
4 *712:CON 1.29765e-06
5 *26:48 1.54871e-05
6 *26:42 2.63412e-05
7 *26:27 1.977e-05
8 *26:16 2.06158e-05
9 *26:14 2.96276e-05
10 *26:8 2.25543e-05
11 *491:B *491:A1 5.51397e-07
12 *26:8 *234:8 8.45637e-06
13 *26:8 *421:10 8.45637e-06
14 *26:16 *139:8 4.45472e-06
15 *26:16 *444:18 2.28839e-06
16 *26:27 *129:8 3.03456e-05
17 *26:27 *139:8 1.64764e-06
18 *26:27 *444:18 7.75e-06
19 *26:42 *490:B 9.52454e-06
20 *26:42 *497:A1 3.68287e-06
21 *26:42 *129:8 1.16894e-05
22 *26:42 *138:8 2.98532e-06
23 *26:42 *444:18 3.875e-06
24 *26:48 *499:A 2.05732e-05
25 *26:48 *499:C 9.70478e-06
26 *26:48 *28:12 4.45472e-06
27 *26:48 *29:12 4.40256e-06
28 *26:48 *138:8 1.98917e-05
*RES
1 *712:CON *26:8 37.2158 
2 *26:8 *26:14 45.6313 
3 *26:14 *26:16 6.75799 
4 *26:16 *491:B 36.0045 
5 *26:16 *26:27 12.3897 
6 *26:27 *500:A1 34.4 
7 *26:27 *26:42 44.9018 
8 *26:42 *26:48 33.2201 
9 *26:48 *499:B 17.2 
*END

*D_NET *27 3.16659e-05
*CONN
*I *940:A I *D BUFx3_ASAP7_75t_R
*I *712:SN O *D HAxp5_ASAP7_75t_R
*CAP
1 *940:A 0
2 *712:SN 9.85299e-06
3 *27:10 9.85299e-06
4 *27:10 *712:A 6.36827e-06
5 *27:10 *432:8 3.34131e-06
6 *27:10 *432:60 2.25039e-06
*RES
1 *712:SN *27:10 40.5098 
2 *27:10 *940:A 34.4 
*END

*D_NET *28 0.000751601
*CONN
*I *636:A I *D INVx1_ASAP7_75t_R
*I *713:B I *D HAxp5_ASAP7_75t_R
*I *493:C I *D AND4x1_ASAP7_75t_R
*I *752:QN O *D DFFHQNx1_ASAP7_75t_R
*CAP
1 *636:A 0
2 *713:B 8.92501e-06
3 *493:C 6.94302e-06
4 *752:QN 0
5 *28:38 1.51758e-05
6 *28:12 6.55574e-05
7 *28:10 7.31962e-05
8 *28:6 0.000141239
9 *28:4 0.000150758
10 *713:B *431:40 2.03526e-06
11 *28:6 *338:12 6.59939e-05
12 *28:10 *30:34 3.18351e-05
13 *28:10 *431:25 3.3056e-05
14 *28:12 *499:C 2.28488e-05
15 *28:12 *30:34 4.50067e-05
16 *28:12 *41:16 3.99982e-05
17 *28:12 *41:24 0
18 *28:12 *128:8 0
19 *28:12 *138:8 5.52807e-07
20 *28:12 *431:25 6.72009e-06
21 *28:38 *645:B 9.08513e-06
22 *28:38 *343:25 1.01102e-06
23 *28:38 *453:8 0
24 *25:38 *28:12 2.72085e-05
25 *26:48 *28:12 4.45472e-06
*RES
1 *752:QN *28:4 17.2 
2 *28:4 *28:6 60.4352 
3 *28:6 *28:10 28.4633 
4 *28:10 *28:12 61.9483 
5 *28:12 *493:C 37.609 
6 *28:10 *713:B 39.2134 
7 *28:4 *28:38 42.5924 
8 *28:38 *636:A 17.2 
*END

*D_NET *29 0.000271094
*CONN
*I *583:B I *D OAI21x1_ASAP7_75t_R
*I *499:A I *D AND4x1_ASAP7_75t_R
*I *497:A1 I *D AO21x1_ASAP7_75t_R
*I *490:B I *D OA21x2_ASAP7_75t_R
*I *713:CON O *D HAxp5_ASAP7_75t_R
*CAP
1 *583:B 0
2 *499:A 1.22816e-05
3 *497:A1 2.54434e-06
4 *490:B 4.67334e-06
5 *713:CON 0
6 *29:39 4.08548e-05
7 *29:12 1.75342e-05
8 *29:8 3.65468e-05
9 *29:6 5.48035e-05
10 *490:B *30:23 4.91861e-06
11 *497:A1 *30:23 3.65131e-06
12 *499:A *499:D 1.66828e-05
13 *29:8 *499:C 5.52807e-07
14 *29:8 *431:25 1.37455e-06
15 *29:8 *444:18 2.9732e-06
16 *29:12 *138:8 1.66659e-05
17 *29:12 *444:18 2.71921e-06
18 *29:39 *431:25 6.26016e-06
19 *29:39 *444:18 7.87376e-06
20 *26:42 *490:B 9.52454e-06
21 *26:42 *497:A1 3.68287e-06
22 *26:48 *499:A 2.05732e-05
23 *26:48 *29:12 4.40256e-06
*RES
1 *713:CON *29:6 34.4 
2 *29:6 *29:8 10.137 
3 *29:8 *29:12 27.337 
4 *29:12 *490:B 20.9438 
5 *29:12 *497:A1 19.8741 
6 *29:8 *499:A 44.0269 
7 *29:6 *29:39 47.0478 
8 *29:39 *583:B 17.2 
*END

*D_NET *30 0.000389934
*CONN
*I *939:A I *D BUFx3_ASAP7_75t_R
*I *490:A1 I *D OA21x2_ASAP7_75t_R
*I *497:A2 I *D AO21x1_ASAP7_75t_R
*I *713:SN O *D HAxp5_ASAP7_75t_R
*CAP
1 *939:A 1.09157e-05
2 *490:A1 5.68737e-06
3 *497:A2 1.1519e-06
4 *713:SN 1.54185e-05
5 *30:34 3.10726e-05
6 *30:23 5.60338e-05
7 *30:10 4.67599e-05
8 *490:A1 *490:A2 4.57952e-06
9 *497:A2 *430:34 8.58704e-06
10 *497:A2 *444:18 8.58704e-06
11 *939:A *205:12 3.16328e-06
12 *30:10 *234:16 8.06799e-07
13 *30:10 *289:16 5.17782e-06
14 *30:10 *430:34 1.692e-05
15 *30:10 *430:38 0
16 *30:10 *444:18 3.39707e-05
17 *30:23 *490:A2 7.63254e-07
18 *30:23 *41:24 0
19 *30:34 *128:8 4.06388e-06
20 *30:34 *137:25 8.21855e-06
21 *30:34 *200:12 3.79018e-05
22 *30:34 *431:25 4.74248e-06
23 *490:B *30:23 4.91861e-06
24 *497:A1 *30:23 3.65131e-06
25 *28:10 *30:34 3.18351e-05
26 *28:12 *30:34 4.50067e-05
*RES
1 *713:SN *30:10 49.9703 
2 *30:10 *497:A2 37.2158 
3 *30:10 *30:23 29.501 
4 *30:23 *490:A1 20.409 
5 *30:23 *30:34 47.0478 
6 *30:34 *939:A 40.2831 
*END

*D_NET *31 0.000425037
*CONN
*I *954:A I *D BUFx3_ASAP7_75t_R
*I *714:B I *D HAxp5_ASAP7_75t_R
*I *751:QN O *D DFFHQNx1_ASAP7_75t_R
*CAP
1 *954:A 0
2 *714:B 1.92546e-06
3 *751:QN 5.71826e-06
4 *31:25 7.60291e-06
5 *31:12 7.05489e-05
6 *31:10 6.10206e-05
7 *31:8 5.71826e-06
8 *714:B *32:6 9.30483e-06
9 *714:B *33:10 9.30483e-06
10 *31:8 *147:194 4.83862e-06
11 *31:12 *32:6 2.30266e-05
12 *31:12 *33:10 2.92235e-05
13 *31:12 *147:198 0.000153525
14 *31:12 *211:275 8.41606e-06
15 *31:25 *33:10 3.16603e-06
16 *31:25 *234:16 2.67279e-05
17 *31:25 *444:10 4.96929e-06
*RES
1 *751:QN *31:8 38.9053 
2 *31:8 *31:10 17.2 
3 *31:10 *31:12 56.1566 
4 *31:12 *714:B 19.8741 
5 *31:12 *31:25 43.4107 
6 *31:25 *954:A 17.2 
*END

*D_NET *32 0.000208541
*CONN
*I *941:A I *D BUFx3_ASAP7_75t_R
*I *489:B I *D OA21x2_ASAP7_75t_R
*I *714:CON O *D HAxp5_ASAP7_75t_R
*CAP
1 *941:A 0
2 *489:B 3.92775e-06
3 *714:CON 3.11298e-05
4 *32:19 9.3205e-06
5 *32:6 4.43781e-05
6 *489:B *489:A2 1.23408e-05
7 *32:6 *489:A2 1.42799e-05
8 *32:6 *33:14 4.73997e-05
9 *32:19 *128:8 1.34329e-05
10 *714:B *32:6 9.30483e-06
11 *31:12 *32:6 2.30266e-05
*RES
1 *714:CON *32:6 44.4761 
2 *32:6 *489:B 20.9438 
3 *32:6 *32:19 42.2843 
4 *32:19 *941:A 17.2 
*END

*D_NET *33 0.000308806
*CONN
*I *938:A I *D BUFx3_ASAP7_75t_R
*I *489:A2 I *D OA21x2_ASAP7_75t_R
*I *714:SN O *D HAxp5_ASAP7_75t_R
*CAP
1 *938:A 2.30413e-05
2 *489:A2 1.29568e-05
3 *714:SN 2.86147e-05
4 *33:27 3.6179e-05
5 *33:14 4.1455e-05
6 *33:10 4.39751e-05
7 *938:A *428:6 6.86929e-06
8 *489:B *489:A2 1.23408e-05
9 *714:B *33:10 9.30483e-06
10 *31:12 *33:10 2.92235e-05
11 *31:25 *33:10 3.16603e-06
12 *32:6 *489:A2 1.42799e-05
13 *32:6 *33:14 4.73997e-05
*RES
1 *714:SN *33:10 48.5038 
2 *33:10 *33:14 31.6403 
3 *33:14 *489:A2 27.3617 
4 *33:14 *33:27 43.4107 
5 *33:27 *938:A 33.7796 
*END

*D_NET *34 0.000232002
*CONN
*I *955:A I *D BUFx3_ASAP7_75t_R
*I *715:A I *D HAxp5_ASAP7_75t_R
*I *750:QN O *D DFFHQNx1_ASAP7_75t_R
*CAP
1 *955:A 0
2 *715:A 3.3266e-06
3 *750:QN 1.77179e-05
4 *34:18 5.71033e-05
5 *34:16 5.37767e-05
6 *34:14 7.9019e-06
7 *34:10 2.56198e-05
8 *715:A *35:8 3.73144e-06
9 *715:A *139:33 1.62312e-05
10 *34:10 *208:164 2.88806e-06
11 *34:10 *208:171 1.52651e-06
12 *34:10 *208:175 0
13 *34:10 *224:10 1.34329e-05
14 *34:10 *228:12 2.32117e-06
15 *34:10 *229:24 3.05118e-08
16 *34:10 *277:181 3.55279e-06
17 *34:10 *287:25 1.13549e-06
18 *34:18 *37:37 0
19 *34:18 *39:8 0
20 *34:18 *144:121 0
21 *34:18 *208:175 2.1706e-05
22 *34:18 *228:12 0
23 *34:18 *287:35 0
*RES
1 *750:QN *34:10 48.3374 
2 *34:10 *34:14 20.9438 
3 *34:14 *34:16 17.2 
4 *34:16 *34:18 39.4216 
5 *34:18 *715:A 39.2134 
6 *34:14 *955:A 17.2 
*END

*D_NET *35 0.000621553
*CONN
*I *489:A1 I *D OA21x2_ASAP7_75t_R
*I *937:A I *D BUFx3_ASAP7_75t_R
*I *715:CON O *D HAxp5_ASAP7_75t_R
*CAP
1 *489:A1 1.95561e-05
2 *937:A 1.02308e-05
3 *715:CON 6.08765e-06
4 *35:20 5.9863e-05
5 *35:16 4.4657e-05
6 *35:10 0.000155795
7 *35:8 0.000147302
8 *937:A *564:B 6.78445e-06
9 *937:A *186:25 5.19552e-07
10 *35:8 *139:33 1.59615e-06
11 *35:10 *36:8 2.22736e-06
12 *35:10 *137:10 2.54163e-05
13 *35:10 *184:26 6.29648e-05
14 *35:10 *340:8 4.90042e-07
15 *35:10 *411:10 0
16 *35:10 *411:19 0
17 *35:10 *412:8 1.19435e-05
18 *35:10 *412:27 0
19 *35:10 *413:10 0
20 *35:10 *413:27 0
21 *35:10 *426:29 1.1747e-05
22 *35:10 *439:57 0
23 *35:20 *564:B 2.20128e-06
24 *35:20 *137:10 0
25 *35:20 *186:25 1.67893e-05
26 *35:20 *413:29 0
27 *35:20 *415:48 5.52807e-07
28 *35:20 *415:56 8.33296e-06
29 *35:20 *427:8 4.10928e-06
30 *35:20 *427:14 5.04414e-06
31 *35:20 *427:27 4.31886e-06
32 *35:20 *428:71 1.64764e-06
33 *35:20 *428:75 7.64465e-06
34 *715:A *35:8 3.73144e-06
*RES
1 *715:CON *35:8 39.2134 
2 *35:8 *35:10 121.081 
3 *35:10 *35:16 40.2831 
4 *35:16 *35:20 47.0478 
5 *35:20 *937:A 24.1527 
6 *35:20 *489:A1 28.4313 
*END

*D_NET *36 2.05687e-05
*CONN
*I *920:A I *D BUFx3_ASAP7_75t_R
*I *715:SN O *D HAxp5_ASAP7_75t_R
*CAP
1 *920:A 3.32808e-06
2 *715:SN 5.70918e-06
3 *36:8 9.03726e-06
4 *920:A *413:8 2.66797e-07
5 *36:8 *411:10 0
6 *35:10 *36:8 2.22736e-06
*RES
1 *715:SN *36:8 38.9053 
2 *36:8 *920:A 36.0045 
*END

*D_NET *37 0.000457303
*CONN
*I *716:B I *D HAxp5_ASAP7_75t_R
*I *952:A I *D BUFx3_ASAP7_75t_R
*I *749:QN O *D DFFHQNx1_ASAP7_75t_R
*CAP
1 *716:B 1.23452e-05
2 *952:A 3.62423e-06
3 *749:QN 3.3372e-05
4 *37:37 3.03912e-05
5 *37:31 5.59234e-05
6 *37:18 4.43994e-05
7 *37:14 3.39232e-05
8 *37:8 6.43974e-05
9 *716:B *38:6 2.28976e-06
10 *716:B *286:24 2.0895e-06
11 *952:A *208:204 1.40419e-08
12 *37:8 *305:20 9.66933e-06
13 *37:14 *208:204 3.56177e-06
14 *37:14 *208:212 6.00889e-06
15 *37:14 *274:235 9.50756e-06
16 *37:14 *409:10 1.18996e-06
17 *37:14 *442:8 2.0895e-06
18 *37:14 *442:14 1.52651e-06
19 *37:14 *447:341 2.3189e-06
20 *37:14 *447:345 1.2768e-05
21 *37:18 *140:12 8.47826e-06
22 *37:18 *447:341 0
23 *37:18 *447:399 0
24 *37:31 *494:B 0
25 *37:31 *140:12 5.30185e-05
26 *37:31 *145:102 1.04973e-05
27 *37:31 *442:14 0
28 *37:37 *286:24 5.38988e-05
29 *34:18 *37:37 0
*RES
1 *749:QN *37:8 47.7706 
2 *37:8 *37:14 41.8339 
3 *37:14 *37:18 20.0158 
4 *37:18 *952:A 36.0045 
5 *37:18 *37:31 49.3005 
6 *37:31 *37:37 36.5954 
7 *37:37 *716:B 42.4224 
*END

*D_NET *38 0.000639882
*CONN
*I *482:B I *D AND2x2_ASAP7_75t_R
*I *959:A I *D BUFx3_ASAP7_75t_R
*I *575:B I *D OA211x2_ASAP7_75t_R
*I *716:CON O *D HAxp5_ASAP7_75t_R
*CAP
1 *482:B 8.15108e-06
2 *959:A 5.36423e-06
3 *575:B 6.70252e-06
4 *716:CON 4.74518e-05
5 *38:18 3.6665e-05
6 *38:16 5.84298e-05
7 *38:10 0.000123468
8 *38:8 8.14856e-05
9 *38:6 4.74518e-05
10 *482:B *130:6 5.22376e-07
11 *482:B *130:10 2.83874e-07
12 *575:B *41:28 7.14604e-06
13 *575:B *41:34 3.93887e-05
14 *575:B *197:16 4.48031e-05
15 *959:A *400:8 8.06799e-07
16 *959:A *413:29 0
17 *959:A *415:40 1.51765e-05
18 *38:10 *561:B 2.63386e-06
19 *38:10 *623:B 9.54252e-06
20 *38:10 *113:49 4.83654e-06
21 *38:10 *120:21 6.47905e-06
22 *38:10 *126:8 2.9732e-06
23 *38:10 *130:10 2.71921e-06
24 *38:10 *131:18 3.59968e-06
25 *38:10 *131:35 0
26 *38:10 *139:55 0
27 *38:10 *139:120 0
28 *38:10 *185:10 7.50245e-06
29 *38:10 *226:8 0
30 *38:16 *439:51 0
31 *38:18 *413:29 0
32 *38:18 *415:40 7.40081e-05
33 *716:B *38:6 2.28976e-06
*RES
1 *716:CON *38:6 45.5457 
2 *38:6 *38:8 17.2 
3 *38:8 *38:10 63.0746 
4 *38:10 *38:16 48.8403 
5 *38:16 *38:18 24.7793 
6 *38:18 *575:B 47.7706 
7 *38:18 *959:A 40.0317 
8 *38:10 *482:B 38.8486 
*END

*D_NET *39 1.11565e-05
*CONN
*I *917:A I *D BUFx3_ASAP7_75t_R
*I *716:SN O *D HAxp5_ASAP7_75t_R
*CAP
1 *917:A 0
2 *716:SN 5.57826e-06
3 *39:8 5.57826e-06
4 *34:18 *39:8 0
*RES
1 *716:SN *39:8 38.9053 
2 *39:8 *917:A 34.4 
*END

*D_NET *40 0.000292069
*CONN
*I *717:A I *D HAxp5_ASAP7_75t_R
*I *948:A I *D BUFx3_ASAP7_75t_R
*I *748:QN O *D DFFHQNx1_ASAP7_75t_R
*CAP
1 *717:A 0
2 *948:A 0
3 *748:QN 0
4 *40:21 2.37379e-05
5 *40:10 2.9011e-05
6 *40:6 0.000102133
7 *40:4 9.68603e-05
8 *40:6 *89:12 0
9 *40:6 *274:276 2.30288e-06
10 *40:10 *230:20 2.22736e-06
11 *40:10 *286:20 3.32579e-06
12 *40:10 *447:399 2.68933e-07
13 *40:21 *615:B 5.79724e-07
14 *40:21 *717:B 6.6421e-06
15 *40:21 *748:CLK 0
16 *40:21 *144:129 8.45637e-06
17 *40:21 *230:20 3.3563e-06
18 *40:21 *285:18 1.039e-05
19 *40:21 *286:20 2.77657e-06
20 *40:21 *432:12 0
*RES
1 *748:QN *40:4 17.2 
2 *40:4 *40:6 40.1119 
3 *40:6 *40:10 22.2685 
4 *40:10 *948:A 34.4 
5 *40:10 *40:21 38.6003 
6 *40:21 *717:A 17.2 
*END

*D_NET *41 0.00111397
*CONN
*I *575:A1 I *D OA211x2_ASAP7_75t_R
*I *482:A I *D AND2x2_ASAP7_75t_R
*I *556:B I *D OA21x2_ASAP7_75t_R
*I *717:CON O *D HAxp5_ASAP7_75t_R
*CAP
1 *575:A1 0
2 *482:A 0
3 *556:B 2.26251e-05
4 *717:CON 9.61061e-06
5 *41:62 4.77313e-05
6 *41:58 4.88738e-05
7 *41:54 3.9288e-05
8 *41:46 2.08356e-05
9 *41:40 1.34855e-05
10 *41:34 3.41891e-05
11 *41:28 4.74775e-05
12 *41:24 4.8566e-05
13 *41:16 5.91919e-05
14 *41:14 5.83639e-05
15 *41:8 3.58899e-05
16 *556:B *158:27 7.63988e-05
17 *556:B *181:8 1.04475e-06
18 *41:8 *145:114 1.36995e-05
19 *41:8 *230:32 1.40012e-05
20 *41:14 *444:34 1.885e-06
21 *41:14 *447:428 1.26391e-06
22 *41:16 *129:8 3.84449e-06
23 *41:16 *138:8 5.51814e-06
24 *41:16 *139:8 0.000112583
25 *41:16 *139:10 1.51609e-05
26 *41:16 *340:18 8.23388e-06
27 *41:24 *490:A2 4.70139e-06
28 *41:24 *128:14 5.55093e-06
29 *41:28 *128:14 5.28019e-05
30 *41:34 *575:A2 2.88806e-06
31 *41:34 *121:8 0
32 *41:34 *125:12 2.68933e-07
33 *41:34 *197:16 2.71368e-06
34 *41:34 *415:40 2.65972e-05
35 *41:40 *421:26 9.33318e-06
36 *41:40 *426:12 3.09627e-05
37 *41:46 *126:8 2.31174e-05
38 *41:46 *130:6 1.73158e-06
39 *41:54 *120:8 1.89747e-06
40 *41:54 *130:6 2.0779e-05
41 *41:54 *421:26 1.15587e-05
42 *41:58 *421:30 6.51427e-05
43 *41:62 *486:A2 0
44 *41:62 *123:18 0
45 *41:62 *177:10 5.52807e-07
46 *41:62 *319:8 0
47 *575:B *41:28 7.14604e-06
48 *575:B *41:34 3.93887e-05
49 *25:38 *41:16 2.70778e-05
50 *28:12 *41:16 3.99982e-05
51 *28:12 *41:24 0
52 *30:23 *41:24 0
*RES
1 *717:CON *41:8 46.2265 
2 *41:8 *41:14 44.5617 
3 *41:14 *41:16 51.2481 
4 *41:16 *41:24 48.5038 
5 *41:24 *41:28 36.4537 
6 *41:28 *41:34 40.1161 
7 *41:34 *41:40 43.492 
8 *41:40 *41:46 26.154 
9 *41:46 *41:54 49.8286 
10 *41:54 *41:58 38.0582 
11 *41:58 *41:62 32.4055 
12 *41:62 *556:B 40.1975 
13 *41:46 *482:A 17.2 
14 *41:28 *575:A1 17.2 
*END

*D_NET *42 1.25559e-05
*CONN
*I *923:A I *D BUFx3_ASAP7_75t_R
*I *717:SN O *D HAxp5_ASAP7_75t_R
*CAP
1 *923:A 0
2 *717:SN 4.78888e-06
3 *42:8 4.78888e-06
4 *42:8 *230:32 0
5 *42:8 *432:12 2.97815e-06
*RES
1 *717:SN *42:8 38.9053 
2 *42:8 *923:A 34.4 
*END

*D_NET *43 0.000108026
*CONN
*I *718:B I *D HAxp5_ASAP7_75t_R
*I *949:A I *D BUFx3_ASAP7_75t_R
*I *762:QN O *D DFFHQNx1_ASAP7_75t_R
*CAP
1 *718:B 0
2 *949:A 1.0588e-05
3 *762:QN 0
4 *43:21 2.6241e-05
5 *43:6 3.68289e-05
6 *949:A *87:8 1.49979e-05
7 *43:21 *87:8 9.93857e-06
8 *43:21 *299:12 2.22736e-06
9 *43:21 *299:27 5.52807e-07
10 *6:8 *43:21 6.65157e-06
*RES
1 *762:QN *43:6 34.4 
2 *43:6 *949:A 42.1426 
3 *43:6 *43:21 38.6003 
4 *43:21 *718:B 17.2 
*END

*D_NET *44 0.000128562
*CONN
*I *556:A2 I *D OA21x2_ASAP7_75t_R
*I *485:B I *D OA21x2_ASAP7_75t_R
*I *718:CON O *D HAxp5_ASAP7_75t_R
*CAP
1 *556:A2 9.93028e-06
2 *485:B 5.28697e-06
3 *718:CON 1.18005e-05
4 *44:8 2.70177e-05
5 *485:B *485:A1 5.09299e-06
6 *556:A2 *158:27 1.12561e-05
7 *556:A2 *423:85 9.15342e-06
8 *556:A2 *423:92 6.33206e-07
9 *556:A2 *424:25 2.31101e-05
10 *44:8 *299:12 1.22048e-05
11 *44:8 *423:85 4.74248e-06
12 *44:8 *424:25 8.33296e-06
*RES
1 *718:CON *44:8 45.6633 
2 *44:8 *485:B 38.1438 
3 *44:8 *556:A2 45.4933 
*END

*D_NET *45 7.12431e-06
*CONN
*I *925:A I *D BUFx3_ASAP7_75t_R
*I *718:SN O *D HAxp5_ASAP7_75t_R
*CAP
1 *925:A 3.56215e-06
2 *718:SN 3.56215e-06
*RES
1 *718:SN *925:A 36.5393 
*END

*D_NET *46 0.00024252
*CONN
*I *719:B I *D HAxp5_ASAP7_75t_R
*I *950:A I *D BUFx3_ASAP7_75t_R
*I *761:QN O *D DFFHQNx1_ASAP7_75t_R
*CAP
1 *719:B 1.08125e-05
2 *950:A 1.21356e-05
3 *761:QN 4.44224e-05
4 *46:8 2.29481e-05
5 *46:6 4.44224e-05
6 *719:B *677:B1 0
7 *719:B *268:14 9.81516e-06
8 *719:B *401:14 1.07215e-05
9 *719:B *419:44 7.17027e-06
10 *950:A *265:12 1.32196e-05
11 *950:A *267:8 2.22736e-06
12 *950:A *268:14 2.9823e-05
13 *950:A *401:14 5.69885e-06
14 *950:A *437:104 1.3659e-05
15 *46:6 *211:45 1.54439e-05
*RES
1 *761:QN *46:6 36.9885 
2 *46:6 *46:8 17.2 
3 *46:8 *950:A 48.2808 
4 *46:8 *719:B 47.3528 
*END

*D_NET *47 0.00031291
*CONN
*I *545:B I *D OA21x2_ASAP7_75t_R
*I *485:A2 I *D OA21x2_ASAP7_75t_R
*I *719:CON O *D HAxp5_ASAP7_75t_R
*CAP
1 *545:B 0
2 *485:A2 0
3 *719:CON 4.4543e-05
4 *47:25 3.85146e-05
5 *47:14 4.69644e-05
6 *47:10 0.000100932
7 *47:6 5.99958e-05
8 *47:10 *158:10 0
9 *47:14 *485:A1 5.34278e-06
10 *47:14 *158:25 8.146e-06
11 *47:25 *50:30 0
12 *47:25 *123:12 0
13 *47:25 *160:10 0
14 *47:25 *402:12 2.39712e-06
15 *47:25 *423:75 6.07408e-06
*RES
1 *719:CON *47:6 42.3368 
2 *47:6 *47:10 28.4633 
3 *47:10 *47:14 46.6154 
4 *47:14 *485:A2 17.2 
5 *47:10 *47:25 43.5838 
6 *47:25 *545:B 17.2 
*END

*D_NET *48 2.30969e-05
*CONN
*I *928:A I *D BUFx3_ASAP7_75t_R
*I *719:SN O *D HAxp5_ASAP7_75t_R
*CAP
1 *928:A 0
2 *719:SN 3.7183e-06
3 *48:8 3.7183e-06
4 *48:8 *56:19 1.34329e-05
5 *48:8 *157:25 2.22736e-06
*RES
1 *719:SN *48:8 38.9053 
2 *48:8 *928:A 34.4 
*END

*D_NET *49 4.40897e-05
*CONN
*I *720:A I *D HAxp5_ASAP7_75t_R
*I *951:A I *D BUFx3_ASAP7_75t_R
*I *760:QN O *D DFFHQNx1_ASAP7_75t_R
*CAP
1 *720:A 1.12906e-05
2 *951:A 0
3 *760:QN 0
4 *49:12 1.07543e-05
5 *49:4 2.20448e-05
*RES
1 *760:QN *49:4 17.2 
2 *49:4 *49:12 40.5098 
3 *49:12 *951:A 17.2 
4 *49:4 *720:A 23.0831 
*END

*D_NET *50 0.00062993
*CONN
*I *914:A I *D BUFx3_ASAP7_75t_R
*I *545:A2 I *D OA21x2_ASAP7_75t_R
*I *484:B I *D OA21x2_ASAP7_75t_R
*I *720:CON O *D HAxp5_ASAP7_75t_R
*CAP
1 *914:A 1.80244e-05
2 *545:A2 5.01499e-06
3 *484:B 0
4 *720:CON 2.1277e-05
5 *50:48 2.92795e-05
6 *50:30 8.13572e-06
7 *50:24 4.20617e-05
8 *50:22 3.94781e-05
9 *50:16 4.93376e-05
10 *50:12 6.82505e-05
11 *50:10 4.66797e-05
12 *50:8 2.72215e-05
13 *545:A2 *402:12 1.78854e-06
14 *914:A *115:54 7.59064e-06
15 *914:A *407:14 5.79724e-07
16 *914:A *407:18 1.19435e-05
17 *914:A *407:24 1.31492e-05
18 *914:A *418:8 2.66797e-07
19 *914:A *418:10 2.68933e-07
20 *50:10 *407:24 5.37569e-06
21 *50:12 *534:A 2.73812e-05
22 *50:12 *115:28 1.30112e-05
23 *50:12 *144:171 0.000111145
24 *50:12 *399:10 0
25 *50:12 *407:24 3.16603e-07
26 *50:16 *530:A 3.16328e-06
27 *50:16 *402:20 1.22121e-05
28 *50:16 *419:48 2.3365e-05
29 *50:22 *53:42 8.46363e-06
30 *50:22 *157:25 2.80709e-06
31 *50:22 *420:21 1.09067e-06
32 *50:22 *420:34 1.64348e-06
33 *50:24 *545:A1 1.67206e-05
34 *50:24 *402:12 2.6409e-06
35 *50:30 *160:10 8.21017e-06
36 *50:48 *399:22 2.03526e-06
37 *47:25 *50:30 0
*RES
1 *720:CON *50:8 47.7706 
2 *50:8 *50:10 4.50533 
3 *50:10 *50:12 38.8585 
4 *50:12 *50:16 45.5457 
5 *50:16 *50:22 43.4107 
6 *50:22 *50:24 17.6492 
7 *50:24 *50:30 41.158 
8 *50:30 *484:B 17.2 
9 *50:24 *545:A2 19.8741 
10 *50:10 *50:48 38.1438 
11 *50:48 *914:A 48.9573 
*END

*D_NET *51 1.31477e-05
*CONN
*I *922:A I *D BUFx3_ASAP7_75t_R
*I *720:SN O *D HAxp5_ASAP7_75t_R
*CAP
1 *922:A 0
2 *720:SN 6.57385e-06
3 *51:8 6.57385e-06
4 *51:8 *297:33 0
*RES
1 *720:SN *51:8 38.9053 
2 *51:8 *922:A 34.4 
*END

*D_NET *52 0.000202354
*CONN
*I *721:A I *D HAxp5_ASAP7_75t_R
*I *962:A I *D BUFx3_ASAP7_75t_R
*I *759:QN O *D DFFHQNx1_ASAP7_75t_R
*CAP
1 *721:A 0
2 *962:A 0
3 *759:QN 1.20653e-05
4 *52:23 2.64592e-05
5 *52:12 3.2079e-05
6 *52:8 1.76851e-05
7 *52:12 *441:15 3.08756e-05
8 *52:12 *449:8 1.09067e-06
9 *52:12 *458:8 2.04071e-05
10 *52:23 *721:B 6.16918e-05
*RES
1 *759:QN *52:8 41.3527 
2 *52:8 *52:12 27.337 
3 *52:12 *962:A 17.2 
4 *52:12 *52:23 38.7347 
5 *52:23 *721:A 34.4 
*END

*D_NET *53 0.000279711
*CONN
*I *484:A1 I *D OA21x2_ASAP7_75t_R
*I *531:B I *D OA21x2_ASAP7_75t_R
*I *960:A I *D BUFx3_ASAP7_75t_R
*I *721:CON O *D HAxp5_ASAP7_75t_R
*CAP
1 *484:A1 0
2 *531:B 4.92261e-06
3 *960:A 2.15842e-06
4 *721:CON 1.11309e-05
5 *53:42 2.3076e-05
6 *53:27 2.79986e-05
7 *53:25 2.85202e-05
8 *53:10 4.18095e-05
9 *531:B *157:25 4.88493e-06
10 *531:B *420:21 0
11 *960:A *54:6 1.95129e-06
12 *960:A *54:19 2.46694e-05
13 *53:10 *54:6 2.28976e-06
14 *53:10 *399:8 1.11189e-05
15 *53:10 *456:10 4.83862e-06
16 *53:25 *54:19 4.52303e-05
17 *53:25 *399:10 0
18 *53:25 *456:10 8.06436e-06
19 *53:42 *530:A 1.32074e-05
20 *53:42 *157:25 8.21017e-06
21 *53:42 *419:48 5.51397e-07
22 *53:42 *419:61 5.25278e-06
23 *53:42 *419:67 1.36155e-06
24 *50:22 *53:42 8.46363e-06
*RES
1 *721:CON *53:10 47.3208 
2 *53:10 *960:A 42.4224 
3 *53:10 *53:25 33.3865 
4 *53:25 *53:27 17.2 
5 *53:27 *531:B 38.3422 
6 *53:27 *53:42 34.6545 
7 *53:42 *484:A1 17.2 
*END

*D_NET *54 0.000207707
*CONN
*I *543:A I *D OR3x1_ASAP7_75t_R
*I *930:A I *D BUFx3_ASAP7_75t_R
*I *721:SN O *D HAxp5_ASAP7_75t_R
*CAP
1 *543:A 0
2 *930:A 0
3 *721:SN 2.67124e-06
4 *54:19 4.61991e-05
5 *54:12 1.40014e-05
6 *54:6 6.28717e-05
7 *54:12 *144:171 0
8 *54:12 *399:10 1.12894e-06
9 *54:12 *456:10 0
10 *54:19 *531:A1 2.52755e-07
11 *54:19 *531:A2 2.88806e-06
12 *54:19 *160:8 3.55261e-06
13 *960:A *54:6 1.95129e-06
14 *960:A *54:19 2.46694e-05
15 *53:10 *54:6 2.28976e-06
16 *53:25 *54:19 4.52303e-05
*RES
1 *721:SN *54:6 19.3393 
2 *54:6 *54:12 43.4107 
3 *54:12 *930:A 17.2 
4 *54:6 *54:19 34.2288 
5 *54:19 *543:A 17.2 
*END

*D_NET *55 0.000349482
*CONN
*I *722:B I *D HAxp5_ASAP7_75t_R
*I *496:A I *D AND5x1_ASAP7_75t_R
*I *662:A I *D INVx1_ASAP7_75t_R
*I *758:QN O *D DFFHQNx1_ASAP7_75t_R
*CAP
1 *722:B 0
2 *496:A 0
3 *662:A 3.14608e-05
4 *758:QN 0
5 *55:29 2.75035e-05
6 *55:23 3.70949e-05
7 *55:21 6.45921e-05
8 *55:10 3.79053e-05
9 *55:4 6.14452e-05
10 *662:A *277:135 6.86929e-06
11 *55:23 *134:8 1.33669e-05
12 *55:29 *496:B 1.01102e-06
13 *55:29 *496:C 2.20493e-06
14 *55:29 *134:8 3.42809e-05
15 *55:29 *347:6 1.5804e-05
16 *20:112 *662:A 1.59435e-05
*RES
1 *758:QN *55:4 17.2 
2 *55:4 *55:10 37.779 
3 *55:10 *662:A 34.8492 
4 *55:4 *55:21 40.1975 
5 *55:21 *55:23 10.137 
6 *55:23 *55:29 47.9191 
7 *55:29 *496:A 17.2 
8 *55:23 *722:B 34.4 
*END

*D_NET *56 0.000529347
*CONN
*I *531:A2 I *D OA21x2_ASAP7_75t_R
*I *473:B I *D OA21x2_ASAP7_75t_R
*I *722:CON O *D HAxp5_ASAP7_75t_R
*CAP
1 *531:A2 3.22216e-06
2 *473:B 0
3 *722:CON 0
4 *56:27 1.58257e-05
5 *56:19 0.000113772
6 *56:12 2.24335e-05
7 *56:8 0.000123602
8 *56:6 6.30246e-05
9 *56:4 6.30246e-05
10 *56:12 *473:A1 0
11 *56:12 *157:10 0
12 *56:12 *419:19 0
13 *56:19 *675:A1 1.26613e-05
14 *56:19 *719:A 1.00799e-05
15 *56:19 *157:10 0
16 *56:19 *157:25 9.44581e-06
17 *56:19 *211:39 8.33296e-06
18 *56:19 *298:10 1.00799e-05
19 *56:19 *419:19 0
20 *56:19 *419:42 0
21 *56:19 *419:44 0
22 *56:19 *440:8 2.48096e-05
23 *56:19 *440:49 3.05118e-08
24 *56:19 *459:8 1.24745e-05
25 *56:27 *157:25 0
26 *56:27 *419:44 2.19685e-06
27 *56:27 *420:10 9.67723e-06
28 *56:27 *420:21 8.33296e-06
29 *48:8 *56:19 1.34329e-05
30 *54:19 *531:A2 2.88806e-06
*RES
1 *722:CON *56:4 17.2 
2 *56:4 *56:6 37.9726 
3 *56:6 *56:8 17.2 
4 *56:8 *56:12 33.5318 
5 *56:12 *473:B 17.2 
6 *56:8 *56:19 78.8432 
7 *56:19 *56:27 44.9585 
8 *56:27 *531:A2 36.5393 
*END

*D_NET *57 0.000186564
*CONN
*I *929:A I *D BUFx3_ASAP7_75t_R
*I *471:A I *D OR3x1_ASAP7_75t_R
*I *722:SN O *D HAxp5_ASAP7_75t_R
*CAP
1 *929:A 0
2 *471:A 0
3 *722:SN 1.28069e-05
4 *57:16 1.38925e-05
5 *57:12 5.35082e-05
6 *57:8 5.24226e-05
7 *57:8 *134:8 0
8 *57:16 *473:A1 0
9 *57:16 *67:34 5.31496e-05
10 *57:16 *404:29 7.84037e-07
*RES
1 *722:SN *57:8 44.537 
2 *57:8 *57:12 39.1278 
3 *57:12 *57:16 34.6581 
4 *57:16 *471:A 34.4 
5 *57:12 *929:A 17.2 
*END

*D_NET *58 0.00027187
*CONN
*I *496:B I *D AND5x1_ASAP7_75t_R
*I *723:A I *D HAxp5_ASAP7_75t_R
*I *658:A I *D INVx1_ASAP7_75t_R
*I *757:QN O *D DFFHQNx1_ASAP7_75t_R
*CAP
1 *496:B 2.15904e-05
2 *723:A 6.6281e-06
3 *658:A 4.09851e-05
4 *757:QN 0
5 *58:23 6.39084e-05
6 *58:12 6.09556e-05
7 *58:4 5.56605e-05
8 *496:B *144:36 5.79724e-07
9 *496:B *294:12 3.95845e-06
10 *496:B *294:42 1.10447e-05
11 *496:B *347:6 0
12 *658:A *446:74 2.79435e-06
13 *723:A *61:18 0
14 *723:A *294:42 2.20128e-06
15 *58:12 *447:82 5.52807e-07
16 *55:29 *496:B 1.01102e-06
*RES
1 *757:QN *58:4 17.2 
2 *58:4 *58:12 43.6621 
3 *58:12 *658:A 35.9189 
4 *58:4 *58:23 32.7099 
5 *58:23 *723:A 40.5948 
6 *58:23 *496:B 49.4354 
*END

*D_NET *59 4.58049e-05
*CONN
*I *472:B I *D OA21x2_ASAP7_75t_R
*I *723:CON O *D HAxp5_ASAP7_75t_R
*CAP
1 *472:B 1.78017e-05
2 *723:CON 1.78017e-05
3 *472:B *472:A2 5.62196e-06
4 *472:B *60:10 2.28976e-06
5 *472:B *417:14 2.28976e-06
*RES
1 *723:CON *472:B 46.701 
*END

*D_NET *60 2.69673e-05
*CONN
*I *927:A I *D BUFx3_ASAP7_75t_R
*I *723:SN O *D HAxp5_ASAP7_75t_R
*CAP
1 *927:A 0
2 *723:SN 1.15245e-05
3 *60:10 1.15245e-05
4 *60:10 *61:18 1.62854e-06
5 *60:10 *417:14 0
6 *472:B *60:10 2.28976e-06
*RES
1 *723:SN *60:10 41.5795 
2 *60:10 *927:A 34.4 
*END

*D_NET *61 0.000274923
*CONN
*I *916:A I *D BUFx3_ASAP7_75t_R
*I *724:B I *D HAxp5_ASAP7_75t_R
*I *496:C I *D AND5x1_ASAP7_75t_R
*I *756:QN O *D DFFHQNx1_ASAP7_75t_R
*CAP
1 *916:A 0
2 *724:B 0
3 *496:C 2.21479e-06
4 *756:QN 0
5 *61:40 1.54573e-05
6 *61:18 4.37132e-05
7 *61:14 5.41605e-05
8 *61:10 4.15349e-05
9 *61:4 4.43301e-05
10 *61:10 *520:A 1.53875e-05
11 *61:10 *521:A1 9.4467e-06
12 *61:10 *446:40 9.08513e-06
13 *61:18 *521:A1 0
14 *61:18 *294:12 0
15 *61:18 *294:42 5.52264e-06
16 *61:40 *410:8 5.79724e-07
17 *61:40 *446:40 2.96566e-05
18 *723:A *61:18 0
19 *55:29 *496:C 2.20493e-06
20 *60:10 *61:18 1.62854e-06
*RES
1 *756:QN *61:4 17.2 
2 *61:4 *61:10 45.7798 
3 *61:10 *61:14 24.1527 
4 *61:14 *61:18 49.3005 
5 *61:18 *496:C 36.0045 
6 *61:14 *724:B 17.2 
7 *61:4 *61:40 49.1237 
8 *61:40 *916:A 17.2 
*END

*D_NET *62 7.9092e-05
*CONN
*I *472:A2 I *D OA21x2_ASAP7_75t_R
*I *521:B I *D OA21x2_ASAP7_75t_R
*I *724:CON O *D HAxp5_ASAP7_75t_R
*CAP
1 *472:A2 1.5767e-05
2 *521:B 0
3 *724:CON 1.92434e-05
4 *62:10 3.50105e-05
5 *472:A2 *153:12 1.35961e-06
6 *472:A2 *404:25 0
7 *62:10 *521:A1 0
8 *62:10 *909:A 2.0895e-06
9 *62:10 *404:14 0
10 *62:10 *404:25 0
11 *472:B *472:A2 5.62196e-06
*RES
1 *724:CON *62:10 47.0411 
2 *62:10 *521:B 34.4 
3 *62:10 *472:A2 45.0151 
*END

*D_NET *63 7.90983e-06
*CONN
*I *909:A I *D BUFx3_ASAP7_75t_R
*I *724:SN O *D HAxp5_ASAP7_75t_R
*CAP
1 *909:A 2.91016e-06
2 *724:SN 2.91016e-06
3 *62:10 *909:A 2.0895e-06
*RES
1 *724:SN *909:A 36.5393 
*END

*D_NET *64 0.000248829
*CONN
*I *725:A I *D HAxp5_ASAP7_75t_R
*I *953:A I *D BUFx3_ASAP7_75t_R
*I *755:QN O *D DFFHQNx1_ASAP7_75t_R
*CAP
1 *725:A 8.37211e-06
2 *953:A 3.91733e-06
3 *755:QN 6.94472e-05
4 *64:27 2.5292e-05
5 *64:10 2.56784e-05
6 *64:6 7.42883e-05
7 *725:A *65:6 2.28976e-06
8 *725:A *66:10 1.0941e-05
9 *725:A *405:8 5.22486e-06
10 *725:A *446:94 0
11 *64:10 *248:10 1.33022e-05
12 *64:10 *334:91 5.52807e-07
13 *64:27 *248:10 3.22574e-06
14 *64:27 *446:90 6.29754e-06
*RES
1 *755:QN *64:6 44.4761 
2 *64:6 *64:10 21.7053 
3 *64:10 *953:A 37.0741 
4 *64:10 *64:27 46.2512 
5 *64:27 *725:A 42.7625 
*END

*D_NET *65 0.000308443
*CONN
*I *470:B I *D OA21x2_ASAP7_75t_R
*I *523:B I *D OA211x2_ASAP7_75t_R
*I *525:A1 I *D AO21x1_ASAP7_75t_R
*I *519:B I *D OA21x2_ASAP7_75t_R
*I *725:CON O *D HAxp5_ASAP7_75t_R
*CAP
1 *470:B 0
2 *523:B 0
3 *525:A1 0
4 *519:B 1.67753e-06
5 *725:CON 2.96125e-05
6 *65:31 1.46892e-05
7 *65:23 2.49751e-05
8 *65:10 2.05224e-05
9 *65:6 3.81714e-05
10 *519:B *108:14 2.20128e-06
11 *65:6 *725:B 3.27643e-05
12 *65:6 *66:10 2.0895e-06
13 *65:6 *405:28 4.31538e-05
14 *65:6 *405:32 1.07377e-06
15 *65:10 *108:14 7.27531e-06
16 *65:23 *519:A1 2.6409e-06
17 *65:23 *519:A2 3.56648e-06
18 *65:23 *68:14 6.6195e-06
19 *65:23 *152:6 4.60953e-05
20 *65:31 *523:A1 7.63254e-07
21 *65:31 *525:A2 3.32524e-06
22 *65:31 *152:6 7.35354e-06
23 *65:31 *154:12 1.67815e-06
24 *65:31 *405:38 7.05633e-06
25 *65:31 *446:8 8.29921e-06
26 *65:31 *446:86 5.49212e-07
27 *725:A *65:6 2.28976e-06
*RES
1 *725:CON *65:6 41.2671 
2 *65:6 *65:10 23.958 
3 *65:10 *519:B 36.0895 
4 *65:10 *65:23 31.1054 
5 *65:23 *65:31 49.4921 
6 *65:31 *525:A1 17.2 
7 *65:23 *523:B 17.2 
8 *65:6 *470:B 17.2 
*END

*D_NET *66 4.55756e-05
*CONN
*I *910:A I *D BUFx3_ASAP7_75t_R
*I *725:SN O *D HAxp5_ASAP7_75t_R
*CAP
1 *910:A 0
2 *725:SN 1.62726e-05
3 *66:10 1.62726e-05
4 *725:A *66:10 1.0941e-05
5 *65:6 *66:10 2.0895e-06
*RES
1 *725:SN *66:10 43.7188 
2 *66:10 *910:A 34.4 
*END

*D_NET *67 0.000732247
*CONN
*I *495:D I *D AND4x1_ASAP7_75t_R
*I *726:B I *D HAxp5_ASAP7_75t_R
*I *462:A I *D INVx1_ASAP7_75t_R
*I *754:QN O *D DFFHQNx1_ASAP7_75t_R
*CAP
1 *495:D 0
2 *726:B 2.27052e-06
3 *462:A 0
4 *754:QN 3.12994e-05
5 *67:46 4.92109e-05
6 *67:42 6.29543e-05
7 *67:34 0.000142654
8 *67:23 0.000173056
9 *67:14 2.07644e-05
10 *67:6 9.39388e-05
11 *726:B *446:40 5.62196e-06
12 *67:14 *95:8 5.52807e-07
13 *67:14 *291:44 0
14 *67:23 *274:32 0
15 *67:23 *277:32 0
16 *67:23 *291:44 7.61977e-06
17 *67:23 *410:8 0
18 *67:34 *471:B 4.89331e-06
19 *67:34 *473:A1 0
20 *67:34 *524:A 1.26127e-05
21 *67:34 *933:A 0
22 *67:34 *152:12 0
23 *67:34 *348:12 0
24 *67:34 *404:14 0
25 *67:34 *404:25 0
26 *67:34 *404:29 3.93602e-06
27 *67:34 *410:8 0
28 *67:34 *419:19 0
29 *67:34 *446:8 0
30 *67:34 *446:86 0
31 *67:34 *448:43 1.30746e-06
32 *67:42 *266:14 0
33 *67:42 *334:130 9.26249e-06
34 *67:42 *348:12 0
35 *67:42 *419:27 0
36 *67:46 *676:A 8.11416e-06
37 *67:46 *334:138 4.45897e-05
38 *20:112 *67:42 4.43846e-06
39 *57:16 *67:34 5.31496e-05
*RES
1 *754:QN *67:6 31.6403 
2 *67:6 *67:14 44.7884 
3 *67:14 *462:A 17.2 
4 *67:6 *67:23 47.611 
5 *67:23 *726:B 36.0045 
6 *67:23 *67:34 101.933 
7 *67:34 *67:42 44.9585 
8 *67:42 *67:46 46.6154 
9 *67:46 *495:D 17.2 
*END

*D_NET *68 0.000128174
*CONN
*I *518:B I *D OA21x2_ASAP7_75t_R
*I *523:C I *D OA211x2_ASAP7_75t_R
*I *726:CON O *D HAxp5_ASAP7_75t_R
*CAP
1 *518:B 0
2 *523:C 0
3 *726:CON 2.21143e-05
4 *68:14 1.84452e-05
5 *68:6 4.05595e-05
6 *68:6 *518:A1 1.52651e-06
7 *68:6 *446:40 4.20803e-06
8 *68:6 *461:22 8.87763e-06
9 *68:6 *461:30 1.73158e-05
10 *68:14 *151:8 2.77657e-06
11 *68:14 *154:8 5.17782e-06
12 *68:14 *154:12 5.52807e-07
13 *68:14 *461:30 0
14 *65:23 *68:14 6.6195e-06
*RES
1 *726:CON *68:6 33.7796 
2 *68:6 *68:14 48.2241 
3 *68:14 *523:C 17.2 
4 *68:6 *518:B 17.2 
*END

*D_NET *69 7.23187e-05
*CONN
*I *523:A1 I *D OA211x2_ASAP7_75t_R
*I *518:A1 I *D OA21x2_ASAP7_75t_R
*I *726:SN O *D HAxp5_ASAP7_75t_R
*CAP
1 *523:A1 6.81338e-06
2 *518:A1 4.52772e-06
3 *726:SN 3.62417e-06
4 *69:8 1.49653e-05
5 *518:A1 *446:8 6.33206e-07
6 *518:A1 *446:10 2.05045e-06
7 *518:A1 *461:30 1.21922e-05
8 *523:A1 *523:A2 5.85387e-06
9 *523:A1 *152:6 2.90209e-08
10 *523:A1 *446:8 6.1681e-06
11 *523:A1 *461:30 1.31716e-05
12 *65:31 *523:A1 7.63254e-07
13 *68:6 *518:A1 1.52651e-06
*RES
1 *726:SN *69:8 36.0045 
2 *69:8 *518:A1 39.2984 
3 *69:8 *523:A1 41.6361 
*END

*D_NET *70 8.61132e-05
*CONN
*I *601:A I *D INVx1_ASAP7_75t_R
*I *727:B I *D HAxp5_ASAP7_75t_R
*I *731:QN O *D DFFHQNx1_ASAP7_75t_R
*CAP
1 *601:A 1.54685e-06
2 *727:B 1.61958e-05
3 *731:QN 1.26337e-05
4 *70:8 3.03763e-05
5 *601:A *144:89 5.0551e-07
6 *601:A *436:63 5.41446e-06
7 *727:B *517:A 3.81627e-06
8 *727:B *690:B2 2.01951e-06
9 *727:B *144:97 1.94229e-07
10 *727:B *147:97 6.38149e-06
11 *727:B *447:227 0
12 *70:8 *611:A1 5.85806e-06
13 *70:8 *690:B2 6.33206e-07
14 *70:8 *144:97 5.37866e-07
15 *70:8 *447:244 0
*RES
1 *731:QN *70:8 44.537 
2 *70:8 *727:B 46.0848 
3 *70:8 *601:A 36.0045 
*END

*D_NET *71 3.37967e-05
*CONN
*I *517:A I *D INVx1_ASAP7_75t_R
*I *727:CON O *D HAxp5_ASAP7_75t_R
*CAP
1 *517:A 1.29007e-05
2 *727:CON 1.29007e-05
3 *517:A *147:91 4.17901e-06
4 *727:B *517:A 3.81627e-06
*RES
1 *727:CON *517:A 44.0269 
*END

*D_NET *72 0.000157766
*CONN
*I *731:D I *D DFFHQNx1_ASAP7_75t_R
*I *611:Y O *D OA21x2_ASAP7_75t_R
*CAP
1 *731:D 0
2 *611:Y 0
3 *72:6 7.59779e-05
4 *72:4 7.59779e-05
5 *72:6 *144:97 2.12481e-06
6 *72:6 *215:22 3.68565e-06
*RES
1 *611:Y *72:4 17.2 
2 *72:4 *72:6 35.8333 
3 *72:6 *731:D 17.2 
*END

*D_NET *73 5.6949e-05
*CONN
*I *732:D I *D DFFHQNx1_ASAP7_75t_R
*I *615:Y O *D OA21x2_ASAP7_75t_R
*CAP
1 *732:D 2.84745e-05
2 *615:Y 2.84745e-05
3 *732:D *732:CLK 0
*RES
1 *615:Y *732:D 43.492 
*END

*D_NET *74 0.00010962
*CONN
*I *733:D I *D DFFHQNx1_ASAP7_75t_R
*I *620:Y O *D AOI22x1_ASAP7_75t_R
*CAP
1 *733:D 2.23654e-05
2 *620:Y 1.21176e-05
3 *74:10 3.44831e-05
4 *74:10 *147:118 0
5 *74:10 *211:228 2.33787e-05
6 *74:10 *222:12 1.26378e-06
7 *74:10 *305:12 1.60115e-05
8 *18:10 *74:10 0
*RES
1 *620:Y *74:10 47.0977 
2 *74:10 *733:D 45.6313 
*END

*D_NET *75 0.000182989
*CONN
*I *734:D I *D DFFHQNx1_ASAP7_75t_R
*I *628:Y O *D OA33x2_ASAP7_75t_R
*CAP
1 *734:D 3.28242e-05
2 *628:Y 0
3 *75:10 5.7239e-05
4 *75:6 2.44148e-05
5 *75:10 *694:A1 2.82122e-05
6 *75:10 *694:B1 1.34466e-06
7 *75:10 *274:199 1.29984e-06
8 *75:10 *287:16 1.36943e-05
9 *75:10 *287:25 0
10 *75:10 *447:271 2.20061e-05
11 *75:10 *448:87 1.95425e-06
*RES
1 *628:Y *75:6 34.4 
2 *75:6 *75:10 41.9793 
3 *75:10 *734:D 38.0582 
*END

*D_NET *76 4.37063e-05
*CONN
*I *735:D I *D DFFHQNx1_ASAP7_75t_R
*I *635:Y O *D AOI22x1_ASAP7_75t_R
*CAP
1 *735:D 1.53313e-05
2 *635:Y 4.94965e-06
3 *76:8 2.0281e-05
4 *76:8 *432:100 0
5 *635:A1 *76:8 5.24059e-07
6 *16:10 *76:8 2.6203e-06
*RES
1 *635:Y *76:8 37.779 
2 *76:8 *735:D 40.2831 
*END

*D_NET *77 5.56067e-05
*CONN
*I *736:D I *D DFFHQNx1_ASAP7_75t_R
*I *640:Y O *D AO21x1_ASAP7_75t_R
*CAP
1 *736:D 1.65664e-05
2 *640:Y 1.01777e-05
3 *77:8 2.67441e-05
4 *736:D *277:271 0
5 *77:8 *239:14 2.11853e-06
6 *15:10 *736:D 0
7 *15:16 *77:8 0
*RES
1 *640:Y *77:8 38.6786 
2 *77:8 *736:D 46.2265 
*END

*D_NET *78 0.000130831
*CONN
*I *737:D I *D DFFHQNx1_ASAP7_75t_R
*I *645:Y O *D AO21x1_ASAP7_75t_R
*CAP
1 *737:D 0
2 *645:Y 2.58812e-05
3 *78:14 3.62612e-05
4 *78:10 6.21424e-05
5 *78:10 *645:B 1.52651e-06
6 *78:10 *343:25 3.89037e-06
7 *15:16 *78:10 1.12894e-06
*RES
1 *645:Y *78:10 49.5488 
2 *78:10 *78:14 33.7796 
3 *78:14 *737:D 17.2 
*END

*D_NET *79 2.67913e-05
*CONN
*I *738:D I *D DFFHQNx1_ASAP7_75t_R
*I *648:Y O *D AO221x1_ASAP7_75t_R
*CAP
1 *738:D 0
2 *648:Y 1.07228e-05
3 *79:10 1.07228e-05
4 *79:10 *897:A 3.82116e-06
5 *20:26 *79:10 7.21596e-07
6 *23:12 *79:10 3.05118e-08
7 *23:18 *79:10 7.72307e-07
*RES
1 *648:Y *79:10 40.4531 
2 *79:10 *738:D 34.4 
*END

*D_NET *80 3.36307e-05
*CONN
*I *739:D I *D DFFHQNx1_ASAP7_75t_R
*I *653:Y O *D OA22x2_ASAP7_75t_R
*CAP
1 *739:D 0
2 *653:Y 1.31236e-05
3 *80:10 1.31236e-05
4 *80:10 *277:16 6.33206e-07
5 *80:10 *292:10 4.10928e-06
6 *80:10 *292:18 2.6409e-06
*RES
1 *653:Y *80:10 41.5228 
2 *80:10 *739:D 34.4 
*END

*D_NET *81 0.00012136
*CONN
*I *740:D I *D DFFHQNx1_ASAP7_75t_R
*I *657:Y O *D OA21x2_ASAP7_75t_R
*CAP
1 *740:D 1.78002e-05
2 *657:Y 2.37145e-05
3 *81:10 4.15147e-05
4 *740:D *446:50 3.33273e-05
5 *81:10 *657:A1 0
6 *81:10 *208:70 3.95845e-06
7 *81:10 *252:12 1.04475e-06
*RES
1 *657:Y *81:10 45.8014 
2 *81:10 *740:D 44.5617 
*END

*D_NET *82 3.01648e-05
*CONN
*I *741:D I *D DFFHQNx1_ASAP7_75t_R
*I *661:Y O *D OA21x2_ASAP7_75t_R
*CAP
1 *741:D 0
2 *661:Y 1.00791e-05
3 *82:10 1.00791e-05
4 *82:10 *144:49 1.12894e-06
5 *82:10 *294:14 8.87763e-06
*RES
1 *661:Y *82:10 40.4531 
2 *82:10 *741:D 34.4 
*END

*D_NET *83 4.32894e-05
*CONN
*I *742:D I *D DFFHQNx1_ASAP7_75t_R
*I *665:Y O *D AO221x1_ASAP7_75t_R
*CAP
1 *742:D 2.16447e-05
2 *665:Y 2.16447e-05
*RES
1 *665:Y *742:D 43.492 
*END

*D_NET *84 3.9763e-05
*CONN
*I *743:D I *D DFFHQNx1_ASAP7_75t_R
*I *669:Y O *D AO221x1_ASAP7_75t_R
*CAP
1 *743:D 1.9376e-05
2 *669:Y 1.9376e-05
3 *743:D *743:CLK 1.01102e-06
*RES
1 *669:Y *743:D 43.492 
*END

*D_NET *85 4.4877e-05
*CONN
*I *744:D I *D DFFHQNx1_ASAP7_75t_R
*I *673:Y O *D OA21x2_ASAP7_75t_R
*CAP
1 *744:D 0
2 *673:Y 2.06064e-05
3 *85:10 2.06064e-05
4 *85:10 *144:175 2.28976e-06
5 *85:10 *437:58 0
6 *85:10 *437:68 1.37455e-06
*RES
1 *673:Y *85:10 47.831 
2 *85:10 *744:D 34.4 
*END

*D_NET *86 4.31433e-05
*CONN
*I *745:D I *D DFFHQNx1_ASAP7_75t_R
*I *678:Y O *D OA22x2_ASAP7_75t_R
*CAP
1 *745:D 8.97221e-06
2 *678:Y 5.03907e-06
3 *86:8 1.40113e-05
4 *745:D *274:103 6.03526e-06
5 *86:8 *267:8 0
6 *86:8 *334:228 9.08543e-06
*RES
1 *678:Y *86:8 37.779 
2 *86:8 *745:D 38.1438 
*END

*D_NET *87 0.000152565
*CONN
*I *746:D I *D DFFHQNx1_ASAP7_75t_R
*I *683:Y O *D OA22x2_ASAP7_75t_R
*CAP
1 *746:D 0
2 *683:Y 1.14505e-05
3 *87:12 4.77949e-05
4 *87:8 5.92454e-05
5 *87:8 *144:157 4.735e-06
6 *87:8 *435:8 0
7 *87:8 *439:10 3.76965e-06
8 *87:12 *211:33 0
9 *949:A *87:8 1.49979e-05
10 *6:8 *87:8 6.33206e-07
11 *43:21 *87:8 9.93857e-06
*RES
1 *683:Y *87:8 46.2265 
2 *87:8 *87:12 39.1278 
3 *87:12 *746:D 17.2 
*END

*D_NET *88 1.78068e-05
*CONN
*I *747:D I *D DFFHQNx1_ASAP7_75t_R
*I *690:Y O *D OA222x2_ASAP7_75t_R
*CAP
1 *747:D 0
2 *690:Y 3.78853e-06
3 *88:8 3.78853e-06
4 *88:8 *208:212 9.94583e-06
5 *88:8 *436:69 2.83874e-07
*RES
1 *690:Y *88:8 37.779 
2 *88:8 *747:D 34.4 
*END

*D_NET *89 0.000179669
*CONN
*I *748:D I *D DFFHQNx1_ASAP7_75t_R
*I *691:Y O *D OA222x2_ASAP7_75t_R
*CAP
1 *748:D 0
2 *691:Y 6.07703e-06
3 *89:12 7.00139e-05
4 *89:8 7.6091e-05
5 *89:12 *274:276 2.74873e-05
6 *40:6 *89:12 0
*RES
1 *691:Y *89:8 37.779 
2 *89:8 *89:12 47.685 
3 *89:12 *748:D 17.2 
*END

*D_NET *90 0.000246729
*CONN
*I *749:D I *D DFFHQNx1_ASAP7_75t_R
*I *693:Y O *D OA222x2_ASAP7_75t_R
*CAP
1 *749:D 0
2 *693:Y 1.45541e-05
3 *90:12 6.56857e-05
4 *90:8 8.02398e-05
5 *90:8 *211:228 5.18773e-06
6 *90:8 *219:8 4.11476e-06
7 *90:8 *279:10 3.56738e-06
8 *90:8 *398:10 8.2174e-07
9 *90:12 *208:210 4.56575e-05
10 *90:12 *305:20 2.69007e-05
*RES
1 *693:Y *90:8 46.2265 
2 *90:8 *90:12 47.685 
3 *90:12 *749:D 17.2 
*END

*D_NET *91 0.000167798
*CONN
*I *750:D I *D DFFHQNx1_ASAP7_75t_R
*I *694:Y O *D OA222x2_ASAP7_75t_R
*CAP
1 *750:D 0
2 *694:Y 5.6435e-05
3 *91:12 5.93288e-06
4 *91:6 6.23679e-05
5 *91:6 *694:C2 1.06092e-05
6 *91:6 *208:156 1.89965e-05
7 *91:6 *305:20 1.34561e-05
8 *91:12 *436:109 0
*RES
1 *694:Y *91:6 45.5457 
2 *91:6 *91:12 37.779 
3 *91:12 *750:D 17.2 
*END

*D_NET *92 9.45514e-05
*CONN
*I *751:D I *D DFFHQNx1_ASAP7_75t_R
*I *696:Y O *D OA222x2_ASAP7_75t_R
*CAP
1 *751:D 0
2 *696:Y 1.41143e-05
3 *92:12 2.85122e-05
4 *92:8 4.26265e-05
5 *92:8 *696:C1 3.71468e-06
6 *92:12 *211:269 5.58366e-06
7 *92:12 *432:92 0
*RES
1 *696:Y *92:8 40.2831 
2 *92:8 *92:12 37.474 
3 *92:12 *751:D 17.2 
*END

*D_NET *93 0.000114229
*CONN
*I *752:D I *D DFFHQNx1_ASAP7_75t_R
*I *697:Y O *D OA222x2_ASAP7_75t_R
*CAP
1 *752:D 2.47671e-06
2 *697:Y 3.72827e-05
3 *93:8 3.97594e-05
4 *752:D *289:12 2.22736e-06
5 *752:D *447:452 9.94583e-06
6 *93:8 *697:A1 3.89037e-06
7 *93:8 *697:B1 1.04475e-06
8 *93:8 *697:B2 3.68287e-06
9 *93:8 *697:C2 9.08513e-06
10 *93:8 *277:265 1.07377e-06
11 *93:8 *277:269 2.90209e-08
12 *93:8 *307:28 3.73144e-06
13 *93:8 *338:20 0
*RES
1 *697:Y *93:8 49.9099 
2 *93:8 *752:D 37.779 
*END

*D_NET *94 3.70822e-05
*CONN
*I *753:D I *D DFFHQNx1_ASAP7_75t_R
*I *698:Y O *D OA222x2_ASAP7_75t_R
*CAP
1 *753:D 1.0612e-05
2 *698:Y 7.624e-06
3 *94:8 1.8236e-05
4 *94:8 *277:253 0
5 *94:8 *397:33 6.10236e-07
*RES
1 *698:Y *94:8 38.9053 
2 *94:8 *753:D 38.1438 
*END

*D_NET *95 5.19827e-05
*CONN
*I *754:D I *D DFFHQNx1_ASAP7_75t_R
*I *699:Y O *D OA222x2_ASAP7_75t_R
*CAP
1 *754:D 0
2 *699:Y 1.56172e-05
3 *95:8 1.56172e-05
4 *95:8 *277:43 5.79724e-07
5 *95:8 *447:44 1.96158e-05
6 *67:14 *95:8 5.52807e-07
*RES
1 *699:Y *95:8 46.2265 
2 *95:8 *754:D 34.4 
*END

*D_NET *96 0.000103613
*CONN
*I *755:D I *D DFFHQNx1_ASAP7_75t_R
*I *701:Y O *D OA222x2_ASAP7_75t_R
*CAP
1 *755:D 5.13755e-06
2 *701:Y 2.10378e-05
3 *96:8 2.61754e-05
4 *755:D *292:39 1.77587e-06
5 *755:D *324:8 1.79856e-05
6 *755:D *334:91 2.69121e-05
7 *96:8 *701:B1 5.19552e-07
8 *96:8 *701:C2 2.52755e-07
9 *96:8 *447:203 3.81627e-06
*RES
1 *701:Y *96:8 43.492 
2 *96:8 *755:D 43.4107 
*END

*D_NET *97 1.08751e-05
*CONN
*I *756:D I *D DFFHQNx1_ASAP7_75t_R
*I *702:Y O *D OA222x2_ASAP7_75t_R
*CAP
1 *756:D 0
2 *702:Y 5.04519e-06
3 *97:8 5.04519e-06
4 *97:8 *147:30 7.84772e-07
5 *97:8 *346:10 0
*RES
1 *702:Y *97:8 37.779 
2 *97:8 *756:D 34.4 
*END

*D_NET *98 2.51771e-05
*CONN
*I *757:D I *D DFFHQNx1_ASAP7_75t_R
*I *703:Y O *D OA222x2_ASAP7_75t_R
*CAP
1 *757:D 6.72187e-06
2 *703:Y 3.66119e-06
3 *98:8 1.03831e-05
4 *98:8 *208:70 0
5 *98:8 *446:74 4.41094e-06
*RES
1 *703:Y *98:8 37.779 
2 *98:8 *757:D 37.0741 
*END

*D_NET *99 9.57724e-06
*CONN
*I *758:D I *D DFFHQNx1_ASAP7_75t_R
*I *704:Y O *D OA222x2_ASAP7_75t_R
*CAP
1 *758:D 0
2 *704:Y 4.24328e-06
3 *99:8 4.24328e-06
4 *99:8 *437:22 1.09067e-06
*RES
1 *704:Y *99:8 37.779 
2 *99:8 *758:D 34.4 
*END

*D_NET *100 4.37494e-05
*CONN
*I *759:D I *D DFFHQNx1_ASAP7_75t_R
*I *705:Y O *D OA222x2_ASAP7_75t_R
*CAP
1 *759:D 2.18747e-05
2 *705:Y 2.18747e-05
*RES
1 *705:Y *759:D 43.492 
*END

*D_NET *101 4.72366e-05
*CONN
*I *760:D I *D DFFHQNx1_ASAP7_75t_R
*I *706:Y O *D OA222x2_ASAP7_75t_R
*CAP
1 *760:D 2.32791e-05
2 *706:Y 2.32791e-05
3 *760:D *433:27 6.7842e-07
*RES
1 *706:Y *760:D 43.492 
*END

*D_NET *102 4.05301e-05
*CONN
*I *761:D I *D DFFHQNx1_ASAP7_75t_R
*I *708:Y O *D OA222x2_ASAP7_75t_R
*CAP
1 *761:D 4.61638e-06
2 *708:Y 2.48434e-06
3 *102:8 7.10073e-06
4 *102:8 *441:15 1.31643e-05
5 *102:8 *449:23 1.31643e-05
*RES
1 *708:Y *102:8 38.9053 
2 *102:8 *761:D 36.0045 
*END

*D_NET *103 3.63097e-05
*CONN
*I *762:D I *D DFFHQNx1_ASAP7_75t_R
*I *710:Y O *D OA222x2_ASAP7_75t_R
*CAP
1 *762:D 1.13794e-05
2 *710:Y 4.9585e-06
3 *103:8 1.63379e-05
4 *103:8 *158:10 3.63386e-06
*RES
1 *710:Y *103:8 37.779 
2 *103:8 *762:D 39.2134 
*END

*D_NET *104 0.000138727
*CONN
*P req_msg[20] I
*I *464:A I *D BUFx2_ASAP7_75t_R
*CAP
1 req_msg[20] 4.83639e-05
2 *464:A 3.8569e-06
3 *104:9 5.22208e-05
4 *104:9 resp_msg[4] 3.42851e-05
*RES
1 req_msg[20] *104:9 45.5974 
2 *104:9 *464:A 36.0045 
*END

*D_NET *105 0.000155764
*CONN
*P req_msg[1] I
*I *466:A I *D BUFx2_ASAP7_75t_R
*CAP
1 req_msg[1] 4.5685e-05
2 *466:A 0
3 *105:13 3.21967e-05
4 *105:9 7.78818e-05
5 *105:9 req_rdy 0
*RES
1 req_msg[1] *105:9 36.0508 
2 *105:9 *105:13 43.0118 
3 *105:13 *466:A 34.4 
*END

*D_NET *106 0.000266717
*CONN
*I *504:A1 I *D OA21x2_ASAP7_75t_R
*I *515:A1 I *D AO221x1_ASAP7_75t_R
*I *467:Y O *D INVx1_ASAP7_75t_R
*CAP
1 *504:A1 0
2 *515:A1 2.25709e-06
3 *467:Y 1.75694e-05
4 *106:31 7.50156e-06
5 *106:23 6.99302e-05
6 *106:8 8.22551e-05
7 *515:A1 *336:14 5.85387e-06
8 *515:A1 *353:12 8.13414e-06
9 *106:8 *336:14 1.26923e-05
10 *106:8 *336:23 1.1274e-06
11 *106:8 *354:20 4.7643e-07
12 *106:8 *377:15 1.68764e-05
13 *106:23 *515:B1 3.06518e-07
14 *106:23 *334:44 3.02951e-05
15 *106:23 *336:23 4.27283e-06
16 *106:23 *353:12 3.49596e-06
17 *106:31 *728:CLK 2.90269e-07
18 *106:31 *447:30 3.38221e-06
*RES
1 *467:Y *106:8 49.6055 
2 *106:8 *515:A1 36.5393 
3 *106:8 *106:23 45.2093 
4 *106:23 *106:31 38.8486 
5 *106:31 *504:A1 17.2 
*END

*D_NET *107 0.000133613
*CONN
*P req_msg[19] I
*I *468:A I *D BUFx2_ASAP7_75t_R
*CAP
1 req_msg[19] 4.03757e-05
2 *468:A 0
3 *107:13 2.64308e-05
4 *107:9 6.68065e-05
*RES
1 req_msg[19] *107:9 47.1673 
2 *107:9 *107:13 38.0582 
3 *107:13 *468:A 17.2 
*END

*D_NET *108 9.16935e-05
*CONN
*I *470:A1 I *D OA21x2_ASAP7_75t_R
*I *469:Y O *D INVx1_ASAP7_75t_R
*CAP
1 *470:A1 0
2 *469:Y 7.43157e-06
3 *108:14 2.24336e-05
4 *108:8 2.98651e-05
5 *108:8 *147:14 5.17782e-06
6 *108:14 *151:8 6.79293e-06
7 *108:14 *154:12 0
8 *108:14 *405:32 5.25794e-06
9 *108:14 *405:38 5.25794e-06
10 *519:B *108:14 2.20128e-06
11 *65:10 *108:14 7.27531e-06
*RES
1 *469:Y *108:8 38.1438 
2 *108:8 *108:14 36.1493 
3 *108:14 *470:A1 17.2 
*END

*D_NET *109 0.00022337
*CONN
*I *528:A1 I *D OA21x2_ASAP7_75t_R
*I *913:A I *D BUFx3_ASAP7_75t_R
*I *470:Y O *D OA21x2_ASAP7_75t_R
*CAP
1 *528:A1 0
2 *913:A 4.49176e-06
3 *470:Y 0
4 *109:23 2.19831e-05
5 *109:8 6.63186e-05
6 *109:6 3.98437e-05
7 *913:A *443:22 5.25794e-06
8 *109:8 *157:10 0
9 *109:8 *403:12 1.34402e-05
10 *109:8 *403:31 1.31643e-05
11 *109:8 *405:28 6.33206e-07
12 *109:23 *110:12 7.24542e-06
13 *109:23 *112:25 7.56786e-06
14 *109:23 *157:10 0
15 *109:23 *403:31 4.34242e-05
*RES
1 *470:Y *109:6 34.4 
2 *109:6 *109:8 33.2268 
3 *109:8 *913:A 38.1438 
4 *109:8 *109:23 38.8801 
5 *109:23 *528:A1 17.2 
*END

*D_NET *110 0.000206385
*CONN
*I *528:A2 I *D OA21x2_ASAP7_75t_R
*I *474:A2 I *D OAI21x1_ASAP7_75t_R
*I *471:Y O *D OR3x1_ASAP7_75t_R
*CAP
1 *528:A2 2.56617e-06
2 *474:A2 0
3 *471:Y 3.9484e-05
4 *110:25 3.17697e-05
5 *110:12 5.69932e-06
6 *110:6 7.43868e-05
7 *528:A2 *112:25 1.40419e-08
8 *110:6 *135:6 3.09635e-05
9 *110:12 *157:10 0
10 *110:25 *135:6 1.42563e-05
11 *110:25 *403:31 0
12 *109:23 *110:12 7.24542e-06
*RES
1 *471:Y *110:6 39.1278 
2 *110:6 *110:12 40.0317 
3 *110:12 *474:A2 17.2 
4 *110:6 *110:25 49.067 
5 *110:25 *528:A2 18.2696 
*END

*D_NET *111 0.000211089
*CONN
*I *473:A2 I *D OA21x2_ASAP7_75t_R
*I *526:B I *D OA21x2_ASAP7_75t_R
*I *472:Y O *D OA21x2_ASAP7_75t_R
*CAP
1 *473:A2 0
2 *526:B 1.8842e-05
3 *472:Y 2.61226e-05
4 *111:23 3.53271e-05
5 *111:8 5.41692e-05
6 *111:6 2.61226e-05
7 *526:B *155:14 6.6421e-06
8 *526:B *157:10 0
9 *526:B *403:18 9.48496e-06
10 *111:6 *524:A 5.17782e-06
11 *111:6 *155:8 5.09299e-06
12 *111:6 *403:12 3.56648e-06
13 *111:6 *404:25 1.76978e-05
14 *111:23 *144:28 0
15 *111:23 *157:10 0
16 *111:23 *403:18 2.84286e-06
17 *111:23 *404:29 0
*RES
1 *472:Y *111:6 40.1975 
2 *111:6 *111:8 17.2 
3 *111:8 *526:B 47.6326 
4 *111:8 *111:23 41.9793 
5 *111:23 *473:A2 17.2 
*END

*D_NET *112 0.000119116
*CONN
*I *528:B I *D OA21x2_ASAP7_75t_R
*I *474:B I *D OAI21x1_ASAP7_75t_R
*I *473:Y O *D OA21x2_ASAP7_75t_R
*CAP
1 *528:B 0
2 *474:B 0
3 *473:Y 6.99144e-06
4 *112:25 4.164e-05
5 *112:19 4.80939e-05
6 *112:6 1.34454e-05
7 *112:19 *113:8 7.84037e-07
8 *112:19 *157:10 5.79724e-07
9 *112:25 *145:12 0
10 *528:A2 *112:25 1.40419e-08
11 *109:23 *112:25 7.56786e-06
*RES
1 *473:Y *112:6 20.9438 
2 *112:6 *474:B 17.2 
3 *112:6 *112:19 38.8203 
4 *112:19 *112:25 35.5258 
5 *112:25 *528:B 34.4 
*END

*D_NET *113 0.00145513
*CONN
*I *536:D I *D AND4x1_ASAP7_75t_R
*I *561:A1 I *D AO21x2_ASAP7_75t_R
*I *492:A1 I *D AO211x2_ASAP7_75t_R
*I *474:Y O *D OAI21x1_ASAP7_75t_R
*CAP
1 *536:D 1.35364e-06
2 *561:A1 0
3 *492:A1 0
4 *474:Y 0
5 *113:56 9.48389e-05
6 *113:49 2.79899e-05
7 *113:34 1.42949e-05
8 *113:28 9.78132e-05
9 *113:24 8.92546e-05
10 *113:18 3.95846e-05
11 *113:12 0.000119889
12 *113:10 0.000114031
13 *113:8 0.000125454
14 *113:6 3.19686e-05
15 *536:D *116:36 1.35684e-06
16 *536:D *117:14 3.90258e-06
17 *113:8 *139:142 9.48786e-06
18 *113:8 *145:29 8.89125e-07
19 *113:8 *157:10 0.000111519
20 *113:8 *334:126 1.49407e-08
21 *113:12 *230:68 0.000187099
22 *113:12 *266:6 0
23 *113:18 *144:140 1.26336e-05
24 *113:24 *145:40 6.90144e-05
25 *113:24 *145:46 1.93553e-05
26 *113:24 *334:304 2.01929e-06
27 *113:28 *145:55 2.41166e-05
28 *113:34 *624:A 0
29 *113:34 *211:10 6.74023e-06
30 *113:34 *226:8 4.90042e-07
31 *113:49 *561:A2 6.19506e-06
32 *113:49 *625:B 6.07405e-06
33 *113:49 *226:8 1.02642e-06
34 *113:56 *116:36 6.33206e-07
35 *113:56 *139:142 8.21535e-06
36 *113:56 *145:29 1.05642e-06
37 *113:56 *157:10 6.63436e-06
38 *113:56 *157:25 6.46473e-05
39 *113:56 *159:10 9.97736e-06
40 *113:56 *230:74 0
41 *113:56 *265:8 1.9272e-05
42 *113:56 *274:99 5.13209e-07
43 *113:56 *277:79 2.19482e-06
44 *113:56 *418:59 0
45 *113:56 *419:61 0
46 *113:56 *423:8 6.93377e-05
47 *113:56 *423:19 4.86244e-05
48 *38:10 *113:49 4.83654e-06
49 *112:19 *113:8 7.84037e-07
*RES
1 *474:Y *113:6 34.4 
2 *113:6 *113:8 37.169 
3 *113:8 *113:10 17.2 
4 *113:10 *113:12 55.087 
5 *113:12 *113:18 38.9053 
6 *113:18 *113:24 44.9862 
7 *113:24 *113:28 39.1278 
8 *113:28 *113:34 46.2265 
9 *113:34 *492:A1 17.2 
10 *113:28 *113:49 48.5322 
11 *113:49 *561:A1 17.2 
12 *113:8 *113:56 95.7382 
13 *113:56 *536:D 35.4697 
*END

*D_NET *114 0.000100103
*CONN
*I *481:A I *D AND5x2_ASAP7_75t_R
*I *475:Y O *D INVx1_ASAP7_75t_R
*CAP
1 *481:A 0
2 *475:Y 9.0344e-06
3 *114:12 4.05985e-05
4 *114:8 4.96329e-05
5 *114:8 *415:40 8.3668e-07
*RES
1 *475:Y *114:8 40.0317 
2 *114:8 *114:12 41.2671 
3 *114:12 *481:A 17.2 
*END

*D_NET *115 0.000674856
*CONN
*I *481:B I *D AND5x2_ASAP7_75t_R
*I *540:A1 I *D OA211x2_ASAP7_75t_R
*I *537:A I *D OR3x1_ASAP7_75t_R
*I *534:A I *D AND3x1_ASAP7_75t_R
*I *476:Y O *D INVx1_ASAP7_75t_R
*CAP
1 *481:B 1.95816e-05
2 *540:A1 0
3 *537:A 2.60022e-06
4 *534:A 1.03932e-05
5 *476:Y 1.64415e-05
6 *115:71 9.59045e-05
7 *115:67 9.94013e-05
8 *115:54 5.27313e-06
9 *115:28 2.38083e-05
10 *115:22 6.77446e-05
11 *115:18 9.6348e-05
12 *115:12 6.77698e-05
13 *115:10 1.64415e-05
14 *481:B *116:54 0
15 *481:B *319:8 0
16 *534:A *399:10 2.83874e-07
17 *534:A *399:22 3.09458e-06
18 *534:A *407:24 1.78341e-05
19 *115:10 *418:94 1.89116e-05
20 *115:18 *532:B 8.31096e-06
21 *115:18 *159:27 1.20041e-05
22 *115:18 *161:8 6.72662e-07
23 *115:22 *418:33 1.07544e-05
24 *115:28 *407:24 1.4277e-05
25 *115:54 *407:24 1.89667e-07
26 *115:54 *418:10 9.23493e-06
27 *115:67 *159:27 9.40277e-06
28 *115:67 *179:23 1.94229e-07
29 *914:A *115:54 7.59064e-06
30 *50:12 *534:A 2.73812e-05
31 *50:12 *115:28 1.30112e-05
*RES
1 *476:Y *115:10 42.5924 
2 *115:10 *115:12 17.2 
3 *115:12 *115:18 36.7636 
4 *115:18 *115:22 37.1123 
5 *115:22 *115:28 25.017 
6 *115:28 *534:A 46.6196 
7 *115:28 *537:A 35.4697 
8 *115:22 *115:54 41.4396 
9 *115:54 *540:A1 17.2 
10 *115:12 *115:67 46.9082 
11 *115:67 *115:71 48.1506 
12 *115:71 *481:B 46.5541 
*END

*D_NET *116 0.000679057
*CONN
*I *481:C I *D AND5x2_ASAP7_75t_R
*I *536:B I *D AND4x1_ASAP7_75t_R
*I *529:B I *D XNOR2x2_ASAP7_75t_R
*I *477:Y O *D INVx1_ASAP7_75t_R
*CAP
1 *481:C 0
2 *536:B 0
3 *529:B 0
4 *477:Y 0
5 *116:54 1.14528e-05
6 *116:46 9.31451e-05
7 *116:44 8.91844e-05
8 *116:38 5.18154e-05
9 *116:36 5.52048e-05
10 *116:23 3.83332e-05
11 *116:12 2.42492e-05
12 *116:6 5.17009e-05
13 *116:12 *349:6 2.3365e-05
14 *116:12 *402:12 1.04358e-05
15 *116:12 *420:34 4.43244e-06
16 *116:23 *535:A2 0
17 *116:23 *117:20 1.07573e-06
18 *116:23 *157:25 0
19 *116:23 *164:8 1.47071e-05
20 *116:23 *351:12 0
21 *116:23 *423:27 2.05045e-06
22 *116:36 *117:14 1.07377e-06
23 *116:36 *159:10 8.06436e-06
24 *116:36 *164:8 2.23047e-05
25 *116:36 *423:19 1.09842e-06
26 *116:38 *554:D 4.04733e-05
27 *116:38 *117:14 5.45641e-05
28 *116:38 *117:55 4.01178e-05
29 *116:38 *418:79 1.35684e-06
30 *116:46 *481:D 6.88055e-06
31 *116:46 *481:E 2.79851e-06
32 *116:46 *549:B 3.56648e-06
33 *116:46 *554:A 2.01337e-05
34 *116:46 *554:B 2.12009e-06
35 *116:46 *554:C 0
36 *116:46 *554:D 1.36155e-06
37 *116:54 *319:8 0
38 *481:B *116:54 0
39 *536:D *116:36 1.35684e-06
40 *113:56 *116:36 6.33206e-07
*RES
1 *477:Y *116:6 34.4 
2 *116:6 *116:12 35.5824 
3 *116:12 *529:B 17.2 
4 *116:6 *116:23 37.8104 
5 *116:23 *536:B 17.2 
6 *116:23 *116:36 43.6337 
7 *116:36 *116:38 39.0422 
8 *116:38 *116:44 38.3422 
9 *116:44 *116:46 36.9029 
10 *116:46 *116:54 41.5511 
11 *116:54 *481:C 17.2 
*END

*D_NET *117 0.000732547
*CONN
*I *481:D I *D AND5x2_ASAP7_75t_R
*I *536:C I *D AND4x1_ASAP7_75t_R
*I *533:B I *D XNOR2x2_ASAP7_75t_R
*I *539:C I *D OR3x1_ASAP7_75t_R
*I *478:Y O *D INVx1_ASAP7_75t_R
*CAP
1 *481:D 4.34343e-05
2 *536:C 0
3 *533:B 0
4 *539:C 9.77365e-06
5 *478:Y 1.90072e-05
6 *117:65 4.73819e-05
7 *117:59 5.40699e-05
8 *117:55 6.39287e-05
9 *117:39 2.01438e-05
10 *117:22 2.99175e-05
11 *117:20 1.83744e-05
12 *117:14 4.15473e-05
13 *117:12 3.69793e-05
14 *117:10 1.90072e-05
15 *481:D *481:E 2.79851e-06
16 *481:D *549:B 3.65131e-06
17 *481:D *554:B 2.03526e-06
18 *481:D *554:C 1.75616e-05
19 *539:C *539:A 4.17901e-06
20 *117:10 *159:27 4.22446e-06
21 *117:10 *418:47 0
22 *117:14 *418:53 1.32074e-05
23 *117:14 *418:79 2.23215e-05
24 *117:20 *157:25 2.60745e-05
25 *117:20 *157:33 1.15978e-05
26 *117:20 *157:46 1.60211e-05
27 *117:20 *351:19 0
28 *117:20 *423:27 6.48289e-06
29 *117:20 *423:38 7.8592e-06
30 *117:39 *157:46 5.37569e-06
31 *117:39 *161:8 1.09067e-06
32 *117:39 *161:16 3.02667e-06
33 *117:39 *423:38 1.15587e-05
34 *117:55 *418:79 4.27977e-05
35 *117:59 *557:B 1.52651e-06
36 *117:65 *172:21 5.07403e-06
37 *117:65 *423:92 1.2903e-05
38 *536:D *117:14 3.90258e-06
39 *116:23 *117:20 1.07573e-06
40 *116:36 *117:14 1.07377e-06
41 *116:38 *117:14 5.45641e-05
42 *116:38 *117:55 4.01178e-05
43 *116:46 *481:D 6.88055e-06
*RES
1 *478:Y *117:10 44.9585 
2 *117:10 *117:12 17.2 
3 *117:12 *117:14 19.7885 
4 *117:14 *117:20 36.2626 
5 *117:20 *117:22 17.2 
6 *117:22 *539:C 23.0831 
7 *117:22 *117:39 49.9986 
8 *117:39 *533:B 17.2 
9 *117:14 *536:C 17.2 
10 *117:12 *117:55 32.9367 
11 *117:55 *117:59 38.0582 
12 *117:59 *117:65 38.9053 
13 *117:65 *481:D 44.4761 
*END

*D_NET *118 0.000159136
*CONN
*P req_msg[18] I
*I *479:A I *D BUFx2_ASAP7_75t_R
*CAP
1 req_msg[18] 3.18373e-05
2 *479:A 0
3 *118:15 1.27675e-05
4 *118:9 4.46047e-05
5 *118:9 *366:9 6.99266e-05
6 *118:15 *366:13 0
*RES
1 req_msg[18] *118:9 35.8344 
2 *118:9 *118:15 43.3168 
3 *118:15 *479:A 17.2 
*END

*D_NET *119 0.000267545
*CONN
*I *565:B I *D AND3x1_ASAP7_75t_R
*I *569:B I *D OR2x4_ASAP7_75t_R
*I *481:E I *D AND5x2_ASAP7_75t_R
*I *480:Y O *D NOR2x1_ASAP7_75t_R
*CAP
1 *565:B 1.84207e-05
2 *569:B 5.36344e-06
3 *481:E 2.64669e-06
4 *480:Y 1.34529e-05
5 *119:21 6.41197e-05
6 *119:10 5.64351e-05
7 *565:B *574:A1 2.96818e-06
8 *565:B *187:14 6.7842e-07
9 *565:B *187:20 2.96818e-06
10 *565:B *319:8 4.48523e-06
11 *565:B *352:17 3.93602e-06
12 *569:B *428:27 3.65131e-06
13 *119:10 *319:8 2.25787e-06
14 *119:10 *452:10 2.31174e-05
15 *119:21 *319:8 2.07029e-05
16 *119:21 *352:8 3.04004e-06
17 *119:21 *352:17 1.9188e-05
18 *119:21 *452:10 1.45158e-05
19 *481:D *481:E 2.79851e-06
20 *116:46 *481:E 2.79851e-06
*RES
1 *480:Y *119:10 44.9585 
2 *119:10 *481:E 36.5393 
3 *119:10 *119:21 39.4216 
4 *119:21 *569:B 37.0741 
5 *119:21 *565:B 48.929 
*END

*D_NET *120 0.000309054
*CONN
*I *561:A2 I *D AO21x2_ASAP7_75t_R
*I *492:A2 I *D AO211x2_ASAP7_75t_R
*I *481:Y O *D AND5x2_ASAP7_75t_R
*CAP
1 *561:A2 5.39219e-06
2 *492:A2 0
3 *481:Y 0
4 *120:21 2.5757e-05
5 *120:10 2.03649e-05
6 *120:8 8.97145e-05
7 *120:6 8.97145e-05
8 *120:8 *130:10 9.42815e-06
9 *120:8 *199:14 0
10 *120:8 *400:20 2.60818e-05
11 *120:8 *421:26 2.74606e-06
12 *120:8 *425:10 0
13 *120:8 *425:23 0
14 *120:21 *624:A 1.32095e-05
15 *120:21 *130:10 1.20741e-05
16 *38:10 *120:21 6.47905e-06
17 *41:54 *120:8 1.89747e-06
18 *113:49 *561:A2 6.19506e-06
*RES
1 *481:Y *120:6 34.4 
2 *120:6 *120:8 72.0853 
3 *120:8 *120:10 17.2 
4 *120:10 *492:A2 17.2 
5 *120:10 *120:21 33.2767 
6 *120:21 *561:A2 37.609 
*END

*D_NET *121 0.000148363
*CONN
*I *487:B2 I *D AOI221x1_ASAP7_75t_R
*I *486:C I *D OA211x2_ASAP7_75t_R
*I *482:Y O *D AND2x2_ASAP7_75t_R
*CAP
1 *487:B2 0
2 *486:C 2.55011e-05
3 *482:Y 1.5623e-05
4 *121:12 2.78202e-05
5 *121:8 1.79421e-05
6 *486:C *125:6 1.2566e-05
7 *486:C *400:20 5.62196e-06
8 *486:C *426:20 6.61478e-06
9 *121:8 *126:8 3.45382e-05
10 *121:8 *421:20 1.09067e-06
11 *121:8 *425:10 0
12 *121:12 *125:6 1.04475e-06
13 *41:34 *121:8 0
*RES
1 *482:Y *121:8 48.4791 
2 *121:8 *121:12 18.8045 
3 *121:12 *486:C 36.9885 
4 *121:12 *487:B2 17.2 
*END

*D_NET *122 0.000146987
*CONN
*I *486:A1 I *D OA211x2_ASAP7_75t_R
*I *551:A1 I *D OA21x2_ASAP7_75t_R
*I *483:Y O *D OR2x2_ASAP7_75t_R
*CAP
1 *486:A1 1.19434e-05
2 *551:A1 0
3 *483:Y 9.6738e-06
4 *122:6 2.16172e-05
5 *486:A1 *486:A2 2.0895e-06
6 *486:A1 *486:B 3.02913e-05
7 *486:A1 *551:A2 3.89037e-06
8 *486:A1 *124:6 2.18653e-05
9 *486:A1 *177:10 1.60115e-05
10 *122:6 *124:6 2.85598e-05
11 *122:6 *424:12 1.04475e-06
*RES
1 *483:Y *122:6 25.7572 
2 *122:6 *551:A1 17.2 
3 *122:6 *486:A1 32.1751 
*END

*D_NET *123 0.000466593
*CONN
*I *551:A2 I *D OA21x2_ASAP7_75t_R
*I *486:A2 I *D OA211x2_ASAP7_75t_R
*I *484:Y O *D OA21x2_ASAP7_75t_R
*CAP
1 *551:A2 9.26292e-07
2 *486:A2 1.47557e-05
3 *484:Y 2.65179e-05
4 *123:18 3.92009e-05
5 *123:14 0.000130724
6 *123:12 0.000119806
7 *123:8 3.91184e-05
8 *486:A2 *486:B 8.23084e-06
9 *486:A2 *319:8 8.71771e-06
10 *123:8 *419:67 0
11 *123:12 *170:12 6.33206e-07
12 *123:12 *170:25 0
13 *123:12 *419:67 0
14 *123:14 *172:6 0
15 *123:14 *402:12 7.09118e-06
16 *123:18 *552:B 0
17 *123:18 *176:12 0
18 *123:18 *177:10 0
19 *123:18 *319:8 6.48911e-05
20 *486:A1 *486:A2 2.0895e-06
21 *486:A1 *551:A2 3.89037e-06
22 *41:62 *486:A2 0
23 *41:62 *123:18 0
24 *47:25 *123:12 0
*RES
1 *484:Y *123:8 44.5617 
2 *123:8 *123:12 26.2107 
3 *123:12 *123:14 48.6691 
4 *123:14 *123:18 39.7266 
5 *123:18 *486:A2 46.3079 
6 *123:18 *551:A2 35.4697 
*END

*D_NET *124 0.000220519
*CONN
*I *486:B I *D OA211x2_ASAP7_75t_R
*I *551:B I *D OA21x2_ASAP7_75t_R
*I *485:Y O *D OA21x2_ASAP7_75t_R
*CAP
1 *486:B 9.35885e-06
2 *551:B 0
3 *485:Y 4.85495e-05
4 *124:12 1.50808e-05
5 *124:6 5.42714e-05
6 *124:6 *424:12 2.52755e-06
7 *124:6 *424:14 1.78333e-06
8 *486:A1 *486:B 3.02913e-05
9 *486:A1 *124:6 2.18653e-05
10 *486:A2 *486:B 8.23084e-06
11 *122:6 *124:6 2.85598e-05
*RES
1 *485:Y *124:6 41.2671 
2 *124:6 *124:12 37.2158 
3 *124:12 *551:B 17.2 
4 *124:12 *486:B 27.8965 
*END

*D_NET *125 0.000103383
*CONN
*I *487:C I *D AOI221x1_ASAP7_75t_R
*I *486:Y O *D OA211x2_ASAP7_75t_R
*CAP
1 *487:C 0
2 *486:Y 3.99855e-05
3 *125:12 3.74829e-06
4 *125:6 4.37338e-05
5 *125:6 *400:20 2.03526e-06
6 *125:12 *415:40 0
7 *125:12 *425:10 0
8 *125:12 *425:23 0
9 *486:C *125:6 1.2566e-05
10 *41:34 *125:12 2.68933e-07
11 *121:12 *125:6 1.04475e-06
*RES
1 *486:Y *125:6 35.9189 
2 *125:6 *125:12 37.2158 
3 *125:12 *487:C 17.2 
*END

*D_NET *126 0.000174902
*CONN
*I *492:C I *D AO211x2_ASAP7_75t_R
*I *561:B I *D AO21x2_ASAP7_75t_R
*I *487:Y O *D AOI221x1_ASAP7_75t_R
*CAP
1 *492:C 0
2 *561:B 1.51682e-05
3 *487:Y 0
4 *126:8 5.12648e-05
5 *126:6 3.60966e-05
6 *561:B *131:14 4.92047e-06
7 *561:B *185:10 4.18905e-06
8 *561:B *415:40 0
9 *126:8 *130:10 0
10 *126:8 *415:40 0
11 *38:10 *561:B 2.63386e-06
12 *38:10 *126:8 2.9732e-06
13 *41:46 *126:8 2.31174e-05
14 *121:8 *126:8 3.45382e-05
*RES
1 *487:Y *126:6 34.4 
2 *126:6 *126:8 30.9741 
3 *126:8 *561:B 46.0281 
4 *126:8 *492:C 34.4 
*END

*D_NET *127 0.000105825
*CONN
*P req_msg[17] I
*I *488:A I *D BUFx2_ASAP7_75t_R
*CAP
1 req_msg[17] 5.17256e-05
2 *488:A 0
3 *127:15 1.18706e-06
4 *127:9 5.29127e-05
5 *127:9 resp_msg[1] 0
*RES
1 req_msg[17] *127:9 38.4317 
2 *127:9 *127:15 35.057 
3 *127:15 *488:A 17.2 
*END

*D_NET *128 0.000383661
*CONN
*I *490:A2 I *D OA21x2_ASAP7_75t_R
*I *575:C I *D OA211x2_ASAP7_75t_R
*I *489:Y O *D OA21x2_ASAP7_75t_R
*CAP
1 *490:A2 4.4e-06
2 *575:C 0
3 *489:Y 0
4 *128:14 2.01789e-05
5 *128:8 0.000120252
6 *128:6 9.5673e-05
7 *128:8 *137:25 8.36938e-06
8 *128:8 *200:12 8.97047e-06
9 *128:8 *201:12 0
10 *128:8 *202:10 0
11 *128:8 *204:8 1.56232e-05
12 *128:8 *205:8 5.68573e-06
13 *128:8 *431:8 3.3563e-06
14 *128:8 *431:12 9.39763e-06
15 *128:14 *197:10 5.86096e-06
16 *490:A1 *490:A2 4.57952e-06
17 *28:12 *128:8 0
18 *30:23 *490:A2 7.63254e-07
19 *30:34 *128:8 4.06388e-06
20 *32:19 *128:8 1.34329e-05
21 *41:24 *490:A2 4.70139e-06
22 *41:24 *128:14 5.55093e-06
23 *41:28 *128:14 5.28019e-05
*RES
1 *489:Y *128:6 34.4 
2 *128:6 *128:8 81.6591 
3 *128:8 *128:14 37.0735 
4 *128:14 *575:C 17.2 
5 *128:8 *490:A2 39.7482 
*END

*D_NET *129 9.46618e-05
*CONN
*I *491:A2 I *D OAI21x1_ASAP7_75t_R
*I *490:Y O *D OA21x2_ASAP7_75t_R
*CAP
1 *491:A2 3.92227e-06
2 *490:Y 7.85666e-06
3 *129:8 1.17789e-05
4 *491:A2 *491:A1 1.95129e-06
5 *491:A2 *421:14 2.88806e-06
6 *129:8 *138:8 1.34329e-05
7 *129:8 *139:8 6.95214e-06
8 *26:27 *129:8 3.03456e-05
9 *26:42 *129:8 1.16894e-05
10 *41:16 *129:8 3.84449e-06
*RES
1 *490:Y *129:8 48.4791 
2 *129:8 *491:A2 37.0741 
*END

*D_NET *130 0.000334207
*CONN
*I *492:B I *D AO211x2_ASAP7_75t_R
*I *624:A I *D INVx1_ASAP7_75t_R
*I *491:Y O *D OAI21x1_ASAP7_75t_R
*CAP
1 *492:B 0
2 *624:A 1.8479e-05
3 *491:Y 0
4 *130:10 4.00244e-05
5 *130:6 9.00456e-05
6 *130:4 6.85002e-05
7 *624:A *211:10 0
8 *130:6 *421:14 5.64099e-05
9 *130:10 *211:10 0
10 *482:B *130:6 5.22376e-07
11 *482:B *130:10 2.83874e-07
12 *38:10 *130:10 2.71921e-06
13 *41:46 *130:6 1.73158e-06
14 *41:54 *130:6 2.0779e-05
15 *113:34 *624:A 0
16 *120:8 *130:10 9.42815e-06
17 *120:21 *624:A 1.32095e-05
18 *120:21 *130:10 1.20741e-05
19 *126:8 *130:10 0
*RES
1 *491:Y *130:4 17.2 
2 *130:4 *130:6 54.0173 
3 *130:6 *130:10 36.9108 
4 *130:10 *624:A 43.7188 
5 *130:10 *492:B 34.4 
*END

*D_NET *131 0.000677944
*CONN
*I *603:A1 I *D AOI21x1_ASAP7_75t_R
*I *629:A I *D OR2x4_ASAP7_75t_R
*I *685:A1 I *D AO21x2_ASAP7_75t_R
*I *509:B I *D AND3x1_ASAP7_75t_R
*I *687:A1 I *D AO21x2_ASAP7_75t_R
*I *503:A1 I *D AO21x1_ASAP7_75t_R
*I *606:A I *D AND3x4_ASAP7_75t_R
*I *492:Y O *D AO211x2_ASAP7_75t_R
*CAP
1 *603:A1 0
2 *629:A 0
3 *685:A1 0
4 *509:B 0
5 *687:A1 1.15624e-05
6 *503:A1 0
7 *606:A 4.42235e-06
8 *492:Y 1.32443e-05
9 *131:67 1.62389e-05
10 *131:63 4.85689e-05
11 *131:57 8.33615e-05
12 *131:51 4.61071e-05
13 *131:45 2.27729e-05
14 *131:35 2.99191e-05
15 *131:33 2.83628e-05
16 *131:18 5.46875e-05
17 *131:14 5.67202e-05
18 *131:8 3.42782e-05
19 *606:A *210:19 2.05045e-06
20 *687:A1 *139:75 1.04475e-06
21 *687:A1 *277:6 5.41446e-06
22 *131:14 *625:B 1.02895e-05
23 *131:14 *185:10 1.45784e-06
24 *131:14 *415:20 0
25 *131:14 *415:40 0
26 *131:18 *623:A 0
27 *131:18 *623:B 9.22542e-06
28 *131:18 *626:A1 0
29 *131:18 *185:10 6.33206e-07
30 *131:18 *227:12 0
31 *131:33 *210:6 1.42799e-05
32 *131:33 *210:19 2.83523e-05
33 *131:35 *139:55 4.44082e-06
34 *131:35 *139:57 1.03816e-05
35 *131:35 *139:63 1.56807e-06
36 *131:45 *139:63 2.5031e-05
37 *131:45 *211:126 2.13666e-05
38 *131:51 *139:63 1.69273e-05
39 *131:51 *211:126 1.69273e-05
40 *131:51 *274:6 2.88806e-06
41 *131:57 *135:12 0
42 *131:57 *140:48 0
43 *131:57 *145:67 1.64348e-06
44 *131:57 *145:73 2.18135e-06
45 *131:57 *274:6 1.23061e-05
46 *131:57 *447:296 1.27802e-05
47 *131:63 *142:10 0
48 *131:63 *145:73 8.2174e-07
49 *131:63 *146:10 0
50 *131:63 *208:8 0
51 *561:B *131:14 4.92047e-06
52 *20:60 *687:A1 2.35211e-06
53 *20:60 *131:67 3.95845e-06
54 *20:75 *687:A1 1.08556e-05
55 *20:75 *131:57 0
56 *20:79 *131:57 0
57 *38:10 *131:18 3.59968e-06
58 *38:10 *131:35 0
*RES
1 *492:Y *131:8 40.2831 
2 *131:8 *131:14 32.8269 
3 *131:14 *131:18 43.1056 
4 *131:18 *606:A 37.2158 
5 *131:18 *131:33 46.701 
6 *131:33 *131:35 12.3897 
7 *131:35 *131:45 47.7176 
8 *131:45 *131:51 25.5058 
9 *131:51 *131:57 44.8765 
10 *131:57 *131:63 37.3286 
11 *131:63 *131:67 20.579 
12 *131:67 *503:A1 34.4 
13 *131:67 *687:A1 46.1415 
14 *131:57 *509:B 34.4 
15 *131:51 *685:A1 17.2 
16 *131:45 *629:A 34.4 
17 *131:35 *603:A1 34.4 
*END

*D_NET *132 0.000313175
*CONN
*I *501:A I *D AND4x1_ASAP7_75t_R
*I *493:Y O *D AND4x1_ASAP7_75t_R
*CAP
1 *501:A 9.89501e-06
2 *493:Y 0
3 *132:8 6.27731e-05
4 *132:6 5.28781e-05
5 *501:A *501:B 1.35684e-06
6 *501:A *135:30 5.17782e-06
7 *501:A *139:24 3.89037e-06
8 *501:A *140:8 1.59615e-06
9 *132:8 *139:10 9.66472e-07
10 *132:8 *139:24 3.05578e-05
11 *132:8 *145:114 1.02802e-05
12 *132:8 *230:20 2.02077e-05
13 *132:8 *230:32 0
14 *132:8 *444:24 3.18788e-06
15 *132:8 *444:34 1.9657e-05
16 *132:8 *447:399 5.84933e-05
17 *132:8 *447:411 9.57308e-06
18 *132:8 *447:419 2.26839e-05
*RES
1 *493:Y *132:6 34.4 
2 *132:6 *132:8 59.6956 
3 *132:8 *501:A 41.3527 
*END

*D_NET *133 9.74481e-05
*CONN
*I *501:B I *D AND4x1_ASAP7_75t_R
*I *494:Y O *D AND4x1_ASAP7_75t_R
*CAP
1 *501:B 2.6076e-06
2 *494:Y 2.82235e-05
3 *133:10 3.08311e-05
4 *133:10 *494:A 1.03895e-05
5 *133:10 *494:D 2.96818e-06
6 *133:10 *145:102 9.81516e-06
7 *133:10 *145:125 0
8 *133:10 *438:20 1.12561e-05
9 *501:A *501:B 1.35684e-06
*RES
1 *494:Y *133:10 49.0103 
2 *133:10 *501:B 35.4697 
*END

*D_NET *134 0.000147041
*CONN
*I *496:E I *D AND5x1_ASAP7_75t_R
*I *495:Y O *D AND4x1_ASAP7_75t_R
*CAP
1 *496:E 0
2 *495:Y 0
3 *134:8 4.96968e-05
4 *134:6 4.96968e-05
5 *55:23 *134:8 1.33669e-05
6 *55:29 *134:8 3.42809e-05
7 *57:8 *134:8 0
*RES
1 *495:Y *134:6 34.4 
2 *134:6 *134:8 47.8691 
3 *134:8 *496:E 34.4 
*END

*D_NET *135 0.00111875
*CONN
*I *501:C I *D AND4x1_ASAP7_75t_R
*I *496:Y O *D AND5x1_ASAP7_75t_R
*CAP
1 *501:C 0
2 *496:Y 0
3 *135:30 2.05679e-05
4 *135:22 7.07938e-05
5 *135:20 5.02258e-05
6 *135:18 6.2031e-05
7 *135:12 7.14054e-05
8 *135:6 0.00012598
9 *135:4 0.000116605
10 *135:6 *471:B 1.35684e-06
11 *135:6 *471:C 5.62196e-06
12 *135:6 *496:D 6.26851e-06
13 *135:6 *649:A 3.16328e-06
14 *135:6 *144:22 0.000184767
15 *135:6 *153:12 2.20493e-06
16 *135:6 *230:49 3.33273e-05
17 *135:6 *274:6 0.000111031
18 *135:6 *347:6 2.51874e-05
19 *135:12 *139:69 5.37569e-06
20 *135:18 *688:B 6.86929e-06
21 *135:18 *145:82 2.14651e-05
22 *135:18 *211:126 0
23 *135:18 *274:193 6.33206e-07
24 *135:18 *277:6 0
25 *135:18 *277:167 0
26 *135:22 *274:197 3.07043e-05
27 *135:22 *334:277 8.84156e-05
28 *135:30 *140:8 2.38044e-05
29 *135:30 *140:12 0
30 *501:A *135:30 5.17782e-06
31 *20:79 *135:12 5.49212e-07
32 *110:6 *135:6 3.09635e-05
33 *110:25 *135:6 1.42563e-05
34 *131:57 *135:12 0
*RES
1 *496:Y *135:4 17.2 
2 *135:4 *135:6 122.475 
3 *135:6 *135:12 41.158 
4 *135:12 *135:18 49.0381 
5 *135:18 *135:20 17.2 
6 *135:20 *135:22 46.5298 
7 *135:22 *135:30 49.5168 
8 *135:30 *501:C 17.2 
*END

*D_NET *136 4.61916e-05
*CONN
*I *500:A2 I *D AOI21x1_ASAP7_75t_R
*I *497:Y O *D AO21x1_ASAP7_75t_R
*CAP
1 *500:A2 1.33394e-05
2 *497:Y 8.04773e-06
3 *136:8 2.13871e-05
4 *136:8 *234:8 1.70866e-06
5 *136:8 *430:17 1.70866e-06
*RES
1 *497:Y *136:8 40.0317 
2 *136:8 *500:A2 41.3527 
*END

*D_NET *137 0.000303675
*CONN
*I *499:D I *D AND4x1_ASAP7_75t_R
*I *578:A2 I *D AO221x1_ASAP7_75t_R
*I *498:Y O *D AO21x1_ASAP7_75t_R
*CAP
1 *499:D 1.07556e-05
2 *578:A2 1.82457e-06
3 *498:Y 4.8789e-06
4 *137:25 2.76523e-05
5 *137:12 1.87212e-05
6 *137:10 5.78211e-05
7 *137:8 6.27e-05
8 *578:A2 *431:40 2.28976e-06
9 *137:8 *582:A1 3.73615e-06
10 *137:8 *189:29 1.5804e-05
11 *137:10 *201:12 6.48427e-06
12 *137:10 *202:10 0
13 *137:10 *205:8 0
14 *137:10 *428:75 0
15 *137:25 *200:8 1.27255e-05
16 *137:25 *431:40 1.95948e-05
17 *499:A *499:D 1.66828e-05
18 *30:34 *137:25 8.21855e-06
19 *35:10 *137:10 2.54163e-05
20 *35:20 *137:10 0
21 *128:8 *137:25 8.36938e-06
*RES
1 *498:Y *137:8 39.7482 
2 *137:8 *137:10 51.2481 
3 *137:10 *137:12 17.2 
4 *137:12 *578:A2 18.8045 
5 *137:12 *137:25 38.3983 
6 *137:25 *499:D 39.2134 
*END

*D_NET *138 7.60333e-05
*CONN
*I *500:B I *D AOI21x1_ASAP7_75t_R
*I *499:Y O *D AND4x1_ASAP7_75t_R
*CAP
1 *500:B 0
2 *499:Y 8.49325e-06
3 *138:8 8.49325e-06
4 *26:42 *138:8 2.98532e-06
5 *26:48 *138:8 1.98917e-05
6 *28:12 *138:8 5.52807e-07
7 *29:12 *138:8 1.66659e-05
8 *41:16 *138:8 5.51814e-06
9 *129:8 *138:8 1.34329e-05
*RES
1 *499:Y *138:8 47.3528 
2 *138:8 *500:B 34.4 
*END

*D_NET *139 0.00228125
*CONN
*I *631:A2 I *D OA211x2_ASAP7_75t_R
*I *626:C I *D OA211x2_ASAP7_75t_R
*I *680:A2 I *D OA21x2_ASAP7_75t_R
*I *675:A2 I *D OA21x2_ASAP7_75t_R
*I *606:B I *D AND3x4_ASAP7_75t_R
*I *603:A2 I *D AOI21x1_ASAP7_75t_R
*I *685:A2 I *D AO21x2_ASAP7_75t_R
*I *687:A2 I *D AO21x2_ASAP7_75t_R
*I *650:A2 I *D OA21x2_ASAP7_75t_R
*I *501:D I *D AND4x1_ASAP7_75t_R
*I *500:Y O *D AOI21x1_ASAP7_75t_R
*CAP
1 *631:A2 2.73147e-06
2 *626:C 0
3 *680:A2 0
4 *675:A2 0
5 *606:B 1.5784e-05
6 *603:A2 0
7 *685:A2 0
8 *687:A2 0
9 *650:A2 0
10 *501:D 0
11 *500:Y 0
12 *139:142 6.0811e-05
13 *139:136 6.87438e-05
14 *139:130 5.46418e-05
15 *139:128 6.74375e-05
16 *139:126 2.70228e-05
17 *139:120 3.92743e-05
18 *139:83 1.16651e-05
19 *139:75 6.06056e-05
20 *139:73 5.37241e-05
21 *139:69 3.69043e-05
22 *139:63 4.6818e-05
23 *139:57 2.03406e-05
24 *139:55 3.17542e-05
25 *139:53 9.91051e-05
26 *139:49 6.26655e-05
27 *139:41 2.83387e-05
28 *139:33 8.47023e-05
29 *139:24 2.49629e-05
30 *139:18 3.56624e-05
31 *139:10 9.35227e-05
32 *139:8 5.35357e-05
33 *139:6 3.1212e-05
34 *606:B *210:6 8.82914e-06
35 *606:B *210:19 6.70433e-06
36 *139:8 *444:18 0
37 *139:8 *444:34 2.02632e-06
38 *139:10 *145:102 1.69591e-05
39 *139:10 *340:18 9.97906e-07
40 *139:10 *444:34 2.11884e-06
41 *139:10 *447:411 3.99495e-05
42 *139:18 *145:102 2.32336e-05
43 *139:18 *447:411 2.28488e-05
44 *139:24 *145:102 6.99318e-06
45 *139:24 *208:185 1.63973e-05
46 *139:24 *447:411 1.66659e-05
47 *139:41 *144:121 5.79724e-07
48 *139:41 *144:123 1.33622e-05
49 *139:41 *228:8 2.2142e-06
50 *139:41 *411:6 1.52651e-06
51 *139:49 *626:A1 2.98532e-06
52 *139:49 *227:12 9.67723e-06
53 *139:49 *334:290 1.63973e-05
54 *139:53 *144:115 1.99374e-05
55 *139:55 *211:10 2.80709e-06
56 *139:57 *211:10 3.05118e-08
57 *139:57 *211:126 8.02108e-06
58 *139:63 *207:45 8.33112e-06
59 *139:63 *211:126 7.24542e-06
60 *139:63 *230:10 6.45149e-06
61 *139:63 *230:14 8.45637e-06
62 *139:63 *274:6 3.68287e-06
63 *139:63 *274:193 0
64 *139:69 *274:6 6.8815e-05
65 *139:73 *277:6 5.0551e-07
66 *139:75 *144:12 1.44874e-05
67 *139:75 *144:18 4.48031e-05
68 *139:75 *274:81 1.25606e-05
69 *139:75 *277:6 1.06719e-05
70 *139:83 *274:83 5.52807e-07
71 *139:83 *334:106 1.182e-05
72 *139:120 *211:10 6.72316e-06
73 *139:126 *145:57 2.25312e-05
74 *139:126 *271:14 1.61303e-05
75 *139:128 *145:55 5.23827e-05
76 *139:128 *270:10 6.32346e-06
77 *139:130 *679:A 1.52151e-05
78 *139:130 *144:140 1.47272e-05
79 *139:130 *230:66 7.68501e-06
80 *139:130 *230:68 0.000123348
81 *139:130 *435:14 1.61768e-05
82 *139:130 *447:318 3.9221e-05
83 *139:136 *158:10 1.54884e-05
84 *139:142 *145:23 8.61076e-05
85 *139:142 *145:29 6.20673e-06
86 *501:A *139:24 3.89037e-06
87 *687:A1 *139:75 1.04475e-06
88 *715:A *139:33 1.62312e-05
89 *20:75 *139:73 5.85387e-06
90 *20:79 *139:69 1.6528e-05
91 *20:112 *139:142 2.48065e-06
92 *26:16 *139:8 4.45472e-06
93 *26:27 *139:8 1.64764e-06
94 *35:8 *139:33 1.59615e-06
95 *38:10 *139:55 0
96 *38:10 *139:120 0
97 *41:16 *139:8 0.000112583
98 *41:16 *139:10 1.51609e-05
99 *113:8 *139:142 9.48786e-06
100 *113:56 *139:142 8.21535e-06
101 *129:8 *139:8 6.95214e-06
102 *131:35 *139:55 4.44082e-06
103 *131:35 *139:57 1.03816e-05
104 *131:35 *139:63 1.56807e-06
105 *131:45 *139:63 2.5031e-05
106 *131:51 *139:63 1.69273e-05
107 *132:8 *139:10 9.66472e-07
108 *132:8 *139:24 3.05578e-05
109 *135:12 *139:69 5.37569e-06
*RES
1 *500:Y *139:6 34.4 
2 *139:6 *139:8 38.2953 
3 *139:8 *139:10 21.9635 
4 *139:10 *139:18 44.9585 
5 *139:18 *139:24 44.1753 
6 *139:24 *501:D 17.2 
7 *139:10 *139:33 47.685 
8 *139:33 *139:41 48.054 
9 *139:41 *139:49 41.6361 
10 *139:49 *139:53 43.4064 
11 *139:53 *139:55 7.88432 
12 *139:55 *139:57 7.88432 
13 *139:57 *139:63 36.8541 
14 *139:63 *139:69 43.155 
15 *139:69 *139:73 20.409 
16 *139:73 *139:75 41.7164 
17 *139:75 *139:83 42.6208 
18 *139:83 *650:A2 17.2 
19 *139:73 *687:A2 17.2 
20 *139:63 *685:A2 17.2 
21 *139:57 *603:A2 34.4 
22 *139:55 *606:B 45.6313 
23 *139:53 *139:120 37.612 
24 *139:120 *139:126 42.2843 
25 *139:126 *139:128 16.0448 
26 *139:128 *139:130 45.9949 
27 *139:130 *139:136 40.0317 
28 *139:136 *139:142 46.8988 
29 *139:142 *675:A2 34.4 
30 *139:128 *680:A2 17.2 
31 *139:41 *626:C 17.2 
32 *139:8 *631:A2 35.4697 
*END

*D_NET *140 0.000660373
*CONN
*I *509:C I *D AND3x1_ASAP7_75t_R
*I *503:A2 I *D AO21x1_ASAP7_75t_R
*I *501:Y O *D AND4x1_ASAP7_75t_R
*CAP
1 *509:C 0
2 *503:A2 0
3 *501:Y 2.54869e-05
4 *140:48 7.7542e-06
5 *140:40 2.45172e-05
6 *140:30 4.0779e-05
7 *140:22 7.66731e-05
8 *140:18 9.77277e-05
9 *140:12 7.72225e-05
10 *140:8 5.76388e-05
11 *140:12 *277:200 1.21934e-06
12 *140:12 *447:254 2.62581e-06
13 *140:18 *694:C2 3.22635e-06
14 *140:18 *208:175 1.01888e-05
15 *140:18 *223:10 4.30517e-07
16 *140:18 *277:200 5.77892e-05
17 *140:18 *305:20 3.05302e-06
18 *140:22 *145:90 0
19 *140:22 *229:24 1.40879e-06
20 *140:22 *447:258 5.99925e-05
21 *140:30 *145:73 2.0895e-06
22 *140:30 *146:8 2.52755e-07
23 *140:30 *211:126 1.37303e-06
24 *140:30 *436:109 2.66797e-07
25 *140:40 *145:73 2.6409e-06
26 *140:48 *142:8 1.62312e-05
27 *501:A *140:8 1.59615e-06
28 *503:B *140:48 2.88806e-06
29 *20:75 *140:48 0
30 *37:18 *140:12 8.47826e-06
31 *37:31 *140:12 5.30185e-05
32 *131:57 *140:48 0
33 *135:30 *140:8 2.38044e-05
34 *135:30 *140:12 0
*RES
1 *501:Y *140:8 45.6313 
2 *140:8 *140:12 43.1056 
3 *140:12 *140:18 43.4649 
4 *140:18 *140:22 41.0082 
5 *140:22 *140:30 48.1372 
6 *140:30 *140:40 42.1368 
7 *140:40 *140:48 40.9968 
8 *140:48 *503:A2 17.2 
9 *140:30 *509:C 17.2 
*END

*D_NET *141 0.000287404
*CONN
*P req_msg[16] I
*I *502:A I *D BUFx2_ASAP7_75t_R
*CAP
1 req_msg[16] 2.73935e-05
2 *502:A 0
3 *141:13 8.73382e-05
4 *141:11 0.000116308
5 *141:7 5.63636e-05
*RES
1 req_msg[16] *141:7 31.1061 
2 *141:7 *141:11 43.5749 
3 *141:11 *141:13 54.0173 
4 *141:13 *502:A 17.2 
*END

*D_NET *142 0.00037153
*CONN
*I *504:B I *D OA21x2_ASAP7_75t_R
*I *503:Y O *D AO21x1_ASAP7_75t_R
*CAP
1 *504:B 0
2 *503:Y 6.13777e-06
3 *142:10 0.000109893
4 *142:8 0.000116031
5 *142:10 *436:28 0
6 *142:10 *447:193 0
7 *3:10 *142:10 9.37774e-06
8 *20:45 *142:10 0
9 *20:60 *142:10 9.69354e-05
10 *20:75 *142:10 1.19507e-05
11 *22:18 *142:10 4.97342e-06
12 *131:63 *142:10 0
13 *140:48 *142:8 1.62312e-05
*RES
1 *503:Y *142:8 39.2134 
2 *142:8 *142:10 94.6119 
3 *142:10 *504:B 34.4 
*END

*D_NET *143 4.48945e-05
*CONN
*I *505:B I *D NOR2x1_ASAP7_75t_R
*I *504:Y O *D OA21x2_ASAP7_75t_R
*CAP
1 *505:B 6.31329e-06
2 *504:Y 5.46021e-06
3 *143:8 1.17735e-05
4 *505:B *505:A 6.45454e-06
5 *143:8 *447:22 6.38405e-06
6 *3:10 *505:B 2.12481e-06
7 *3:10 *143:8 6.38405e-06
*RES
1 *504:Y *143:8 40.0317 
2 *143:8 *505:B 39.2134 
*END

*D_NET *144 0.00373676
*CONN
*I *678:A2 I *D OA22x2_ASAP7_75t_R
*I *673:A2 I *D OA21x2_ASAP7_75t_R
*I *683:A2 I *D OA22x2_ASAP7_75t_R
*I *615:A2 I *D OA21x2_ASAP7_75t_R
*I *653:A2 I *D OA22x2_ASAP7_75t_R
*I *611:A2 I *D OA21x2_ASAP7_75t_R
*I *507:B I *D NOR2x1_ASAP7_75t_R
*I *657:A2 I *D OA21x2_ASAP7_75t_R
*I *661:A2 I *D OA21x2_ASAP7_75t_R
*I *506:Y O *D NAND2x1_ASAP7_75t_R
*CAP
1 *678:A2 2.89159e-06
2 *673:A2 0
3 *683:A2 1.09417e-05
4 *615:A2 0
5 *653:A2 0
6 *611:A2 0
7 *507:B 0
8 *657:A2 0
9 *661:A2 3.90403e-06
10 *506:Y 0
11 *144:175 7.43107e-05
12 *144:173 7.43107e-05
13 *144:171 9.49545e-05
14 *144:169 0.000115864
15 *144:165 2.54231e-05
16 *144:159 0.00010954
17 *144:157 0.000115559
18 *144:144 2.87291e-05
19 *144:140 3.52037e-05
20 *144:129 1.6558e-06
21 *144:123 6.95737e-05
22 *144:121 7.61889e-05
23 *144:115 9.7502e-05
24 *144:113 8.92309e-05
25 *144:111 4.95428e-05
26 *144:97 1.69429e-05
27 *144:89 0.000123107
28 *144:82 1.75743e-05
29 *144:74 0.000152557
30 *144:66 5.98469e-05
31 *144:64 5.19697e-05
32 *144:60 8.85746e-05
33 *144:58 6.76328e-05
34 *144:49 5.55828e-05
35 *144:47 5.55828e-05
36 *144:38 2.02839e-05
37 *144:36 2.67956e-05
38 *144:30 6.05897e-05
39 *144:28 5.96375e-05
40 *144:22 6.85299e-05
41 *144:20 5.90664e-05
42 *144:18 3.27991e-05
43 *144:12 7.17241e-05
44 *144:6 6.34108e-05
45 *661:A2 *255:10 3.13426e-06
46 *661:A2 *294:14 1.75355e-05
47 *678:A2 *434:12 6.7842e-07
48 *683:A2 *683:A1 1.36155e-06
49 *683:A2 *709:A 5.85387e-06
50 *144:12 *230:49 0
51 *144:12 *230:56 0
52 *144:12 *246:8 9.81516e-06
53 *144:12 *277:61 0
54 *144:12 *447:304 0
55 *144:18 *274:10 0
56 *144:18 *274:83 1.12894e-06
57 *144:18 *443:8 9.67723e-06
58 *144:22 *443:16 1.98585e-05
59 *144:28 *404:29 9.64417e-06
60 *144:30 *294:12 5.17782e-06
61 *144:30 *294:42 1.44167e-06
62 *144:30 *417:6 2.03526e-06
63 *144:30 *417:21 1.44639e-06
64 *144:30 *417:36 2.59286e-05
65 *144:30 *443:22 8.15303e-05
66 *144:36 *294:12 1.33022e-05
67 *144:38 *294:14 9.04696e-05
68 *144:38 *347:6 2.61478e-05
69 *144:49 *208:70 2.97352e-05
70 *144:49 *208:78 0
71 *144:49 *447:82 0
72 *144:60 *246:8 3.81397e-05
73 *144:60 *249:10 8.71771e-06
74 *144:60 *277:10 0
75 *144:60 *277:16 0
76 *144:60 *277:61 0
77 *144:60 *281:8 7.2313e-06
78 *144:60 *292:10 1.26211e-05
79 *144:60 *292:18 2.84286e-06
80 *144:64 *249:10 1.6528e-05
81 *144:64 *292:18 6.33206e-07
82 *144:64 *311:8 0
83 *144:64 *334:91 0
84 *144:66 *211:138 0.000135895
85 *144:74 *512:A1 6.7842e-07
86 *144:74 *147:89 0
87 *144:74 *149:6 3.0471e-06
88 *144:74 *211:134 9.94583e-06
89 *144:74 *354:10 0
90 *144:82 *354:8 2.03526e-06
91 *144:82 *354:10 2.98302e-05
92 *144:89 *512:A1 1.27255e-05
93 *144:89 *690:B2 2.0895e-06
94 *144:89 *436:24 0
95 *144:89 *436:63 0
96 *144:97 *611:A1 6.49127e-06
97 *144:97 *690:B2 1.73211e-06
98 *144:97 *447:227 4.84588e-06
99 *144:97 *447:242 9.54896e-06
100 *144:97 *447:244 5.52807e-07
101 *144:111 *230:56 0
102 *144:111 *277:61 0
103 *144:111 *447:304 0
104 *144:115 *334:294 5.98161e-05
105 *144:115 *334:298 1.45018e-05
106 *144:121 *287:35 5.79724e-07
107 *144:121 *411:10 1.99961e-05
108 *144:123 *411:6 6.63716e-05
109 *144:129 *615:B 3.61852e-06
110 *144:140 *230:56 0
111 *144:140 *230:66 2.88481e-06
112 *144:140 *277:61 0
113 *144:140 *435:14 5.80001e-06
114 *144:144 *230:66 0
115 *144:144 *277:61 0
116 *144:144 *439:10 4.71862e-06
117 *144:157 *439:10 2.66776e-05
118 *144:159 *277:83 6.60765e-05
119 *144:159 *333:20 1.25456e-05
120 *144:165 *267:8 4.47696e-06
121 *144:165 *334:228 0
122 *144:169 *434:12 6.7842e-07
123 *144:169 *434:18 2.08715e-05
124 *144:171 *211:45 0
125 *144:171 *334:228 0
126 *144:171 *399:10 0
127 *144:171 *437:97 1.15587e-05
128 *144:175 *670:A 9.40277e-06
129 *144:175 *673:B 7.13384e-06
130 *144:175 *262:6 2.50224e-05
131 *144:175 *262:18 9.07421e-06
132 *496:B *144:36 5.79724e-07
133 *591:A *144:30 1.56713e-06
134 *601:A *144:89 5.0551e-07
135 *727:B *144:97 1.94229e-07
136 *22:20 *144:66 3.68197e-05
137 *34:18 *144:121 0
138 *40:21 *144:129 8.45637e-06
139 *50:12 *144:171 0.000111145
140 *54:12 *144:171 0
141 *70:8 *144:97 5.37866e-07
142 *72:6 *144:97 2.12481e-06
143 *82:10 *144:49 1.12894e-06
144 *85:10 *144:175 2.28976e-06
145 *87:8 *144:157 4.735e-06
146 *111:23 *144:28 0
147 *113:18 *144:140 1.26336e-05
148 *135:6 *144:22 0.000184767
149 *139:41 *144:121 5.79724e-07
150 *139:41 *144:123 1.33622e-05
151 *139:53 *144:115 1.99374e-05
152 *139:75 *144:12 1.44874e-05
153 *139:75 *144:18 4.48031e-05
154 *139:130 *144:140 1.47272e-05
*RES
1 *506:Y *144:6 34.4 
2 *144:6 *144:12 43.4137 
3 *144:12 *144:18 36.2023 
4 *144:18 *144:20 17.2 
5 *144:20 *144:22 54.0173 
6 *144:22 *144:28 42.2843 
7 *144:28 *144:30 44.3905 
8 *144:30 *144:36 42.2843 
9 *144:36 *144:38 28.3457 
10 *144:38 *661:A2 22.5483 
11 *144:38 *144:47 17.2 
12 *144:47 *144:49 48.9954 
13 *144:49 *657:A2 34.4 
14 *144:12 *144:58 17.2 
15 *144:58 *144:60 63.0746 
16 *144:60 *144:64 32.4055 
17 *144:64 *144:66 42.2512 
18 *144:66 *144:74 49.067 
19 *144:74 *144:82 47.2111 
20 *144:82 *507:B 17.2 
21 *144:74 *144:89 50.8084 
22 *144:89 *144:97 47.2678 
23 *144:97 *611:A2 17.2 
24 *144:60 *653:A2 34.4 
25 *144:6 *144:111 19.7108 
26 *144:111 *144:113 17.2 
27 *144:113 *144:115 71.1317 
28 *144:115 *144:121 42.2843 
29 *144:121 *144:123 44.3905 
30 *144:123 *144:129 37.2158 
31 *144:129 *615:A2 17.2 
32 *144:111 *144:140 38.4019 
33 *144:140 *144:144 23.958 
34 *144:144 *683:A2 40.2831 
35 *144:144 *144:157 26.3045 
36 *144:157 *144:159 42.6383 
37 *144:159 *144:165 35.9956 
38 *144:165 *144:169 32.7099 
39 *144:169 *144:171 86.1644 
40 *144:171 *144:173 17.2 
41 *144:173 *144:175 56.6914 
42 *144:175 *673:A2 17.2 
43 *144:165 *678:A2 18.8045 
*END

*D_NET *145 0.0022188
*CONN
*I *602:B I *D NAND2x1_ASAP7_75t_R
*I *628:A3 I *D OA33x2_ASAP7_75t_R
*I *618:C I *D AND3x1_ASAP7_75t_R
*I *631:B I *D OA211x2_ASAP7_75t_R
*I *509:A I *D AND3x1_ASAP7_75t_R
*I *680:B I *D OA21x2_ASAP7_75t_R
*I *675:B I *D OA21x2_ASAP7_75t_R
*I *650:B I *D OA21x2_ASAP7_75t_R
*I *508:Y O *D INVx1_ASAP7_75t_R
*CAP
1 *602:B 0
2 *628:A3 0
3 *618:C 0
4 *631:B 0
5 *509:A 0
6 *680:B 0
7 *675:B 0
8 *650:B 0
9 *508:Y 1.23565e-05
10 *145:125 3.85713e-05
11 *145:114 1.98536e-05
12 *145:108 4.22424e-05
13 *145:102 7.77662e-05
14 *145:100 5.53775e-05
15 *145:98 8.60158e-05
16 *145:96 5.19764e-05
17 *145:90 2.66764e-05
18 *145:82 5.75965e-05
19 *145:80 3.5452e-05
20 *145:73 2.26392e-05
21 *145:67 4.05184e-05
22 *145:61 1.89084e-05
23 *145:57 4.831e-05
24 *145:55 5.855e-05
25 *145:46 1.87284e-05
26 *145:40 0.000128261
27 *145:38 0.000122375
28 *145:29 9.10924e-06
29 *145:23 3.27468e-05
30 *145:19 3.63177e-05
31 *145:12 2.33162e-05
32 *145:8 4.67801e-05
33 *145:12 *158:10 2.68658e-05
34 *145:12 *334:106 8.47306e-05
35 *145:19 *158:10 7.30716e-05
36 *145:19 *334:106 7.46845e-05
37 *145:23 *334:120 5.6886e-05
38 *145:29 *230:74 1.24503e-06
39 *145:29 *334:126 2.43869e-07
40 *145:38 *158:10 3.00901e-06
41 *145:38 *334:106 4.33802e-06
42 *145:57 *207:21 3.84449e-06
43 *145:57 *207:29 5.68573e-06
44 *145:57 *208:8 1.9761e-05
45 *145:57 *211:10 1.74234e-05
46 *145:57 *211:126 8.3668e-07
47 *145:57 *271:14 1.1937e-06
48 *145:57 *334:315 0
49 *145:61 *230:41 3.90258e-06
50 *145:67 *208:8 5.67735e-06
51 *145:67 *230:41 3.90258e-06
52 *145:67 *447:286 3.27946e-05
53 *145:67 *447:296 5.37569e-06
54 *145:73 *146:8 1.73158e-06
55 *145:73 *208:8 1.16862e-05
56 *145:73 *447:286 4.83862e-06
57 *145:82 *688:A 5.85387e-06
58 *145:82 *287:29 5.85387e-06
59 *145:82 *287:33 3.46317e-06
60 *145:82 *447:273 0.000100214
61 *145:90 *229:24 1.42041e-05
62 *145:90 *274:199 6.7203e-06
63 *145:90 *287:25 4.84588e-06
64 *145:96 *208:175 1.74044e-05
65 *145:96 *445:12 3.00603e-06
66 *145:98 *494:A 6.83843e-06
67 *145:98 *445:12 2.66797e-07
68 *145:102 *494:B 0
69 *145:102 *208:185 6.80131e-06
70 *145:102 *447:399 0
71 *145:102 *447:411 6.76305e-06
72 *145:108 *230:26 6.7842e-07
73 *145:114 *230:32 9.81412e-07
74 *145:114 *447:419 2.6365e-05
75 *145:114 *447:428 3.90258e-06
76 *145:125 *494:A 1.53057e-06
77 *145:125 *494:D 3.13426e-06
78 *145:125 *693:A1 1.37072e-05
79 *145:125 *274:243 8.46363e-06
80 *145:125 *274:249 2.83874e-07
81 *145:125 *409:10 6.94376e-06
82 *145:125 *438:20 5.19552e-07
83 *20:85 *145:8 8.43376e-06
84 *20:112 *145:23 3.46873e-06
85 *37:31 *145:102 1.04973e-05
86 *41:8 *145:114 1.36995e-05
87 *112:25 *145:12 0
88 *113:8 *145:29 8.89125e-07
89 *113:24 *145:40 6.90144e-05
90 *113:24 *145:46 1.93553e-05
91 *113:28 *145:55 2.41166e-05
92 *113:56 *145:29 1.05642e-06
93 *131:57 *145:67 1.64348e-06
94 *131:57 *145:73 2.18135e-06
95 *131:63 *145:73 8.2174e-07
96 *132:8 *145:114 1.02802e-05
97 *133:10 *145:102 9.81516e-06
98 *133:10 *145:125 0
99 *135:18 *145:82 2.14651e-05
100 *139:10 *145:102 1.69591e-05
101 *139:18 *145:102 2.32336e-05
102 *139:24 *145:102 6.99318e-06
103 *139:126 *145:57 2.25312e-05
104 *139:128 *145:55 5.23827e-05
105 *139:142 *145:23 8.61076e-05
106 *139:142 *145:29 6.20673e-06
107 *140:22 *145:90 0
108 *140:30 *145:73 2.0895e-06
109 *140:40 *145:73 2.6409e-06
*RES
1 *508:Y *145:8 40.2831 
2 *145:8 *145:12 45.3583 
3 *145:12 *650:B 17.2 
4 *145:8 *145:19 24.7793 
5 *145:19 *145:23 41.2671 
6 *145:23 *145:29 42.2843 
7 *145:29 *675:B 17.2 
8 *145:19 *145:38 18.8895 
9 *145:38 *145:40 46.5298 
10 *145:40 *145:46 41.158 
11 *145:46 *680:B 17.2 
12 *145:46 *145:55 31.6403 
13 *145:55 *145:57 43.9269 
14 *145:57 *145:61 18.2696 
15 *145:61 *145:67 34.6015 
16 *145:67 *145:73 34.8812 
17 *145:73 *509:A 17.2 
18 *145:67 *145:80 17.2 
19 *145:80 *145:82 37.9726 
20 *145:82 *145:90 44.3219 
21 *145:90 *145:96 40.1255 
22 *145:96 *145:98 21.9278 
23 *145:98 *145:100 17.2 
24 *145:100 *145:102 48.4323 
25 *145:102 *145:108 42.4224 
26 *145:108 *145:114 36.2059 
27 *145:114 *631:B 17.2 
28 *145:98 *145:125 38.3416 
29 *145:125 *618:C 34.4 
30 *145:82 *628:A3 17.2 
31 *145:61 *602:B 17.2 
*END

*D_NET *146 0.000337892
*CONN
*I *514:A1 I *D OA21x2_ASAP7_75t_R
*I *509:Y O *D AND3x1_ASAP7_75t_R
*CAP
1 *514:A1 1.63871e-05
2 *509:Y 3.49897e-06
3 *146:10 6.54224e-05
4 *146:8 5.25342e-05
5 *514:A1 *149:6 7.58265e-07
6 *514:A1 *149:14 1.52651e-06
7 *514:A1 *436:24 0
8 *146:10 *150:10 8.33296e-06
9 *146:10 *208:8 9.67723e-06
10 *146:10 *208:16 8.06436e-06
11 *146:10 *208:18 0.000133434
12 *146:10 *211:126 8.38174e-06
13 *146:10 *211:134 1.71476e-05
14 *146:10 *447:193 0
15 *2:8 *146:10 1.0743e-05
16 *131:63 *146:10 0
17 *140:30 *146:8 2.52755e-07
18 *145:73 *146:8 1.73158e-06
*RES
1 *509:Y *146:8 36.0045 
2 *146:8 *146:10 59.6956 
3 *146:10 *514:A1 41.8876 
*END

*D_NET *147 0.00429835
*CONN
*I *512:A2 I *D AOI21x1_ASAP7_75t_R
*I *627:B I *D AO21x1_ASAP7_75t_R
*I *613:B I *D AO21x1_ASAP7_75t_R
*I *637:B I *D NAND2x1_ASAP7_75t_R
*I *635:A2 I *D AOI22x1_ASAP7_75t_R
*I *638:B I *D AO21x1_ASAP7_75t_R
*I *643:B I *D AO21x1_ASAP7_75t_R
*I *642:B I *D NAND2x1_ASAP7_75t_R
*I *620:A2 I *D AOI22x1_ASAP7_75t_R
*I *609:B I *D AO21x1_ASAP7_75t_R
*I *671:B I *D AO21x1_ASAP7_75t_R
*I *659:B I *D AO21x1_ASAP7_75t_R
*I *655:B I *D AO21x1_ASAP7_75t_R
*I *510:Y O *D AND2x2_ASAP7_75t_R
*CAP
1 *512:A2 0
2 *627:B 2.09605e-05
3 *613:B 0
4 *637:B 0
5 *635:A2 0
6 *638:B 2.10642e-06
7 *643:B 2.69297e-06
8 *642:B 1.77313e-06
9 *620:A2 0
10 *609:B 0
11 *671:B 2.87129e-06
12 *659:B 0
13 *655:B 3.78992e-06
14 *510:Y 0
15 *147:220 2.13112e-05
16 *147:204 9.90791e-06
17 *147:198 9.32876e-05
18 *147:196 8.33797e-05
19 *147:194 5.21551e-05
20 *147:192 5.59639e-05
21 *147:188 3.7365e-05
22 *147:182 5.02337e-05
23 *147:165 2.82761e-05
24 *147:154 2.51276e-05
25 *147:143 6.95684e-05
26 *147:141 5.4853e-05
27 *147:139 3.00456e-05
28 *147:135 9.3872e-05
29 *147:133 4.25153e-05
30 *147:131 4.30046e-05
31 *147:118 8.74603e-05
32 *147:116 7.8167e-05
33 *147:107 1.64065e-05
34 *147:103 8.51233e-05
35 *147:97 8.94306e-05
36 *147:91 0.000116118
37 *147:89 0.000114352
38 *147:85 3.69298e-05
39 *147:83 7.17337e-05
40 *147:70 1.33174e-05
41 *147:62 0.000123131
42 *147:53 0.00018046
43 *147:42 8.02862e-05
44 *147:38 9.9968e-05
45 *147:36 9.23319e-05
46 *147:30 2.69238e-05
47 *147:22 0.000147145
48 *147:20 0.000130685
49 *147:14 0.000103884
50 *147:12 9.45063e-05
51 *147:10 3.27513e-05
52 *147:4 7.37515e-05
53 *627:B *627:A1 2.31613e-05
54 *627:B *277:240 2.48891e-05
55 *627:B *322:12 6.92634e-06
56 *638:B *638:A2 1.35684e-06
57 *642:B *323:12 3.89037e-06
58 *643:B *643:A2 5.85387e-06
59 *671:B *883:A 3.73144e-06
60 *671:B *334:207 7.14604e-06
61 *671:B *373:15 2.52755e-07
62 *147:10 *246:8 1.91241e-06
63 *147:10 *447:203 1.20471e-05
64 *147:14 *277:16 3.22132e-06
65 *147:14 *292:6 1.39221e-05
66 *147:14 *446:100 1.07843e-05
67 *147:20 *461:20 7.90851e-06
68 *147:22 *274:61 2.0895e-06
69 *147:22 *277:24 4.40375e-05
70 *147:22 *277:32 7.58265e-07
71 *147:22 *410:12 4.49472e-05
72 *147:36 *447:82 7.3874e-07
73 *147:38 *702:A1 2.88806e-06
74 *147:38 *702:A2 5.22376e-07
75 *147:38 *211:200 5.51397e-07
76 *147:38 *250:22 1.40419e-08
77 *147:38 *346:31 2.52755e-07
78 *147:53 *312:12 1.64764e-06
79 *147:53 *314:14 5.52652e-06
80 *147:53 *334:166 0
81 *147:53 *447:94 2.24111e-07
82 *147:53 *447:100 2.68658e-05
83 *147:62 *664:B 3.78382e-06
84 *147:62 *314:14 2.98532e-06
85 *147:62 *329:14 8.0094e-06
86 *147:62 *334:164 0
87 *147:62 *334:190 0
88 *147:62 *334:207 5.49212e-07
89 *147:62 *347:22 8.96443e-08
90 *147:62 *447:100 0.000130494
91 *147:62 *447:115 4.87576e-05
92 *147:62 *447:130 1.32021e-05
93 *147:62 *447:134 1.60492e-05
94 *147:62 *447:142 3.51107e-06
95 *147:62 *447:153 2.98814e-06
96 *147:70 *668:A2 8.87763e-06
97 *147:70 *334:207 9.67723e-06
98 *147:70 *447:153 0
99 *147:83 *211:132 5.62196e-06
100 *147:83 *211:207 2.44619e-05
101 *147:83 *447:197 1.04358e-05
102 *147:85 *211:134 0
103 *147:85 *354:10 2.66045e-05
104 *147:89 *211:134 0
105 *147:89 *354:10 1.98844e-05
106 *147:103 *215:14 0
107 *147:107 *214:10 2.12481e-06
108 *147:107 *309:12 3.16509e-06
109 *147:116 *214:10 3.81627e-06
110 *147:116 *309:12 1.89965e-05
111 *147:118 *211:228 0
112 *147:131 *627:A1 5.09299e-06
113 *147:131 *211:245 9.00259e-06
114 *147:131 *277:240 1.25483e-05
115 *147:131 *447:383 1.62854e-06
116 *147:135 *211:245 0
117 *147:135 *216:10 8.39972e-05
118 *147:135 *274:276 8.2174e-07
119 *147:135 *274:295 5.88157e-05
120 *147:135 *277:242 0
121 *147:135 *277:253 0
122 *147:135 *303:14 0
123 *147:135 *303:22 8.20229e-06
124 *147:135 *447:368 1.76868e-05
125 *147:135 *447:383 2.28488e-05
126 *147:139 *340:20 9.46454e-05
127 *147:143 *306:8 3.03529e-05
128 *147:143 *397:33 0
129 *147:154 *242:10 1.30409e-05
130 *147:154 *243:10 3.29527e-06
131 *147:154 *306:8 5.06293e-05
132 *147:154 *323:8 0
133 *147:165 *306:8 4.692e-05
134 *147:182 *239:8 7.81138e-06
135 *147:182 *306:8 2.18965e-05
136 *147:188 *895:A 0
137 *147:188 *237:12 1.12894e-06
138 *147:188 *243:10 5.22486e-06
139 *147:188 *343:25 2.68586e-05
140 *147:192 *239:14 5.85387e-06
141 *147:194 *239:14 4.83862e-06
142 *147:194 *306:16 2.26703e-05
143 *147:204 *288:10 0
144 *147:204 *288:21 0
145 *147:220 *216:10 2.04473e-05
146 *147:220 *217:10 4.6189e-06
147 *147:220 *274:295 4.92493e-05
148 *510:B *147:10 5.41446e-06
149 *517:A *147:91 4.17901e-06
150 *727:B *147:97 6.38149e-06
151 *970:A *147:131 1.47868e-05
152 *14:10 *147:165 4.18264e-05
153 *14:10 *147:182 2.30332e-05
154 *14:10 *147:194 7.57697e-06
155 *18:10 *147:118 1.63973e-05
156 *18:10 *147:131 1.82643e-05
157 *20:45 *147:10 0
158 *20:58 *147:10 1.62312e-05
159 *21:10 *147:89 2.68933e-07
160 *25:14 *147:143 7.46397e-06
161 *31:8 *147:194 4.83862e-06
162 *31:12 *147:198 0.000153525
163 *74:10 *147:118 0
164 *97:8 *147:30 7.84772e-07
165 *108:8 *147:14 5.17782e-06
166 *144:74 *147:89 0
*RES
1 *510:Y *147:4 17.2 
2 *147:4 *147:10 41.7773 
3 *147:10 *147:12 17.2 
4 *147:12 *147:14 56.1566 
5 *147:14 *147:20 41.158 
6 *147:20 *147:22 66.8531 
7 *147:22 *147:30 44.5803 
8 *147:30 *147:36 35.057 
9 *147:36 *147:38 37.9726 
10 *147:38 *147:42 22.8317 
11 *147:42 *655:B 36.5393 
12 *147:42 *147:53 58.5693 
13 *147:53 *659:B 34.4 
14 *147:53 *147:62 114.886 
15 *147:62 *147:70 41.5795 
16 *147:70 *671:B 37.609 
17 *147:4 *147:83 45.5457 
18 *147:83 *147:85 27.032 
19 *147:85 *147:89 23.958 
20 *147:89 *147:91 46.5298 
21 *147:91 *147:97 39.9378 
22 *147:97 *147:103 41.0159 
23 *147:103 *147:107 19.8741 
24 *147:107 *609:B 17.2 
25 *147:107 *147:116 30.5706 
26 *147:116 *147:118 51.2481 
27 *147:118 *620:A2 34.4 
28 *147:118 *147:131 39.5283 
29 *147:131 *147:133 17.2 
30 *147:133 *147:135 50.1218 
31 *147:135 *147:139 41.2671 
32 *147:139 *147:141 17.2 
33 *147:141 *147:143 42.8006 
34 *147:143 *642:B 35.4697 
35 *147:143 *147:154 17.4581 
36 *147:154 *643:B 36.0045 
37 *147:154 *147:165 16.3318 
38 *147:165 *638:B 35.4697 
39 *147:165 *147:182 48.1674 
40 *147:182 *147:188 41.1327 
41 *147:188 *147:192 19.3393 
42 *147:192 *147:194 47.3059 
43 *147:194 *147:196 17.2 
44 *147:196 *147:198 45.4601 
45 *147:198 *147:204 40.0317 
46 *147:204 *635:A2 17.2 
47 *147:188 *637:B 17.2 
48 *147:135 *147:220 36.7974 
49 *147:220 *613:B 17.2 
50 *147:131 *627:B 38.593 
51 *147:85 *512:A2 34.4 
*END

*D_NET *148 0.000330484
*CONN
*P req_msg[15] I
*I *511:A I *D BUFx2_ASAP7_75t_R
*CAP
1 req_msg[15] 1.28202e-05
2 *511:A 0
3 *148:13 5.96567e-05
4 *148:11 7.24769e-05
5 *148:11 *209:9 3.78287e-05
6 *148:11 *212:5 3.72906e-05
7 *148:11 *275:9 3.30589e-06
8 *148:13 *604:A 6.78445e-06
9 *148:13 *872:A 8.52748e-05
10 *148:13 *308:6 3.16328e-06
11 *148:13 *320:6 1.18822e-05
12 *148:13 *362:13 0
*RES
1 req_msg[15] *148:11 49.5263 
2 *148:11 *148:13 50.8084 
3 *148:13 *511:A 17.2 
*END

*D_NET *149 0.000132871
*CONN
*I *514:A2 I *D OA21x2_ASAP7_75t_R
*I *512:Y O *D AOI21x1_ASAP7_75t_R
*CAP
1 *514:A2 0
2 *512:Y 2.04402e-05
3 *149:14 4.6698e-06
4 *149:6 2.511e-05
5 *149:6 *512:A1 5.17782e-06
6 *149:6 *436:24 7.0986e-05
7 *149:14 *150:10 6.33206e-07
8 *149:14 *436:24 5.22376e-07
9 *149:14 *447:193 0
10 *514:A1 *149:6 7.58265e-07
11 *514:A1 *149:14 1.52651e-06
12 *144:74 *149:6 3.0471e-06
*RES
1 *512:Y *149:6 38.0582 
2 *149:6 *149:14 38.2855 
3 *149:14 *514:A2 17.2 
*END

*D_NET *150 6.98199e-05
*CONN
*I *514:B I *D OA21x2_ASAP7_75t_R
*I *513:Y O *D INVx1_ASAP7_75t_R
*CAP
1 *514:B 0
2 *513:Y 0
3 *150:10 3.04269e-05
4 *150:6 3.04269e-05
5 *150:10 *447:193 0
6 *146:10 *150:10 8.33296e-06
7 *149:14 *150:10 6.33206e-07
*RES
1 *513:Y *150:6 34.4 
2 *150:6 *150:10 39.7266 
3 *150:10 *514:B 17.2 
*END

*D_NET *151 3.89744e-05
*CONN
*I *519:A2 I *D OA21x2_ASAP7_75t_R
*I *518:Y O *D OA21x2_ASAP7_75t_R
*CAP
1 *519:A2 2.37653e-06
2 *518:Y 5.89026e-06
3 *151:8 8.26679e-06
4 *519:A2 *519:A1 9.30483e-06
5 *65:23 *519:A2 3.56648e-06
6 *68:14 *151:8 2.77657e-06
7 *108:14 *151:8 6.79293e-06
*RES
1 *518:Y *151:8 40.0317 
2 *151:8 *519:A2 37.0741 
*END

*D_NET *152 0.000255335
*CONN
*I *520:B I *D XOR2x2_ASAP7_75t_R
*I *519:Y O *D OA21x2_ASAP7_75t_R
*CAP
1 *520:B 4.33616e-05
2 *519:Y 4.82636e-05
3 *152:12 4.59218e-05
4 *152:6 5.08237e-05
5 *520:B *346:6 2.61188e-06
6 *152:6 *519:A1 2.02204e-06
7 *152:6 *523:A2 5.19552e-07
8 *152:12 *446:8 8.33296e-06
9 *523:A1 *152:6 2.90209e-08
10 *65:23 *152:6 4.60953e-05
11 *65:31 *152:6 7.35354e-06
12 *67:34 *152:12 0
*RES
1 *519:Y *152:6 41.2671 
2 *152:6 *152:12 37.2158 
3 *152:12 *520:B 43.4064 
*END

*D_NET *153 7.80741e-05
*CONN
*I *522:A I *D XOR2x2_ASAP7_75t_R
*I *521:Y O *D OA21x2_ASAP7_75t_R
*CAP
1 *522:A 0
2 *521:Y 0
3 *153:12 3.1871e-05
4 *153:6 3.1871e-05
5 *153:12 *404:25 9.94583e-06
6 *153:12 *417:14 0
7 *153:12 *417:27 8.2174e-07
8 *472:A2 *153:12 1.35961e-06
9 *135:6 *153:12 2.20493e-06
*RES
1 *521:Y *153:6 34.4 
2 *153:6 *153:12 40.2048 
3 *153:12 *522:A 17.2 
*END

*D_NET *154 0.000122825
*CONN
*I *526:A1 I *D OA21x2_ASAP7_75t_R
*I *523:Y O *D OA211x2_ASAP7_75t_R
*CAP
1 *526:A1 0
2 *523:Y 7.06266e-06
3 *154:12 3.15808e-05
4 *154:8 3.86435e-05
5 *154:12 *525:A2 1.31716e-05
6 *154:12 *155:14 8.8135e-06
7 *154:12 *405:38 1.50458e-05
8 *154:12 *446:8 0
9 *154:12 *446:86 0
10 *154:12 *461:30 1.09842e-06
11 *65:31 *154:12 1.67815e-06
12 *68:14 *154:8 5.17782e-06
13 *68:14 *154:12 5.52807e-07
14 *108:14 *154:12 0
*RES
1 *523:Y *154:8 38.1438 
2 *154:8 *154:12 43.1056 
3 *154:12 *526:A1 17.2 
*END

*D_NET *155 9.89104e-05
*CONN
*I *525:B I *D AO21x1_ASAP7_75t_R
*I *524:Y O *D OR2x2_ASAP7_75t_R
*CAP
1 *525:B 0
2 *524:Y 1.27635e-05
3 *155:14 1.74365e-05
4 *155:8 3.02e-05
5 *155:8 *403:12 5.19552e-07
6 *155:14 *156:10 1.692e-05
7 *155:14 *157:10 0
8 *155:14 *446:90 5.22376e-07
9 *526:B *155:14 6.6421e-06
10 *111:6 *155:8 5.09299e-06
11 *154:12 *155:14 8.8135e-06
*RES
1 *524:Y *155:8 40.2831 
2 *155:8 *155:14 33.4751 
3 *155:14 *525:B 17.2 
*END

*D_NET *156 3.77642e-05
*CONN
*I *526:A2 I *D OA21x2_ASAP7_75t_R
*I *525:Y O *D AO21x1_ASAP7_75t_R
*CAP
1 *526:A2 0
2 *525:Y 7.61113e-06
3 *156:10 7.61113e-06
4 *156:10 *446:90 5.62196e-06
5 *155:14 *156:10 1.692e-05
*RES
1 *525:Y *156:10 41.6361 
2 *156:10 *526:A2 34.4 
*END

*D_NET *157 0.00126132
*CONN
*I *559:A1 I *D OAI21x1_ASAP7_75t_R
*I *973:A I *D BUFx6f_ASAP7_75t_R
*I *532:A2 I *D OA21x2_ASAP7_75t_R
*I *972:A I *D BUFx3_ASAP7_75t_R
*I *526:Y O *D OA21x2_ASAP7_75t_R
*CAP
1 *559:A1 0
2 *973:A 0
3 *532:A2 1.21416e-06
4 *972:A 1.50038e-05
5 *526:Y 6.72187e-06
6 *157:69 1.86858e-05
7 *157:56 2.76055e-05
8 *157:48 0.000102657
9 *157:46 0.000105394
10 *157:33 2.00072e-05
11 *157:25 0.000103626
12 *157:23 9.64893e-05
13 *157:14 1.78954e-05
14 *157:10 9.00744e-05
15 *157:8 9.39047e-05
16 *532:A2 *159:20 3.90258e-06
17 *972:A *675:A1 9.56006e-06
18 *972:A *266:6 4.34114e-06
19 *972:A *419:42 9.425e-07
20 *157:14 *675:A1 6.7842e-07
21 *157:25 *277:79 2.30873e-06
22 *157:25 *423:8 7.03903e-05
23 *157:25 *423:19 6.50145e-05
24 *157:25 *423:38 3.22574e-06
25 *157:25 *440:49 9.02214e-06
26 *157:33 *532:B 6.7842e-07
27 *157:33 *351:19 0
28 *157:33 *423:27 9.31704e-06
29 *157:46 *351:19 0
30 *157:48 *539:A 1.32074e-05
31 *157:48 *546:A 1.23597e-05
32 *157:48 *547:A 7.72307e-07
33 *157:48 *547:B 2.02204e-06
34 *157:48 *932:A 2.68282e-05
35 *157:48 *160:29 7.91998e-06
36 *157:48 *418:94 7.58265e-07
37 *157:48 *422:22 1.36155e-06
38 *157:56 *547:A 8.39579e-06
39 *157:56 *174:12 6.33206e-07
40 *157:56 *179:23 8.45637e-06
41 *157:69 *547:A 4.32502e-06
42 *157:69 *172:21 2.07088e-06
43 *157:69 *182:10 2.3524e-05
44 *526:B *157:10 0
45 *531:B *157:25 4.88493e-06
46 *48:8 *157:25 2.22736e-06
47 *50:22 *157:25 2.80709e-06
48 *53:42 *157:25 8.21017e-06
49 *56:12 *157:10 0
50 *56:19 *157:10 0
51 *56:19 *157:25 9.44581e-06
52 *56:27 *157:25 0
53 *109:8 *157:10 0
54 *109:23 *157:10 0
55 *110:12 *157:10 0
56 *111:23 *157:10 0
57 *112:19 *157:10 5.79724e-07
58 *113:8 *157:10 0.000111519
59 *113:56 *157:10 6.63436e-06
60 *113:56 *157:25 6.46473e-05
61 *116:23 *157:25 0
62 *117:20 *157:25 2.60745e-05
63 *117:20 *157:33 1.15978e-05
64 *117:20 *157:46 1.60211e-05
65 *117:39 *157:46 5.37569e-06
66 *155:14 *157:10 0
*RES
1 *526:Y *157:8 37.0741 
2 *157:8 *157:10 73.2116 
3 *157:10 *157:14 18.8045 
4 *157:14 *972:A 27.3617 
5 *157:14 *157:23 17.2 
6 *157:23 *157:25 100.807 
7 *157:25 *157:33 41.0163 
8 *157:33 *532:A2 35.4697 
9 *157:33 *157:46 27.337 
10 *157:46 *157:48 42.2512 
11 *157:48 *157:56 43.0989 
12 *157:56 *973:A 17.2 
13 *157:56 *157:69 49.237 
14 *157:69 *559:A1 17.2 
*END

*D_NET *158 0.000727445
*CONN
*I *577:A1 I *D OA211x2_ASAP7_75t_R
*I *967:A I *D BUFx3_ASAP7_75t_R
*I *528:Y O *D OA21x2_ASAP7_75t_R
*CAP
1 *577:A1 0
2 *967:A 0
3 *528:Y 1.22676e-05
4 *158:27 5.44577e-05
5 *158:25 7.47263e-05
6 *158:12 2.02686e-05
7 *158:10 0.000108672
8 *158:8 0.000120939
9 *158:10 *274:83 0
10 *158:10 *274:93 0
11 *158:10 *277:73 9.41645e-07
12 *158:10 *334:114 0
13 *158:25 *454:8 4.1009e-06
14 *158:27 *556:A1 3.22548e-05
15 *158:27 *421:38 1.96943e-05
16 *158:27 *423:77 6.12523e-05
17 *556:A2 *158:27 1.12561e-05
18 *556:B *158:27 7.63988e-05
19 *20:89 *158:10 0
20 *20:104 *158:10 0
21 *20:110 *158:10 0
22 *47:10 *158:10 0
23 *47:14 *158:25 8.146e-06
24 *103:8 *158:10 3.63386e-06
25 *139:136 *158:10 1.54884e-05
26 *145:12 *158:10 2.68658e-05
27 *145:19 *158:10 7.30716e-05
28 *145:38 *158:10 3.00901e-06
*RES
1 *528:Y *158:8 39.2134 
2 *158:8 *158:10 88.9802 
3 *158:10 *158:12 17.2 
4 *158:12 *967:A 17.2 
5 *158:12 *158:25 49.2937 
6 *158:25 *158:27 50.8084 
7 *158:27 *577:A1 17.2 
*END

*D_NET *159 0.000357116
*CONN
*I *555:A I *D OR2x2_ASAP7_75t_R
*I *532:A1 I *D OA21x2_ASAP7_75t_R
*I *530:Y O *D OR2x2_ASAP7_75t_R
*CAP
1 *555:A 0
2 *532:A1 0
3 *530:Y 0
4 *159:27 4.76126e-05
5 *159:20 2.75418e-05
6 *159:10 0.000117429
7 *159:6 4.22749e-05
8 *159:10 *160:10 0
9 *159:10 *418:41 2.84286e-06
10 *159:10 *418:53 0
11 *159:10 *419:61 7.84037e-07
12 *159:20 *532:B 1.67692e-05
13 *159:20 *160:10 0
14 *159:20 *160:21 0
15 *159:20 *418:25 5.22376e-07
16 *159:20 *418:41 5.27356e-06
17 *159:20 *423:27 0
18 *159:20 *423:38 1.11749e-05
19 *159:27 *478:A 2.27522e-06
20 *159:27 *532:B 2.31575e-05
21 *159:27 *418:41 1.18822e-05
22 *532:A2 *159:20 3.90258e-06
23 *113:56 *159:10 9.97736e-06
24 *115:18 *159:27 1.20041e-05
25 *115:67 *159:27 9.40277e-06
26 *116:36 *159:10 8.06436e-06
27 *117:10 *159:27 4.22446e-06
*RES
1 *530:Y *159:6 34.4 
2 *159:6 *159:10 48.1741 
3 *159:10 *159:20 49.5735 
4 *159:20 *532:A1 17.2 
5 *159:10 *159:27 36.9029 
6 *159:27 *555:A 17.2 
*END

*D_NET *160 0.000631116
*CONN
*I *558:A1 I *D OA211x2_ASAP7_75t_R
*I *546:A I *D OR3x1_ASAP7_75t_R
*I *532:B I *D OA21x2_ASAP7_75t_R
*I *531:Y O *D OA21x2_ASAP7_75t_R
*CAP
1 *558:A1 0
2 *546:A 3.27922e-06
3 *532:B 1.15306e-05
4 *531:Y 2.37751e-05
5 *160:44 6.22835e-05
6 *160:42 7.70046e-05
7 *160:29 1.97281e-05
8 *160:21 3.99085e-05
9 *160:10 6.75428e-05
10 *160:8 7.10487e-05
11 *546:A *418:94 2.92897e-06
12 *160:8 *418:59 5.41446e-06
13 *160:10 *418:47 1.0743e-05
14 *160:10 *418:53 6.3133e-05
15 *160:10 *418:59 3.68044e-05
16 *160:10 *418:94 4.10928e-06
17 *160:10 *423:62 4.74248e-06
18 *160:21 *161:8 0
19 *160:21 *418:94 8.52021e-06
20 *160:29 *418:94 3.0327e-05
21 *160:29 *422:14 3.05118e-08
22 *160:42 *161:8 0
23 *160:44 *179:23 7.30263e-06
24 *47:25 *160:10 0
25 *50:30 *160:10 8.21017e-06
26 *54:19 *160:8 3.55261e-06
27 *115:18 *532:B 8.31096e-06
28 *157:33 *532:B 6.7842e-07
29 *157:48 *546:A 1.23597e-05
30 *157:48 *160:29 7.91998e-06
31 *159:10 *160:10 0
32 *159:20 *532:B 1.67692e-05
33 *159:20 *160:10 0
34 *159:20 *160:21 0
35 *159:27 *532:B 2.31575e-05
*RES
1 *531:Y *160:8 45.6313 
2 *160:8 *160:10 46.1796 
3 *160:10 *532:B 46.701 
4 *160:10 *160:21 7.88432 
5 *160:21 *160:29 47.3775 
6 *160:29 *546:A 37.609 
7 *160:21 *160:42 27.337 
8 *160:42 *160:44 35.2985 
9 *160:44 *558:A1 17.2 
*END

*D_NET *161 8.49856e-05
*CONN
*I *533:A I *D XNOR2x2_ASAP7_75t_R
*I *532:Y O *D OA21x2_ASAP7_75t_R
*CAP
1 *533:A 0
2 *532:Y 1.92614e-05
3 *161:16 1.8609e-05
4 *161:8 3.78705e-05
5 *161:8 *423:38 4.45472e-06
6 *161:16 *351:19 0
7 *115:18 *161:8 6.72662e-07
8 *117:39 *161:8 1.09067e-06
9 *117:39 *161:16 3.02667e-06
10 *160:21 *161:8 0
11 *160:42 *161:8 0
*RES
1 *532:Y *161:8 48.4791 
2 *161:8 *161:16 46.3079 
3 *161:16 *533:A 34.4 
*END

*D_NET *162 4.81933e-05
*CONN
*I *535:B I *D OA21x2_ASAP7_75t_R
*I *534:Y O *D AND3x1_ASAP7_75t_R
*CAP
1 *535:B 1.33358e-05
2 *534:Y 7.92466e-06
3 *162:8 2.12604e-05
4 *535:B *535:A1 2.20493e-06
5 *535:B *163:10 7.63254e-07
6 *162:8 *163:10 0
7 *162:8 *351:12 0
8 *162:8 *399:10 2.70427e-06
*RES
1 *534:Y *162:8 41.158 
2 *162:8 *535:B 42.4224 
*END

*D_NET *163 4.59285e-05
*CONN
*I *542:C I *D OR3x1_ASAP7_75t_R
*I *535:Y O *D OA21x2_ASAP7_75t_R
*CAP
1 *542:C 1.68604e-06
2 *535:Y 1.56623e-05
3 *163:10 1.73483e-05
4 *542:C *542:B 1.44167e-06
5 *163:10 *351:12 9.027e-06
6 *163:10 *456:8 0
7 *535:B *163:10 7.63254e-07
8 *162:8 *163:10 0
*RES
1 *535:Y *163:10 43.7188 
2 *163:10 *542:C 35.4697 
*END

*D_NET *164 0.000137509
*CONN
*I *542:B I *D OR3x1_ASAP7_75t_R
*I *536:Y O *D AND4x1_ASAP7_75t_R
*CAP
1 *542:B 1.53908e-05
2 *536:Y 3.1141e-05
3 *164:8 4.65318e-05
4 *542:B *542:A 1.73158e-06
5 *542:B *351:12 3.47607e-06
6 *542:B *351:19 7.84037e-07
7 *542:C *542:B 1.44167e-06
8 *116:23 *164:8 1.47071e-05
9 *116:36 *164:8 2.23047e-05
*RES
1 *536:Y *164:8 48.8403 
2 *164:8 *542:B 44.1686 
*END

*D_NET *165 5.20077e-05
*CONN
*I *540:B I *D OA211x2_ASAP7_75t_R
*I *537:Y O *D OR3x1_ASAP7_75t_R
*CAP
1 *540:B 4.33003e-06
2 *537:Y 9.95912e-06
3 *165:10 1.42892e-05
4 *540:B *540:C 1.95129e-06
5 *165:10 *537:C 1.04475e-06
6 *165:10 *168:8 1.98924e-06
7 *165:10 *351:19 0
8 *165:10 *418:10 1.63193e-05
9 *165:10 *418:25 2.12481e-06
*RES
1 *537:Y *165:10 42.7058 
2 *165:10 *540:B 36.5393 
*END

*D_NET *166 2.69865e-05
*CONN
*I *539:B I *D OR3x1_ASAP7_75t_R
*I *538:Y O *D INVx1_ASAP7_75t_R
*CAP
1 *539:B 6.93196e-06
2 *538:Y 6.93196e-06
3 *539:B *539:A 6.92634e-06
4 *539:B *540:C 1.95129e-06
5 *539:B *167:10 4.2449e-06
*RES
1 *538:Y *539:B 39.7482 
*END

*D_NET *167 0.000112363
*CONN
*I *540:C I *D OA211x2_ASAP7_75t_R
*I *539:Y O *D OR3x1_ASAP7_75t_R
*CAP
1 *540:C 1.6046e-05
2 *539:Y 2.06183e-05
3 *167:10 3.66643e-05
4 *167:10 *539:A 1.90474e-05
5 *167:10 *351:19 1.12901e-05
6 *167:10 *407:44 5.49212e-07
7 *167:10 *418:10 0
8 *539:B *540:C 1.95129e-06
9 *539:B *167:10 4.2449e-06
10 *540:B *540:C 1.95129e-06
*RES
1 *539:Y *167:10 47.4342 
2 *167:10 *540:C 44.5617 
*END

*D_NET *168 1.09138e-05
*CONN
*I *541:A I *D INVx1_ASAP7_75t_R
*I *540:Y O *D OA211x2_ASAP7_75t_R
*CAP
1 *541:A 0
2 *540:Y 4.46228e-06
3 *168:8 4.46228e-06
4 *168:8 *351:19 0
5 *165:10 *168:8 1.98924e-06
*RES
1 *540:Y *168:8 37.779 
2 *168:8 *541:A 34.4 
*END

*D_NET *169 2.50187e-05
*CONN
*I *542:A I *D OR3x1_ASAP7_75t_R
*I *541:Y O *D INVx1_ASAP7_75t_R
*CAP
1 *542:A 3.50317e-06
2 *541:Y 7.99847e-06
3 *169:8 1.15016e-05
4 *169:8 *351:19 2.83874e-07
5 *542:B *542:A 1.73158e-06
*RES
1 *541:Y *169:8 38.9053 
2 *169:8 *542:A 36.5393 
*END

*D_NET *170 0.000168809
*CONN
*I *550:B I *D OR2x2_ASAP7_75t_R
*I *544:B I *D OR2x2_ASAP7_75t_R
*I *543:Y O *D OR3x1_ASAP7_75t_R
*CAP
1 *550:B 2.69327e-05
2 *544:B 0
3 *543:Y 1.73501e-05
4 *170:25 4.38183e-05
5 *170:12 2.49852e-05
6 *170:8 2.54497e-05
7 *550:B *171:8 9.95417e-06
8 *550:B *402:44 1.07377e-06
9 *170:8 *423:77 1.86121e-05
10 *170:25 *402:8 0
11 *170:25 *419:67 0
12 *123:12 *170:12 6.33206e-07
13 *123:12 *170:25 0
*RES
1 *543:Y *170:8 46.701 
2 *170:8 *170:12 21.7053 
3 *170:12 *544:B 17.2 
4 *170:12 *170:25 43.0989 
5 *170:25 *550:B 34.8492 
*END

*D_NET *171 0.000337606
*CONN
*I *573:A2 I *D OA211x2_ASAP7_75t_R
*I *548:A2 I *D OAI21x1_ASAP7_75t_R
*I *544:Y O *D OR2x2_ASAP7_75t_R
*CAP
1 *573:A2 1.47426e-05
2 *548:A2 3.81558e-06
3 *544:Y 2.25743e-05
4 *171:10 8.881e-05
5 *171:8 9.28261e-05
6 *548:A2 *174:12 3.65131e-06
7 *573:A2 *174:12 0
8 *573:A2 *460:25 5.37569e-06
9 *171:10 *172:10 2.37635e-05
10 *171:10 *172:21 6.46615e-05
11 *171:10 *174:12 0
12 *171:10 *179:10 0
13 *171:10 *179:23 0
14 *171:10 *182:10 0
15 *171:10 *402:8 1.09067e-06
16 *171:10 *402:40 6.33206e-07
17 *171:10 *423:92 1.62854e-06
18 *171:10 *460:8 4.07882e-06
19 *550:B *171:8 9.95417e-06
*RES
1 *544:Y *171:8 45.6313 
2 *171:8 *171:10 56.3166 
3 *171:10 *548:A2 37.0741 
4 *171:10 *573:A2 43.8888 
*END

*D_NET *172 0.000370899
*CONN
*I *547:A I *D AND2x2_ASAP7_75t_R
*I *557:A I *D OR3x1_ASAP7_75t_R
*I *545:Y O *D OA21x2_ASAP7_75t_R
*CAP
1 *547:A 1.69211e-05
2 *557:A 0
3 *545:Y 4.89168e-05
4 *172:21 3.72419e-05
5 *172:10 2.59437e-05
6 *172:6 5.45396e-05
7 *172:6 *402:12 6.92944e-05
8 *172:10 *423:92 4.97342e-06
9 *172:21 *182:10 1.80783e-06
10 *172:21 *423:92 2.19685e-06
11 *117:65 *172:21 5.07403e-06
12 *123:14 *172:6 0
13 *157:48 *547:A 7.72307e-07
14 *157:56 *547:A 8.39579e-06
15 *157:69 *547:A 4.32502e-06
16 *157:69 *172:21 2.07088e-06
17 *171:10 *172:10 2.37635e-05
18 *171:10 *172:21 6.46615e-05
*RES
1 *545:Y *172:6 43.4064 
2 *172:6 *172:10 25.0843 
3 *172:10 *557:A 34.4 
4 *172:10 *172:21 39.7266 
5 *172:21 *547:A 28.9662 
*END

*D_NET *173 1.42126e-05
*CONN
*I *547:B I *D AND2x2_ASAP7_75t_R
*I *546:Y O *D OR3x1_ASAP7_75t_R
*CAP
1 *547:B 6.09527e-06
2 *546:Y 6.09527e-06
3 *157:48 *547:B 2.02204e-06
*RES
1 *546:Y *547:B 38.6786 
*END

*D_NET *174 0.000147083
*CONN
*I *548:B I *D OAI21x1_ASAP7_75t_R
*I *573:B I *D OA211x2_ASAP7_75t_R
*I *547:Y O *D AND2x2_ASAP7_75t_R
*CAP
1 *548:B 0
2 *573:B 0
3 *547:Y 0
4 *174:20 1.46536e-05
5 *174:12 5.20101e-05
6 *174:6 3.73565e-05
7 *174:12 *179:23 1.12894e-06
8 *174:12 *460:25 5.41446e-06
9 *174:20 *573:A1 5.62196e-06
10 *174:20 *175:29 1.62854e-06
11 *174:20 *460:25 2.49844e-05
12 *548:A2 *174:12 3.65131e-06
13 *573:A2 *174:12 0
14 *157:56 *174:12 6.33206e-07
15 *171:10 *174:12 0
*RES
1 *547:Y *174:6 34.4 
2 *174:6 *174:12 42.6238 
3 *174:12 *174:20 46.6196 
4 *174:20 *573:B 17.2 
5 *174:12 *548:B 17.2 
*END

*D_NET *175 0.000356501
*CONN
*I *574:A1 I *D AO211x2_ASAP7_75t_R
*I *549:B I *D XNOR2x2_ASAP7_75t_R
*I *548:Y O *D OAI21x1_ASAP7_75t_R
*CAP
1 *574:A1 4.969e-05
2 *549:B 2.52919e-06
3 *548:Y 0
4 *175:29 6.82379e-05
5 *175:16 3.91435e-05
6 *175:14 5.30709e-05
7 *175:6 3.50044e-05
8 *574:A1 *565:A 2.11853e-06
9 *574:A1 *574:A2 1.2768e-05
10 *574:A1 *187:14 5.19552e-07
11 *574:A1 *187:20 2.80839e-06
12 *175:14 *181:25 1.07377e-06
13 *175:14 *196:8 2.68933e-07
14 *175:14 *196:12 6.78445e-06
15 *175:14 *460:25 1.64764e-06
16 *175:16 *181:10 3.1517e-05
17 *175:16 *181:25 8.51183e-06
18 *175:16 *184:10 1.67815e-06
19 *175:16 *352:8 4.48222e-07
20 *175:16 *352:17 7.76918e-06
21 *175:29 *187:20 6.75467e-06
22 *175:29 *190:20 3.32579e-06
23 *175:29 *195:10 8.46363e-06
24 *175:29 *196:8 5.52807e-07
25 *481:D *549:B 3.65131e-06
26 *565:B *574:A1 2.96818e-06
27 *116:46 *549:B 3.56648e-06
28 *174:20 *175:29 1.62854e-06
*RES
1 *548:Y *175:6 34.4 
2 *175:6 *175:14 46.3079 
3 *175:14 *175:16 34.3531 
4 *175:16 *549:B 37.0741 
5 *175:6 *175:29 34.6581 
6 *175:29 *574:A1 39.1278 
*END

*D_NET *176 0.000120685
*CONN
*I *552:A2 I *D OA21x2_ASAP7_75t_R
*I *577:A2 I *D OA211x2_ASAP7_75t_R
*I *550:Y O *D OR2x2_ASAP7_75t_R
*CAP
1 *552:A2 6.11649e-06
2 *577:A2 0
3 *550:Y 2.79555e-05
4 *176:12 1.11258e-05
5 *176:6 4.51978e-05
6 *552:A2 *402:44 6.7842e-07
7 *176:6 *402:44 2.96111e-05
8 *176:12 *552:B 0
9 *123:18 *176:12 0
*RES
1 *550:Y *176:6 38.593 
2 *176:6 *176:12 42.2843 
3 *176:12 *577:A2 17.2 
4 *176:6 *552:A2 20.9438 
*END

*D_NET *177 9.18297e-05
*CONN
*I *552:B I *D OA21x2_ASAP7_75t_R
*I *577:C I *D OA211x2_ASAP7_75t_R
*I *551:Y O *D OA21x2_ASAP7_75t_R
*CAP
1 *552:B 1.2176e-05
2 *577:C 2.34856e-06
3 *551:Y 2.02972e-05
4 *177:10 3.48217e-05
5 *577:C *577:B 5.62196e-06
6 *486:A1 *177:10 1.60115e-05
7 *41:62 *177:10 5.52807e-07
8 *123:18 *552:B 0
9 *123:18 *177:10 0
10 *176:12 *552:B 0
*RES
1 *551:Y *177:10 45.9714 
2 *177:10 *577:C 36.0045 
3 *177:10 *552:B 43.4107 
*END

*D_NET *178 5.67001e-05
*CONN
*I *553:B I *D XOR2x2_ASAP7_75t_R
*I *552:Y O *D OA21x2_ASAP7_75t_R
*CAP
1 *553:B 0
2 *552:Y 2.65244e-05
3 *178:6 2.65244e-05
4 *178:6 *425:23 3.65131e-06
*RES
1 *552:Y *178:6 33.7796 
2 *178:6 *553:B 17.2 
*END

*D_NET *179 0.000110641
*CONN
*I *558:A2 I *D OA211x2_ASAP7_75t_R
*I *555:B I *D OR2x2_ASAP7_75t_R
*I *554:Y O *D OR4x1_ASAP7_75t_R
*CAP
1 *558:A2 0
2 *555:B 0
3 *554:Y 1.75121e-05
4 *179:23 2.73589e-05
5 *179:10 4.4871e-05
6 *179:10 *554:D 3.81627e-06
7 *115:67 *179:23 1.94229e-07
8 *157:56 *179:23 8.45637e-06
9 *160:44 *179:23 7.30263e-06
10 *171:10 *179:10 0
11 *171:10 *179:23 0
12 *174:12 *179:23 1.12894e-06
*RES
1 *554:Y *179:10 44.9585 
2 *179:10 *555:B 34.4 
3 *179:10 *179:23 36.6274 
4 *179:23 *558:A2 17.2 
*END

*D_NET *180 5.84573e-05
*CONN
*I *559:A2 I *D OAI21x1_ASAP7_75t_R
*I *555:Y O *D OR2x2_ASAP7_75t_R
*CAP
1 *559:A2 0
2 *555:Y 2.48595e-05
3 *180:10 2.48595e-05
4 *180:10 *559:B 3.73518e-07
5 *180:10 *182:10 8.36476e-06
*RES
1 *555:Y *180:10 45.2382 
2 *180:10 *559:A2 34.4 
*END

*D_NET *181 0.000354812
*CONN
*I *567:A I *D NAND2x1_ASAP7_75t_R
*I *558:C I *D OA211x2_ASAP7_75t_R
*I *556:Y O *D OA21x2_ASAP7_75t_R
*CAP
1 *567:A 0
2 *558:C 1.69142e-05
3 *556:Y 4.28364e-06
4 *181:25 3.4995e-05
5 *181:10 0.000112371
6 *181:8 6.47454e-05
7 *558:C *558:B 4.32502e-06
8 *558:C *183:8 5.25794e-06
9 *181:10 *549:A 0
10 *181:10 *559:B 9.59658e-06
11 *181:10 *182:10 0
12 *181:10 *352:8 0
13 *181:10 *421:49 6.01759e-05
14 *181:10 *421:76 0
15 *181:10 *424:25 0
16 *181:10 *424:34 0
17 *181:10 *424:56 0
18 *181:10 *452:10 0
19 *181:25 *182:10 0
20 *181:25 *196:12 0
21 *181:25 *460:8 0
22 *556:B *181:8 1.04475e-06
23 *175:14 *181:25 1.07377e-06
24 *175:16 *181:10 3.1517e-05
25 *175:16 *181:25 8.51183e-06
*RES
1 *556:Y *181:8 36.0045 
2 *181:8 *181:10 56.3166 
3 *181:10 *558:C 46.1661 
4 *181:10 *181:25 35.7241 
5 *181:25 *567:A 17.2 
*END

*D_NET *182 0.000194453
*CONN
*I *558:B I *D OA211x2_ASAP7_75t_R
*I *557:Y O *D OR3x1_ASAP7_75t_R
*CAP
1 *558:B 7.75312e-06
2 *557:Y 3.83659e-06
3 *182:10 4.02897e-05
4 *182:8 3.63731e-05
5 *182:8 *557:B 2.20493e-06
6 *182:10 *559:B 0
7 *182:10 *421:76 2.28488e-05
8 *182:10 *423:92 1.96158e-05
9 *182:10 *460:8 2.35094e-05
10 *558:C *558:B 4.32502e-06
11 *157:69 *182:10 2.3524e-05
12 *171:10 *182:10 0
13 *172:21 *182:10 1.80783e-06
14 *180:10 *182:10 8.36476e-06
15 *181:10 *182:10 0
16 *181:25 *182:10 0
*RES
1 *557:Y *182:8 36.0045 
2 *182:8 *182:10 33.2268 
3 *182:10 *558:B 39.2134 
*END

*D_NET *183 6.20021e-05
*CONN
*I *559:B I *D OAI21x1_ASAP7_75t_R
*I *558:Y O *D OA211x2_ASAP7_75t_R
*CAP
1 *559:B 1.65282e-05
2 *558:Y 6.85881e-06
3 *183:8 2.33871e-05
4 *558:C *183:8 5.25794e-06
5 *180:10 *559:B 3.73518e-07
6 *181:10 *559:B 9.59658e-06
7 *182:10 *559:B 0
*RES
1 *558:Y *183:8 38.1438 
2 *183:8 *559:B 48.4791 
*END

*D_NET *184 0.000470739
*CONN
*I *584:A1 I *D AO21x1_ASAP7_75t_R
*I *560:B I *D XNOR2x2_ASAP7_75t_R
*I *559:Y O *D OAI21x1_ASAP7_75t_R
*CAP
1 *584:A1 1.80809e-05
2 *560:B 0
3 *559:Y 2.02932e-05
4 *184:26 1.81918e-05
5 *184:22 7.57638e-05
6 *184:20 4.53602e-05
7 *184:14 9.27516e-05
8 *184:12 8.68826e-05
9 *184:10 2.02932e-05
10 *184:10 *352:8 8.33296e-06
11 *184:14 *475:A 3.65663e-06
12 *184:14 *412:31 3.68565e-06
13 *184:14 *452:8 3.48165e-06
14 *184:20 *400:27 2.22736e-06
15 *184:20 *415:40 7.09459e-06
16 *184:26 *412:27 0
17 *35:10 *184:26 6.29648e-05
18 *175:16 *184:10 1.67815e-06
*RES
1 *559:Y *184:10 45.2382 
2 *184:10 *184:12 17.2 
3 *184:12 *184:14 54.0173 
4 *184:14 *184:20 40.0317 
5 *184:20 *184:22 15.5099 
6 *184:22 *184:26 38.0371 
7 *184:26 *560:B 34.4 
8 *184:22 *584:A1 24.1527 
*END

*D_NET *185 0.000194332
*CONN
*I *562:B I *D XNOR2x2_ASAP7_75t_R
*I *625:C I *D NOR3x1_ASAP7_75t_R
*I *623:B I *D AND2x2_ASAP7_75t_R
*I *561:Y O *D AO21x2_ASAP7_75t_R
*CAP
1 *562:B 2.4404e-05
2 *625:C 2.17957e-06
3 *623:B 2.26998e-05
4 *561:Y 0
5 *185:10 3.74714e-05
6 *185:4 3.6996e-05
7 *562:B *413:27 2.55346e-06
8 *562:B *415:14 2.32593e-05
9 *562:B *415:18 6.02341e-06
10 *625:C *625:B 6.19506e-06
11 *561:B *185:10 4.18905e-06
12 *38:10 *623:B 9.54252e-06
13 *38:10 *185:10 7.50245e-06
14 *131:14 *185:10 1.45784e-06
15 *131:18 *623:B 9.22542e-06
16 *131:18 *185:10 6.33206e-07
*RES
1 *561:Y *185:4 17.2 
2 *185:4 *185:10 27.7018 
3 *185:10 *623:B 48.1674 
4 *185:10 *625:C 36.0045 
5 *185:4 *562:B 32.7099 
*END

*D_NET *186 0.000226905
*CONN
*I *580:A2 I *D AO21x1_ASAP7_75t_R
*I *564:A I *D NAND2x1_ASAP7_75t_R
*I *563:Y O *D AO21x1_ASAP7_75t_R
*CAP
1 *580:A2 0
2 *564:A 1.92056e-05
3 *563:Y 8.83116e-07
4 *186:25 2.82355e-05
5 *186:12 6.8646e-05
6 *186:8 2.20881e-05
7 *564:A *564:B 5.25794e-06
8 *564:A *187:6 3.03306e-06
9 *186:8 *400:31 3.67067e-06
10 *186:8 *413:35 3.90258e-06
11 *186:12 *563:B 5.09995e-06
12 *186:12 *564:B 0
13 *186:12 *566:A1 2.28488e-05
14 *186:12 *189:21 1.62854e-06
15 *186:12 *413:29 1.89962e-06
16 *186:12 *427:8 0
17 *186:12 *427:14 0
18 *186:25 *564:B 1.0123e-05
19 *186:25 *428:71 1.30736e-05
20 *937:A *186:25 5.19552e-07
21 *35:20 *186:25 1.67893e-05
*RES
1 *563:Y *186:8 35.4697 
2 *186:8 *186:12 35.7845 
3 *186:12 *564:A 27.3617 
4 *186:12 *186:25 37.4987 
5 *186:25 *580:A2 34.4 
*END

*D_NET *187 0.000399916
*CONN
*I *570:A2 I *D OAI22x1_ASAP7_75t_R
*I *565:C I *D AND3x1_ASAP7_75t_R
*I *568:A I *D AND2x2_ASAP7_75t_R
*I *564:Y O *D NAND2x1_ASAP7_75t_R
*CAP
1 *570:A2 1.27924e-05
2 *565:C 0
3 *568:A 2.38477e-06
4 *564:Y 0
5 *187:20 3.35439e-05
6 *187:14 4.73787e-05
7 *187:10 4.26738e-05
8 *187:6 6.53575e-05
9 *187:4 5.16958e-05
10 *568:A *568:B 5.85387e-06
11 *570:A2 *428:62 5.00394e-06
12 *187:6 *564:B 2.28976e-06
13 *187:10 *190:10 0
14 *187:10 *190:40 0
15 *187:14 *574:A2 3.1923e-06
16 *187:14 *574:C 3.09505e-05
17 *187:14 *428:8 1.2768e-05
18 *187:14 *428:14 3.13899e-05
19 *187:20 *565:A 1.2768e-05
20 *187:20 *190:20 2.31101e-05
21 *564:A *187:6 3.03306e-06
22 *565:B *187:14 6.7842e-07
23 *565:B *187:20 2.96818e-06
24 *574:A1 *187:14 5.19552e-07
25 *574:A1 *187:20 2.80839e-06
26 *175:29 *187:20 6.75467e-06
*RES
1 *564:Y *187:4 17.2 
2 *187:4 *187:6 33.694 
3 *187:6 *187:10 26.2107 
4 *187:10 *187:14 33.7796 
5 *187:14 *187:20 40.6509 
6 *187:20 *568:A 36.0045 
7 *187:14 *565:C 17.2 
8 *187:10 *570:A2 44.537 
*END

*D_NET *188 3.14591e-05
*CONN
*I *574:A2 I *D AO211x2_ASAP7_75t_R
*I *565:Y O *D AND3x1_ASAP7_75t_R
*CAP
1 *574:A2 7.41021e-06
2 *565:Y 7.41021e-06
3 *574:A2 *574:C 6.7842e-07
4 *574:A1 *574:A2 1.2768e-05
5 *187:14 *574:A2 3.1923e-06
*RES
1 *565:Y *574:A2 40.2831 
*END

*D_NET *189 0.00029265
*CONN
*I *582:A2 I *D OA21x2_ASAP7_75t_R
*I *567:B I *D NAND2x1_ASAP7_75t_R
*I *566:Y O *D OA21x2_ASAP7_75t_R
*CAP
1 *582:A2 0
2 *567:B 0
3 *566:Y 0
4 *189:29 9.22508e-06
5 *189:21 3.14938e-05
6 *189:6 7.70921e-05
7 *189:4 9.93608e-05
8 *189:6 *566:A1 1.40724e-05
9 *189:6 *566:B 1.42921e-05
10 *189:6 *190:10 5.62196e-06
11 *189:6 *400:46 1.35684e-06
12 *189:21 *427:14 1.26641e-06
13 *189:21 *427:27 1.3879e-05
14 *189:29 *201:12 0
15 *189:29 *428:75 7.55688e-06
16 *137:8 *189:29 1.5804e-05
17 *186:12 *189:21 1.62854e-06
*RES
1 *566:Y *189:4 17.2 
2 *189:4 *189:6 48.6691 
3 *189:6 *567:B 17.2 
4 *189:4 *189:21 45.9406 
5 *189:21 *189:29 42.2825 
6 *189:29 *582:A2 17.2 
*END

*D_NET *190 0.000352689
*CONN
*I *570:B1 I *D OAI22x1_ASAP7_75t_R
*I *572:B I *D NOR2x1_ASAP7_75t_R
*I *568:B I *D AND2x2_ASAP7_75t_R
*I *567:Y O *D NAND2x1_ASAP7_75t_R
*CAP
1 *570:B1 0
2 *572:B 0
3 *568:B 7.91138e-06
4 *567:Y 1.35322e-05
5 *190:40 1.84321e-05
6 *190:20 2.88872e-05
7 *190:14 3.95434e-05
8 *190:10 5.05319e-05
9 *190:10 *196:18 2.01457e-05
10 *190:10 *319:8 0
11 *190:14 *192:8 3.73144e-06
12 *190:14 *195:10 1.2768e-05
13 *190:14 *428:27 3.63527e-05
14 *190:20 *571:A1 0
15 *190:20 *572:A 1.23408e-05
16 *190:20 *195:10 2.53588e-05
17 *190:20 *428:27 1.95129e-06
18 *190:20 *428:38 0
19 *190:40 *570:B2 2.77657e-06
20 *190:40 *574:B 1.67893e-05
21 *190:40 *194:8 2.20493e-06
22 *190:40 *196:18 2.12359e-05
23 *190:40 *428:62 2.83874e-07
24 *568:A *568:B 5.85387e-06
25 *175:29 *190:20 3.32579e-06
26 *187:10 *190:10 0
27 *187:10 *190:40 0
28 *187:20 *190:20 2.31101e-05
29 *189:6 *190:10 5.62196e-06
*RES
1 *567:Y *190:10 46.1415 
2 *190:10 *190:14 32.7099 
3 *190:14 *190:20 38.2319 
4 *190:20 *568:B 38.1438 
5 *190:14 *572:B 17.2 
6 *190:10 *190:40 34.01 
7 *190:40 *570:B1 17.2 
*END

*D_NET *191 2.97772e-05
*CONN
*I *571:A2 I *D AO21x1_ASAP7_75t_R
*I *568:Y O *D AND2x2_ASAP7_75t_R
*CAP
1 *571:A2 1.09434e-05
2 *568:Y 3.94516e-06
3 *191:8 1.48886e-05
4 *191:8 *352:17 0
*RES
1 *568:Y *191:8 37.2158 
2 *191:8 *571:A2 40.2831 
*END

*D_NET *192 7.23448e-05
*CONN
*I *570:B2 I *D OAI22x1_ASAP7_75t_R
*I *569:Y O *D OR2x4_ASAP7_75t_R
*CAP
1 *570:B2 1.33868e-05
2 *569:Y 5.62435e-06
3 *192:8 1.90112e-05
4 *570:B2 *196:18 6.34044e-06
5 *570:B2 *319:8 1.15354e-05
6 *570:B2 *428:14 9.93857e-06
7 *190:14 *192:8 3.73144e-06
8 *190:40 *570:B2 2.77657e-06
*RES
1 *569:Y *192:8 37.0741 
2 *192:8 *570:B2 47.3528 
*END

*D_NET *193 0.000113989
*CONN
*I *571:B I *D AO21x1_ASAP7_75t_R
*I *570:Y O *D OAI22x1_ASAP7_75t_R
*CAP
1 *571:B 0
2 *570:Y 4.02116e-05
3 *193:14 6.22432e-06
4 *193:6 4.64359e-05
5 *193:6 *194:8 1.27255e-05
6 *193:14 *319:8 1.62854e-06
7 *193:14 *352:17 6.76305e-06
*RES
1 *570:Y *193:6 35.9189 
2 *193:6 *193:14 40.5381 
3 *193:14 *571:B 17.2 
*END

*D_NET *194 7.84716e-05
*CONN
*I *574:B I *D AO211x2_ASAP7_75t_R
*I *571:Y O *D AO21x1_ASAP7_75t_R
*CAP
1 *574:B 1.00676e-05
2 *571:Y 1.07752e-05
3 *194:8 2.08428e-05
4 *574:B *574:C 2.28976e-06
5 *574:B *319:8 0
6 *574:B *428:62 2.77657e-06
7 *190:40 *574:B 1.67893e-05
8 *190:40 *194:8 2.20493e-06
9 *193:6 *194:8 1.27255e-05
*RES
1 *571:Y *194:8 43.492 
2 *194:8 *574:B 43.8888 
*END

*D_NET *195 9.05888e-05
*CONN
*I *573:C I *D OA211x2_ASAP7_75t_R
*I *572:Y O *D NOR2x1_ASAP7_75t_R
*CAP
1 *573:C 3.22814e-06
2 *572:Y 1.8771e-05
3 *195:10 2.19992e-05
4 *195:10 *428:38 0
5 *175:29 *195:10 8.46363e-06
6 *190:14 *195:10 1.2768e-05
7 *190:20 *195:10 2.53588e-05
*RES
1 *572:Y *195:10 49.5168 
2 *195:10 *573:C 36.0045 
*END

*D_NET *196 0.000251223
*CONN
*I *574:C I *D AO211x2_ASAP7_75t_R
*I *573:Y O *D OA211x2_ASAP7_75t_R
*CAP
1 *574:C 1.30557e-05
2 *573:Y 5.81269e-06
3 *196:18 2.62925e-05
4 *196:12 5.84797e-05
5 *196:8 5.10557e-05
6 *574:C *428:8 4.4994e-06
7 *196:8 *352:17 0
8 *196:18 *569:A 1.09842e-06
9 *196:18 *319:8 5.52807e-07
10 *196:18 *428:14 1.12894e-06
11 *570:B2 *196:18 6.34044e-06
12 *574:A2 *574:C 6.7842e-07
13 *574:B *574:C 2.28976e-06
14 *175:14 *196:8 2.68933e-07
15 *175:14 *196:12 6.78445e-06
16 *175:29 *196:8 5.52807e-07
17 *181:25 *196:12 0
18 *187:14 *574:C 3.09505e-05
19 *190:10 *196:18 2.01457e-05
20 *190:40 *196:18 2.12359e-05
*RES
1 *573:Y *196:8 37.779 
2 *196:8 *196:12 36.9885 
3 *196:12 *196:18 48.4791 
4 *196:18 *574:C 29.501 
*END

*D_NET *197 0.000422031
*CONN
*I *578:B1 I *D AO221x1_ASAP7_75t_R
*I *577:B I *D OA211x2_ASAP7_75t_R
*I *575:Y O *D OA211x2_ASAP7_75t_R
*CAP
1 *578:B1 1.20747e-05
2 *577:B 3.56775e-05
3 *575:Y 1.9757e-05
4 *197:20 4.14746e-05
5 *197:16 3.67975e-05
6 *197:10 6.28322e-05
7 *577:B *199:8 1.71354e-05
8 *577:B *400:12 6.2119e-05
9 *578:B1 *199:22 1.67815e-06
10 *578:B1 *413:29 0
11 *578:B1 *426:29 3.85552e-05
12 *197:10 *919:A 0
13 *197:10 *411:19 0
14 *197:10 *426:29 1.82715e-05
15 *197:20 *415:40 1.66587e-05
16 *575:B *197:16 4.48031e-05
17 *577:C *577:B 5.62196e-06
18 *41:34 *197:16 2.71368e-06
19 *128:14 *197:10 5.86096e-06
*RES
1 *575:Y *197:10 46.4779 
2 *197:10 *197:16 49.9099 
3 *197:16 *197:20 22.8317 
4 *197:20 *577:B 49.2895 
5 *197:10 *578:B1 47.3528 
*END

*D_NET *198 3.05909e-05
*CONN
*I *578:B2 I *D AO221x1_ASAP7_75t_R
*I *576:Y O *D OR2x2_ASAP7_75t_R
*CAP
1 *578:B2 6.21035e-06
2 *576:Y 6.21035e-06
3 *578:B2 *199:22 1.81703e-05
*RES
1 *576:Y *578:B2 39.7482 
*END

*D_NET *199 0.000290733
*CONN
*I *578:C I *D AO221x1_ASAP7_75t_R
*I *577:Y O *D OA211x2_ASAP7_75t_R
*CAP
1 *578:C 0
2 *577:Y 2.30851e-05
3 *199:22 1.80638e-05
4 *199:14 7.67496e-05
5 *199:8 8.17709e-05
6 *199:14 *400:12 2.91825e-05
7 *199:14 *412:14 5.17782e-06
8 *199:14 *425:23 1.77416e-05
9 *199:22 *412:16 1.12894e-06
10 *199:22 *412:27 5.79724e-07
11 *199:22 *426:29 2.68933e-07
12 *577:B *199:8 1.71354e-05
13 *578:B1 *199:22 1.67815e-06
14 *578:B2 *199:22 1.81703e-05
15 *120:8 *199:14 0
*RES
1 *577:Y *199:8 46.701 
2 *199:8 *199:14 49.6012 
3 *199:14 *199:22 46.9844 
4 *199:22 *578:C 17.2 
*END

*D_NET *200 0.000165156
*CONN
*I *579:B I *D XOR2x2_ASAP7_75t_R
*I *578:Y O *D AO221x1_ASAP7_75t_R
*CAP
1 *579:B 0
2 *578:Y 1.94738e-05
3 *200:12 2.25348e-05
4 *200:8 4.20086e-05
5 *200:8 *431:40 2.66797e-07
6 *200:12 *204:8 8.33296e-06
7 *200:12 *429:8 1.06832e-05
8 *200:12 *431:25 2.25787e-06
9 *30:34 *200:12 3.79018e-05
10 *128:8 *200:12 8.97047e-06
11 *137:25 *200:8 1.27255e-05
*RES
1 *578:Y *200:8 44.5617 
2 *200:8 *200:12 41.9793 
3 *200:12 *579:B 17.2 
*END

*D_NET *201 9.61184e-05
*CONN
*I *581:A2 I *D AOI21x1_ASAP7_75t_R
*I *580:Y O *D AO21x1_ASAP7_75t_R
*CAP
1 *581:A2 0
2 *580:Y 1.69497e-05
3 *201:12 2.78674e-05
4 *201:8 4.48171e-05
5 *201:12 *428:75 0
6 *128:8 *201:12 0
7 *137:10 *201:12 6.48427e-06
8 *189:29 *201:12 0
*RES
1 *580:Y *201:8 42.4224 
2 *201:8 *201:12 39.7266 
3 *201:12 *581:A2 17.2 
*END

*D_NET *202 3.796e-05
*CONN
*I *584:A2 I *D AO21x1_ASAP7_75t_R
*I *581:Y O *D AOI21x1_ASAP7_75t_R
*CAP
1 *584:A2 0
2 *581:Y 1.46511e-05
3 *202:10 1.46511e-05
4 *202:10 *581:A1 8.65792e-06
5 *128:8 *202:10 0
6 *137:10 *202:10 0
*RES
1 *581:Y *202:10 42.6491 
2 *202:10 *584:A2 34.4 
*END

*D_NET *203 0.000104785
*CONN
*I *583:A2 I *D OAI21x1_ASAP7_75t_R
*I *582:Y O *D OA21x2_ASAP7_75t_R
*CAP
1 *583:A2 1.71607e-05
2 *582:Y 2.85628e-05
3 *203:8 4.57235e-05
4 *583:A2 *429:21 2.20128e-06
5 *583:A2 *431:12 3.79494e-06
6 *583:A2 *444:18 0
7 *203:8 *582:B 7.34229e-06
*RES
1 *582:Y *203:8 47.7706 
2 *203:8 *583:A2 48.4791 
*END

*D_NET *204 8.63901e-05
*CONN
*I *584:B I *D AO21x1_ASAP7_75t_R
*I *583:Y O *D OAI21x1_ASAP7_75t_R
*CAP
1 *584:B 1.31528e-05
2 *583:Y 9.35859e-06
3 *204:8 2.25114e-05
4 *204:8 *429:21 2.22736e-06
5 *204:8 *431:12 1.51837e-05
6 *128:8 *204:8 1.56232e-05
7 *200:12 *204:8 8.33296e-06
*RES
1 *583:Y *204:8 46.7897 
2 *204:8 *584:B 41.8876 
*END

*D_NET *205 8.4093e-05
*CONN
*I *585:A I *D XNOR2x2_ASAP7_75t_R
*I *584:Y O *D AO21x1_ASAP7_75t_R
*CAP
1 *585:A 0
2 *584:Y 4.53801e-06
3 *205:12 3.3084e-05
4 *205:8 3.7622e-05
5 *939:A *205:12 3.16328e-06
6 *128:8 *205:8 5.68573e-06
7 *137:10 *205:8 0
*RES
1 *584:Y *205:8 38.9053 
2 *205:8 *205:12 34.8492 
3 *205:12 *585:A 17.2 
*END

*D_NET *206 7.07092e-05
*CONN
*I *611:A1 I *D OA21x2_ASAP7_75t_R
*I *690:B2 I *D OA222x2_ASAP7_75t_R
*I *601:Y O *D INVx1_ASAP7_75t_R
*CAP
1 *611:A1 5.68352e-06
2 *690:B2 9.74552e-06
3 *601:Y 0
4 *206:6 1.5429e-05
5 *690:B2 *302:12 5.51397e-07
6 *690:B2 *302:20 3.68287e-06
7 *690:B2 *436:63 4.2449e-06
8 *690:B2 *447:242 1.25483e-05
9 *727:B *690:B2 2.01951e-06
10 *70:8 *611:A1 5.85806e-06
11 *70:8 *690:B2 6.33206e-07
12 *144:89 *690:B2 2.0895e-06
13 *144:97 *611:A1 6.49127e-06
14 *144:97 *690:B2 1.73211e-06
*RES
1 *601:Y *206:6 34.4 
2 *206:6 *690:B2 43.0422 
3 *206:6 *611:A1 40.0317 
*END

*D_NET *207 0.000198968
*CONN
*I *685:B I *D AO21x2_ASAP7_75t_R
*I *603:B I *D AOI21x1_ASAP7_75t_R
*I *605:A I *D INVx1_ASAP7_75t_R
*I *629:B I *D OR2x4_ASAP7_75t_R
*I *602:Y O *D NAND2x1_ASAP7_75t_R
*CAP
1 *685:B 1.74232e-06
2 *603:B 0
3 *605:A 0
4 *629:B 0
5 *602:Y 3.80704e-06
6 *207:45 2.21447e-05
7 *207:29 1.70167e-05
8 *207:21 2.17653e-05
9 *207:10 6.23314e-06
10 *207:6 2.56939e-05
11 *685:B *274:6 5.19475e-06
12 *207:6 *230:41 9.08513e-06
13 *207:10 *208:8 1.89962e-06
14 *207:10 *211:126 4.83862e-06
15 *207:21 *208:8 3.32524e-06
16 *207:21 *211:126 2.36328e-05
17 *207:45 *230:10 1.06925e-05
18 *207:45 *230:14 8.06436e-06
19 *207:45 *230:41 1.53906e-05
20 *207:45 *274:193 5.79724e-07
21 *139:63 *207:45 8.33112e-06
22 *145:57 *207:21 3.84449e-06
23 *145:57 *207:29 5.68573e-06
*RES
1 *602:Y *207:6 19.8741 
2 *207:6 *207:10 18.8895 
3 *207:10 *629:B 34.4 
4 *207:10 *207:21 25.0843 
5 *207:21 *207:29 44.7884 
6 *207:29 *605:A 17.2 
7 *207:21 *603:B 17.2 
8 *207:6 *207:45 33.2201 
9 *207:45 *685:B 36.0045 
*END

*D_NET *208 0.0038505
*CONN
*I *610:A2 I *D AO221x1_ASAP7_75t_R
*I *907:A I *D BUFx3_ASAP7_75t_R
*I *622:B I *D AND2x2_ASAP7_75t_R
*I *660:A2 I *D AO221x1_ASAP7_75t_R
*I *672:A2 I *D AO221x1_ASAP7_75t_R
*I *669:A2 I *D AO221x1_ASAP7_75t_R
*I *665:A2 I *D AO221x1_ASAP7_75t_R
*I *656:A2 I *D AO221x1_ASAP7_75t_R
*I *648:A2 I *D AO221x1_ASAP7_75t_R
*I *603:Y O *D AOI21x1_ASAP7_75t_R
*CAP
1 *610:A2 0
2 *907:A 0
3 *622:B 0
4 *660:A2 0
5 *672:A2 0
6 *669:A2 4.47533e-06
7 *665:A2 0
8 *656:A2 0
9 *648:A2 0
10 *603:Y 0
11 *208:212 5.74242e-05
12 *208:210 6.51658e-05
13 *208:204 5.81841e-05
14 *208:191 4.58981e-05
15 *208:189 6.88777e-05
16 *208:185 2.71562e-05
17 *208:179 5.67734e-05
18 *208:175 9.07635e-05
19 *208:171 0.000101014
20 *208:164 4.42642e-05
21 *208:162 3.89646e-05
22 *208:156 5.12867e-05
23 *208:140 3.45511e-05
24 *208:138 3.45511e-05
25 *208:129 7.28691e-06
26 *208:125 2.00996e-05
27 *208:117 3.09576e-05
28 *208:109 5.59336e-05
29 *208:107 4.6728e-05
30 *208:98 4.46398e-06
31 *208:96 1.2074e-05
32 *208:88 4.73225e-05
33 *208:86 3.76049e-05
34 *208:82 1.36442e-05
35 *208:78 2.55605e-05
36 *208:70 9.11855e-05
37 *208:61 9.76578e-05
38 *208:57 0.000154969
39 *208:55 0.000137874
40 *208:49 8.31953e-05
41 *208:47 7.9546e-05
42 *208:40 2.3518e-05
43 *208:34 3.33311e-05
44 *208:30 0.000134582
45 *208:28 0.000128556
46 *208:22 3.31424e-05
47 *208:18 6.62379e-05
48 *208:16 9.07747e-05
49 *208:8 4.64877e-05
50 *208:6 3.67769e-05
51 *669:A2 *259:24 2.71368e-06
52 *208:8 *211:126 1.22657e-05
53 *208:8 *447:286 3.60204e-05
54 *208:18 *447:193 0
55 *208:22 *729:CLK 3.56648e-06
56 *208:28 *729:CLK 6.33206e-07
57 *208:28 *246:8 0
58 *208:30 *653:A1 2.52755e-07
59 *208:30 *653:B2 1.40419e-08
60 *208:30 *211:157 4.40082e-05
61 *208:30 *274:26 2.69005e-05
62 *208:30 *277:24 3.13426e-06
63 *208:30 *292:18 1.72249e-05
64 *208:34 *461:20 2.48609e-05
65 *208:40 *301:37 1.12894e-06
66 *208:40 *344:8 2.01603e-05
67 *208:40 *461:20 2.22259e-05
68 *208:49 *211:169 2.03608e-06
69 *208:49 *211:192 2.31006e-05
70 *208:55 *274:40 5.52807e-07
71 *208:55 *277:43 9.67723e-06
72 *208:61 *211:200 0
73 *208:61 *250:22 6.6421e-06
74 *208:61 *327:16 0
75 *208:61 *447:71 0
76 *208:70 *251:12 2.19685e-06
77 *208:70 *252:12 0
78 *208:70 *294:22 0
79 *208:70 *327:16 0
80 *208:70 *446:61 0
81 *208:70 *446:74 0
82 *208:70 *447:71 0
83 *208:70 *447:82 0
84 *208:78 *277:146 0
85 *208:78 *294:14 1.62312e-05
86 *208:78 *294:22 0
87 *208:82 *255:10 3.73144e-06
88 *208:82 *294:14 1.44167e-06
89 *208:82 *294:22 7.46759e-06
90 *208:86 *660:A1 2.20493e-06
91 *208:88 *256:14 1.69111e-06
92 *208:88 *274:117 5.43721e-07
93 *208:88 *274:119 2.93585e-05
94 *208:88 *277:146 5.49435e-05
95 *208:88 *347:37 1.18898e-06
96 *208:96 *274:117 1.57562e-05
97 *208:107 *256:14 9.92599e-06
98 *208:109 *211:89 1.92249e-05
99 *208:109 *211:95 4.1834e-07
100 *208:109 *274:141 4.53195e-05
101 *208:109 *277:105 5.67747e-07
102 *208:109 *295:31 4.97876e-07
103 *208:109 *334:156 7.21451e-07
104 *208:109 *437:14 0
105 *208:109 *437:22 2.43881e-06
106 *208:117 *211:95 1.04887e-05
107 *208:117 *274:141 8.2174e-07
108 *208:117 *274:152 1.35961e-06
109 *208:117 *349:37 0
110 *208:125 *669:C 5.22376e-07
111 *208:125 *259:24 1.80582e-05
112 *208:125 *277:113 1.89962e-06
113 *208:125 *349:45 5.62196e-06
114 *208:125 *437:47 0
115 *208:140 *262:18 7.84037e-07
116 *208:140 *277:113 0.000118817
117 *208:140 *437:58 0
118 *208:162 *694:A1 1.61287e-05
119 *208:164 *277:175 0
120 *208:171 *622:A 3.89037e-06
121 *208:171 *223:10 3.56177e-06
122 *208:171 *224:10 0
123 *208:175 *224:10 5.52807e-07
124 *208:175 *445:12 2.83874e-07
125 *208:179 *230:16 1.04051e-05
126 *208:189 *285:14 3.07169e-05
127 *208:189 *286:24 4.2646e-05
128 *208:189 *438:31 1.98154e-05
129 *208:189 *447:405 6.28016e-06
130 *208:191 *334:337 4.90056e-06
131 *208:191 *339:18 3.55144e-06
132 *208:191 *339:22 6.3013e-06
133 *208:191 *432:12 0
134 *208:204 *223:10 1.05206e-05
135 *208:204 *274:218 1.49407e-08
136 *208:204 *274:235 1.49407e-08
137 *208:204 *447:254 1.23829e-05
138 *208:210 *305:20 4.52303e-05
139 *208:212 *610:A1 1.89962e-06
140 *208:212 *211:211 0
141 *208:212 *215:14 8.51621e-07
142 *208:212 *277:208 0
143 *208:212 *300:17 7.07262e-06
144 *208:212 *302:8 8.80512e-06
145 *208:212 *334:257 0
146 *208:212 *409:10 9.97692e-05
147 *463:A *208:212 4.10928e-06
148 *711:B *208:40 1.41403e-05
149 *711:CI *208:40 0
150 *915:A *208:212 1.27445e-05
151 *952:A *208:204 1.40419e-08
152 *2:12 *208:22 2.18045e-05
153 *20:45 *208:28 5.52807e-07
154 *20:130 *208:96 2.03526e-06
155 *20:132 *208:88 7.86436e-06
156 *20:132 *208:96 1.55917e-05
157 *20:132 *208:109 7.93642e-05
158 *20:157 *208:109 1.64348e-06
159 *23:18 *208:40 8.74448e-06
160 *24:6 *208:40 7.11475e-06
161 *24:19 *208:40 6.53364e-07
162 *34:10 *208:164 2.88806e-06
163 *34:10 *208:171 1.52651e-06
164 *34:10 *208:175 0
165 *34:18 *208:175 2.1706e-05
166 *37:14 *208:204 3.56177e-06
167 *37:14 *208:212 6.00889e-06
168 *81:10 *208:70 3.95845e-06
169 *88:8 *208:212 9.94583e-06
170 *90:12 *208:210 4.56575e-05
171 *91:6 *208:156 1.89965e-05
172 *98:8 *208:70 0
173 *131:63 *208:8 0
174 *139:24 *208:185 1.63973e-05
175 *140:18 *208:175 1.01888e-05
176 *144:49 *208:70 2.97352e-05
177 *144:49 *208:78 0
178 *145:57 *208:8 1.9761e-05
179 *145:67 *208:8 5.67735e-06
180 *145:73 *208:8 1.16862e-05
181 *145:96 *208:175 1.74044e-05
182 *145:102 *208:185 6.80131e-06
183 *146:10 *208:8 9.67723e-06
184 *146:10 *208:16 8.06436e-06
185 *146:10 *208:18 0.000133434
186 *207:10 *208:8 1.89962e-06
187 *207:21 *208:8 3.32524e-06
*RES
1 *603:Y *208:6 34.4 
2 *208:6 *208:8 37.169 
3 *208:8 *208:16 39.89 
4 *208:16 *208:18 43.9269 
5 *208:18 *208:22 41.2671 
6 *208:22 *208:28 37.2158 
7 *208:28 *208:30 62.5745 
8 *208:30 *208:34 26.2107 
9 *208:34 *208:40 41.9226 
10 *208:40 *648:A2 17.2 
11 *208:34 *208:47 17.2 
12 *208:47 *208:49 36.9029 
13 *208:49 *208:55 37.779 
14 *208:55 *208:57 56.1566 
15 *208:57 *208:61 31.2792 
16 *208:61 *656:A2 34.4 
17 *208:61 *208:70 65.8904 
18 *208:70 *208:78 43.1556 
19 *208:78 *208:82 26.292 
20 *208:82 *208:86 18.8045 
21 *208:86 *208:88 45.0533 
22 *208:88 *208:96 42.7058 
23 *208:96 *208:98 17.2 
24 *208:98 *665:A2 17.2 
25 *208:98 *208:107 19.8741 
26 *208:107 *208:109 50.9665 
27 *208:109 *208:117 44.2974 
28 *208:117 *208:125 46.3645 
29 *208:125 *208:129 18.8045 
30 *208:129 *669:A2 19.3393 
31 *208:129 *208:138 17.2 
32 *208:138 *208:140 39.4216 
33 *208:140 *672:A2 34.4 
34 *208:82 *660:A2 17.2 
35 *208:16 *208:156 47.685 
36 *208:156 *208:162 40.0317 
37 *208:162 *208:164 12.8358 
38 *208:164 *622:B 17.2 
39 *208:164 *208:171 6.4179 
40 *208:171 *208:175 48.7373 
41 *208:175 *208:179 42.3368 
42 *208:179 *208:185 40.0317 
43 *208:185 *208:189 43.4064 
44 *208:189 *208:191 33.2268 
45 *208:191 *907:A 34.4 
46 *208:171 *208:204 43.6332 
47 *208:204 *208:210 47.7706 
48 *208:210 *208:212 61.9483 
49 *208:212 *610:A2 34.4 
*END

*D_NET *209 0.000145795
*CONN
*P req_msg[14] I
*I *604:A I *D BUFx2_ASAP7_75t_R
*CAP
1 req_msg[14] 3.98549e-05
2 *604:A 6.3425e-06
3 *209:9 4.61974e-05
4 *209:9 *212:5 8.78709e-06
5 *209:9 *340:24 0
6 *148:11 *209:9 3.78287e-05
7 *148:13 *604:A 6.78445e-06
*RES
1 req_msg[14] *209:9 41.5183 
2 *209:9 *604:A 39.2134 
*END

*D_NET *210 0.000151929
*CONN
*I *626:B I *D OA211x2_ASAP7_75t_R
*I *606:C I *D AND3x4_ASAP7_75t_R
*I *605:Y O *D INVx1_ASAP7_75t_R
*CAP
1 *626:B 1.45746e-05
2 *606:C 0
3 *605:Y 1.57229e-05
4 *210:19 2.89962e-05
5 *210:6 3.01445e-05
6 *626:B *227:12 2.27479e-06
7 *606:A *210:19 2.05045e-06
8 *606:B *210:6 8.82914e-06
9 *606:B *210:19 6.70433e-06
10 *131:33 *210:6 1.42799e-05
11 *131:33 *210:19 2.83523e-05
*RES
1 *605:Y *210:6 28.9662 
2 *210:6 *606:C 17.2 
3 *210:6 *210:19 47.9123 
4 *210:19 *626:B 26.8269 
*END

*D_NET *211 0.0057665
*CONN
*I *619:A I *D OR3x1_ASAP7_75t_R
*I *614:B1 I *D AO221x1_ASAP7_75t_R
*I *645:A2 I *D AO21x1_ASAP7_75t_R
*I *640:A2 I *D AO21x1_ASAP7_75t_R
*I *634:B I *D NAND2x1_ASAP7_75t_R
*I *616:B I *D NAND2x1_ASAP7_75t_R
*I *610:B1 I *D AO221x1_ASAP7_75t_R
*I *656:B1 I *D AO221x1_ASAP7_75t_R
*I *648:B1 I *D AO221x1_ASAP7_75t_R
*I *652:B2 I *D AO221x2_ASAP7_75t_R
*I *677:B2 I *D AO221x2_ASAP7_75t_R
*I *672:B1 I *D AO221x1_ASAP7_75t_R
*I *669:B1 I *D AO221x1_ASAP7_75t_R
*I *665:B1 I *D AO221x1_ASAP7_75t_R
*I *660:B1 I *D AO221x1_ASAP7_75t_R
*I *682:B2 I *D AO221x2_ASAP7_75t_R
*I *606:Y O *D AND3x4_ASAP7_75t_R
*CAP
1 *619:A 1.84451e-05
2 *614:B1 1.91839e-06
3 *645:A2 1.29689e-05
4 *640:A2 1.4258e-05
5 *634:B 0
6 *616:B 3.61616e-06
7 *610:B1 2.2016e-06
8 *656:B1 0
9 *648:B1 0
10 *652:B2 7.16552e-06
11 *677:B2 3.28163e-06
12 *672:B1 2.8383e-06
13 *669:B1 1.75942e-06
14 *665:B1 2.48042e-06
15 *660:B1 2.57461e-06
16 *682:B2 1.56347e-05
17 *606:Y 0
18 *211:289 1.1126e-05
19 *211:281 7.43991e-05
20 *211:275 8.12023e-05
21 *211:269 5.54913e-05
22 *211:267 4.22689e-05
23 *211:263 2.74279e-05
24 *211:257 2.94314e-05
25 *211:253 8.55236e-05
26 *211:251 8.12522e-05
27 *211:247 5.64617e-06
28 *211:245 8.43902e-05
29 *211:234 8.98756e-05
30 *211:230 2.62078e-05
31 *211:228 3.97355e-05
32 *211:224 0.000109525
33 *211:211 3.00504e-05
34 *211:209 2.78488e-05
35 *211:207 0.000234488
36 *211:200 1.43712e-05
37 *211:192 0.000107572
38 *211:190 9.32004e-05
39 *211:183 1.83337e-05
40 *211:175 4.906e-05
41 *211:169 7.91098e-05
42 *211:163 5.87503e-05
43 *211:157 2.81042e-05
44 *211:142 3.80478e-05
45 *211:138 0.000128839
46 *211:136 0.000115694
47 *211:134 3.42835e-05
48 *211:132 3.81123e-05
49 *211:128 0.000162634
50 *211:126 7.44212e-05
51 *211:124 7.44212e-05
52 *211:106 4.41748e-05
53 *211:95 5.70872e-05
54 *211:89 2.88993e-05
55 *211:74 7.31358e-06
56 *211:57 5.81492e-05
57 *211:55 8.31014e-05
58 *211:53 3.30664e-05
59 *211:49 0.000139857
60 *211:47 0.000117858
61 *211:45 3.80041e-05
62 *211:39 4.13227e-05
63 *211:33 0.000165077
64 *211:31 0.000177663
65 *211:16 3.15399e-05
66 *211:14 4.78147e-05
67 *211:10 0.000101748
68 *211:8 5.84821e-05
69 *211:4 4.54922e-06
70 *610:B1 *610:B2 5.62196e-06
71 *614:B1 *432:34 1.40419e-08
72 *619:A *617:A 5.74614e-06
73 *619:A *457:8 7.72307e-07
74 *640:A2 *342:6 1.19623e-05
75 *640:A2 *342:19 3.73144e-06
76 *645:A2 *343:14 3.03035e-05
77 *645:A2 *343:25 8.65792e-06
78 *652:B2 *345:27 4.41457e-06
79 *660:B1 *254:10 8.65792e-06
80 *665:B1 *665:C 5.85387e-06
81 *669:B1 *669:C 3.89037e-06
82 *672:B1 *672:C 9.08513e-06
83 *672:B1 *350:38 1.73158e-06
84 *677:B2 *677:A1 1.40602e-05
85 *677:B2 *677:B1 3.46317e-06
86 *677:B2 *318:12 2.6409e-06
87 *682:B2 *682:B1 3.89037e-06
88 *682:B2 *683:B1 2.47522e-06
89 *682:B2 *683:B2 1.82196e-05
90 *682:B2 *435:8 0
91 *682:B2 *439:25 0
92 *682:B2 *452:18 6.04788e-06
93 *211:10 *226:8 0
94 *211:10 *271:14 0
95 *211:14 *439:23 4.20803e-06
96 *211:14 *452:18 6.44983e-06
97 *211:31 *435:8 0
98 *211:31 *439:25 0
99 *211:31 *439:49 0
100 *211:31 *452:10 0
101 *211:33 *437:112 0
102 *211:45 *267:8 0
103 *211:45 *298:10 3.81627e-06
104 *211:45 *334:228 2.00151e-05
105 *211:45 *401:14 8.14129e-06
106 *211:49 *677:A1 5.85387e-06
107 *211:49 *318:12 7.23201e-05
108 *211:53 *318:12 3.1923e-06
109 *211:55 *663:B 5.20126e-06
110 *211:55 *257:8 1.57014e-06
111 *211:55 *295:39 1.75679e-05
112 *211:55 *447:130 9.40436e-06
113 *211:55 *447:134 4.90237e-05
114 *211:57 *254:10 5.79724e-07
115 *211:57 *274:117 1.17597e-06
116 *211:57 *274:119 1.52395e-05
117 *211:57 *295:39 2.85942e-05
118 *211:57 *348:37 3.08218e-06
119 *211:57 *447:100 3.27855e-05
120 *211:57 *447:115 3.05118e-08
121 *211:74 *665:C 9.75645e-06
122 *211:74 *257:14 9.75645e-06
123 *211:74 *295:39 7.71191e-06
124 *211:74 *447:115 8.15846e-06
125 *211:89 *667:B 5.79724e-07
126 *211:89 *447:142 0
127 *211:95 *667:B 8.58704e-06
128 *211:95 *705:B2 3.56648e-06
129 *211:95 *274:152 0
130 *211:95 *349:45 5.49212e-07
131 *211:95 *451:10 3.03529e-05
132 *211:106 *331:10 1.87953e-05
133 *211:106 *349:37 0
134 *211:106 *447:153 2.54163e-05
135 *211:106 *451:10 1.45158e-05
136 *211:126 *436:96 5.67735e-06
137 *211:126 *436:109 2.04699e-05
138 *211:142 *324:8 0
139 *211:142 *334:72 0
140 *211:142 *345:10 0
141 *211:157 *274:26 4.40082e-05
142 *211:163 *406:25 6.33206e-07
143 *211:169 *516:A 1.64907e-06
144 *211:169 *446:10 0
145 *211:175 *711:A 3.22727e-06
146 *211:175 *446:10 0
147 *211:175 *446:16 0
148 *211:183 *648:B2 3.89037e-06
149 *211:183 *245:10 2.83874e-07
150 *211:183 *301:29 5.37925e-06
151 *211:183 *301:37 0
152 *211:183 *446:16 0
153 *211:192 *250:14 8.26661e-05
154 *211:192 *274:36 1.87514e-05
155 *211:192 *327:16 9.07421e-06
156 *211:192 *346:23 7.94226e-05
157 *211:192 *447:67 2.51321e-05
158 *211:200 *346:31 2.80709e-06
159 *211:207 *436:12 1.51653e-06
160 *211:207 *436:18 1.27782e-06
161 *211:211 *610:A1 0
162 *211:211 *610:B2 2.20128e-06
163 *211:211 *274:218 9.14777e-05
164 *211:211 *277:208 8.17908e-05
165 *211:211 *300:17 0
166 *211:211 *300:36 0
167 *211:211 *447:227 0
168 *211:228 *219:8 1.99652e-05
169 *211:228 *305:18 1.15587e-05
170 *211:230 *616:A 3.48165e-06
171 *211:234 *620:A1 4.49667e-06
172 *211:245 *620:A1 1.01729e-05
173 *211:245 *216:10 2.31409e-07
174 *211:245 *218:12 7.88944e-06
175 *211:245 *274:268 1.26211e-05
176 *211:245 *274:291 1.5464e-05
177 *211:245 *285:12 5.49212e-06
178 *211:245 *334:337 0
179 *211:245 *397:8 5.13209e-07
180 *211:245 *398:10 0
181 *211:253 *217:10 3.18075e-06
182 *211:253 *274:303 1.38351e-05
183 *211:253 *274:318 2.83874e-07
184 *211:253 *289:27 1.51456e-05
185 *211:253 *308:14 1.19507e-05
186 *211:253 *334:352 1.51232e-05
187 *211:253 *343:12 1.15587e-05
188 *211:253 *447:430 1.94819e-05
189 *211:253 *447:441 6.92631e-05
190 *211:253 *447:452 1.97456e-05
191 *211:257 *289:6 5.62196e-06
192 *211:257 *289:12 9.75645e-06
193 *211:257 *343:14 2.01215e-05
194 *211:263 *274:318 6.33206e-06
195 *211:263 *274:322 2.83874e-07
196 *211:263 *277:271 2.60745e-05
197 *211:267 *342:6 5.25794e-06
198 *211:269 *274:322 6.77961e-05
199 *211:269 *277:271 7.05202e-06
200 *211:269 *432:92 2.27178e-05
201 *211:281 *288:21 9.77825e-06
202 *211:281 *432:92 0
203 *211:289 *635:B2 4.17901e-06
204 *599:A *619:A 3.68287e-06
205 *599:A *211:230 2.72676e-05
206 *624:A *211:10 0
207 *970:A *211:234 4.49667e-06
208 *970:A *211:245 8.27965e-06
209 *2:8 *211:134 2.67206e-05
210 *15:16 *640:A2 2.90209e-08
211 *15:24 *211:257 1.35684e-06
212 *18:10 *211:228 0
213 *20:142 *211:55 5.83759e-05
214 *20:157 *211:55 4.42421e-06
215 *20:157 *211:89 9.78663e-06
216 *21:10 *211:134 5.52807e-07
217 *22:20 *211:138 1.68031e-05
218 *23:26 *211:183 9.93076e-07
219 *24:6 *211:175 0
220 *24:19 *211:175 0
221 *25:30 *211:253 6.18268e-06
222 *31:12 *211:275 8.41606e-06
223 *46:6 *211:45 1.54439e-05
224 *56:19 *211:39 8.33296e-06
225 *74:10 *211:228 2.33787e-05
226 *87:12 *211:33 0
227 *90:8 *211:228 5.18773e-06
228 *92:12 *211:269 5.58366e-06
229 *113:34 *211:10 6.74023e-06
230 *130:10 *211:10 0
231 *131:45 *211:126 2.13666e-05
232 *131:51 *211:126 1.69273e-05
233 *135:18 *211:126 0
234 *139:55 *211:10 2.80709e-06
235 *139:57 *211:10 3.05118e-08
236 *139:57 *211:126 8.02108e-06
237 *139:63 *211:126 7.24542e-06
238 *139:120 *211:10 6.72316e-06
239 *140:30 *211:126 1.37303e-06
240 *144:66 *211:138 0.000135895
241 *144:74 *211:134 9.94583e-06
242 *144:171 *211:45 0
243 *145:57 *211:10 1.74234e-05
244 *145:57 *211:126 8.3668e-07
245 *146:10 *211:126 8.38174e-06
246 *146:10 *211:134 1.71476e-05
247 *147:38 *211:200 5.51397e-07
248 *147:83 *211:132 5.62196e-06
249 *147:83 *211:207 2.44619e-05
250 *147:85 *211:134 0
251 *147:89 *211:134 0
252 *147:118 *211:228 0
253 *147:131 *211:245 9.00259e-06
254 *147:135 *211:245 0
255 *207:10 *211:126 4.83862e-06
256 *207:21 *211:126 2.36328e-05
257 *208:8 *211:126 1.22657e-05
258 *208:30 *211:157 4.40082e-05
259 *208:49 *211:169 2.03608e-06
260 *208:49 *211:192 2.31006e-05
261 *208:61 *211:200 0
262 *208:109 *211:89 1.92249e-05
263 *208:109 *211:95 4.1834e-07
264 *208:117 *211:95 1.04887e-05
265 *208:212 *211:211 0
*RES
1 *606:Y *211:4 17.2 
2 *211:4 *211:8 18.8045 
3 *211:8 *211:10 45.0533 
4 *211:10 *211:14 46.6154 
5 *211:14 *211:16 17.2 
6 *211:16 *682:B2 47.0977 
7 *211:16 *211:31 29.5897 
8 *211:31 *211:33 66.8531 
9 *211:33 *211:39 37.2158 
10 *211:39 *211:45 45.9425 
11 *211:45 *211:47 17.2 
12 *211:47 *211:49 82.8979 
13 *211:49 *211:53 23.0831 
14 *211:53 *211:55 32.1005 
15 *211:55 *211:57 54.6271 
16 *211:57 *660:B1 37.0741 
17 *211:55 *211:74 39.89 
18 *211:74 *665:B1 36.0045 
19 *211:49 *211:89 49.6055 
20 *211:89 *211:95 32.2638 
21 *211:95 *669:B1 35.4697 
22 *211:95 *211:106 41.6743 
23 *211:106 *672:B1 37.0741 
24 *211:47 *677:B2 22.0134 
25 *211:4 *211:124 17.2 
26 *211:124 *211:126 70.9589 
27 *211:126 *211:128 17.2 
28 *211:128 *211:132 18.8045 
29 *211:132 *211:134 34.3531 
30 *211:134 *211:136 17.2 
31 *211:136 *211:138 61.5049 
32 *211:138 *211:142 25.0843 
33 *211:142 *652:B2 39.2134 
34 *211:142 *211:157 35.1326 
35 *211:157 *211:163 40.0317 
36 *211:163 *211:169 44.0263 
37 *211:169 *211:175 37.3323 
38 *211:175 *211:183 47.7459 
39 *211:183 *648:B1 17.2 
40 *211:169 *211:190 17.2 
41 *211:190 *211:192 92.5247 
42 *211:192 *211:200 43.8888 
43 *211:200 *656:B1 17.2 
44 *211:128 *211:207 70.0621 
45 *211:207 *211:209 17.2 
46 *211:209 *211:211 38.8585 
47 *211:211 *610:B1 36.0045 
48 *211:207 *211:224 44.4761 
49 *211:224 *211:228 47.0478 
50 *211:228 *211:230 8.02238 
51 *211:230 *211:234 18.8895 
52 *211:234 *616:B 37.609 
53 *211:234 *211:245 67.0168 
54 *211:245 *211:247 17.2 
55 *211:247 *211:251 18.8045 
56 *211:251 *211:253 87.2907 
57 *211:253 *211:257 24.1527 
58 *211:257 *211:263 43.4107 
59 *211:263 *211:267 20.9438 
60 *211:267 *211:269 40.548 
61 *211:269 *211:275 45.6313 
62 *211:275 *211:281 37.8619 
63 *211:281 *211:289 41.3155 
64 *211:289 *634:B 17.2 
65 *211:263 *640:A2 28.9662 
66 *211:257 *645:A2 28.9662 
67 *211:247 *614:B1 18.2696 
68 *211:230 *619:A 29.501 
*END

*D_NET *212 0.000302212
*CONN
*P req_msg[13] I
*I *607:A I *D BUFx2_ASAP7_75t_R
*CAP
1 req_msg[13] 5.85493e-05
2 *607:A 3.27712e-05
3 *212:11 4.1213e-05
4 *212:5 6.69911e-05
5 *212:5 resp_msg[12] 1.39526e-05
6 *212:5 *275:7 3.6038e-05
7 *25:14 *607:A 6.6195e-06
8 *148:11 *212:5 3.72906e-05
9 *209:9 *212:5 8.78709e-06
*RES
1 req_msg[13] *212:5 34.0349 
2 *212:5 *212:11 39.9378 
3 *212:11 *607:A 38.0582 
*END

*D_NET *213 0.000210201
*CONN
*P req_msg[12] I
*I *608:A I *D BUFx2_ASAP7_75t_R
*CAP
1 req_msg[12] 6.64107e-05
2 *608:A 0
3 *213:11 3.86898e-05
4 *213:7 0.000105101
5 *213:7 *273:7 0
6 *213:7 *363:9 0
7 *213:7 *364:9 0
8 *213:11 *273:11 0
9 *213:11 *304:8 0
*RES
1 req_msg[12] *213:7 46.0404 
2 *213:7 *213:11 46.3908 
3 *213:11 *608:A 17.2 
*END

*D_NET *214 0.000169329
*CONN
*I *610:C I *D AO221x1_ASAP7_75t_R
*I *609:Y O *D AO21x1_ASAP7_75t_R
*CAP
1 *610:C 1.47026e-05
2 *609:Y 1.39323e-05
3 *214:16 5.10779e-05
4 *214:10 5.03077e-05
5 *610:C *610:A1 1.52651e-06
6 *610:C *215:14 5.09995e-06
7 *610:C *300:36 1.04475e-06
8 *610:C *302:8 1.54378e-05
9 *610:C *334:246 0
10 *214:16 *215:8 1.02586e-05
11 *147:107 *214:10 2.12481e-06
12 *147:116 *214:10 3.81627e-06
*RES
1 *609:Y *214:10 42.0576 
2 *214:10 *214:16 46.701 
3 *214:16 *610:C 46.4212 
*END

*D_NET *215 0.000152819
*CONN
*I *611:B I *D OA21x2_ASAP7_75t_R
*I *610:Y O *D AO221x1_ASAP7_75t_R
*CAP
1 *611:B 0
2 *610:Y 4.30167e-06
3 *215:22 8.40814e-06
4 *215:14 5.44778e-05
5 *215:8 5.03713e-05
6 *215:14 *302:8 3.31686e-06
7 *215:14 *334:257 0
8 *215:22 *274:218 3.30589e-06
9 *215:22 *447:244 6.40748e-07
10 *463:A *215:14 3.95007e-06
11 *610:C *215:14 5.09995e-06
12 *915:A *215:14 4.15033e-06
13 *72:6 *215:22 3.68565e-06
14 *147:103 *215:14 0
15 *208:212 *215:14 8.51621e-07
16 *214:16 *215:8 1.02586e-05
*RES
1 *610:Y *215:8 37.0741 
2 *215:8 *215:14 41.7487 
3 *215:14 *215:22 40.4336 
4 *215:22 *611:B 17.2 
*END

*D_NET *216 0.000368219
*CONN
*I *691:C2 I *D OA222x2_ASAP7_75t_R
*I *614:A1 I *D AO221x1_ASAP7_75t_R
*I *612:Y O *D INVx1_ASAP7_75t_R
*CAP
1 *691:C2 0
2 *614:A1 1.62831e-06
3 *612:Y 1.8652e-05
4 *216:25 3.01779e-05
5 *216:10 2.3739e-05
6 *216:8 2.21107e-05
7 *216:6 4.88299e-05
8 *614:A1 *614:B2 5.85387e-06
9 *614:A1 *218:8 5.85387e-06
10 *216:6 *691:A1 1.35684e-06
11 *216:6 *285:14 2.03608e-06
12 *216:10 *218:12 5.10542e-05
13 *216:10 *274:291 2.35211e-06
14 *216:10 *285:12 3.00916e-05
15 *216:10 *447:368 8.33296e-06
16 *216:25 *691:B1 2.20493e-06
17 *216:25 *691:B2 2.52755e-07
18 *216:25 *691:C1 1.36155e-06
19 *216:25 *277:242 3.47607e-06
20 *216:25 *277:253 3.6269e-06
21 *216:25 *303:14 0
22 *216:25 *303:22 5.51397e-07
23 *147:135 *216:10 8.39972e-05
24 *147:220 *216:10 2.04473e-05
25 *211:245 *216:10 2.31409e-07
*RES
1 *612:Y *216:6 25.2224 
2 *216:6 *216:8 17.2 
3 *216:8 *216:10 35.4795 
4 *216:10 *614:A1 36.0045 
5 *216:6 *216:25 33.4998 
6 *216:25 *691:C2 34.4 
*END

*D_NET *217 6.26393e-05
*CONN
*I *614:C I *D AO221x1_ASAP7_75t_R
*I *613:Y O *D AO21x1_ASAP7_75t_R
*CAP
1 *614:C 1.71748e-06
2 *613:Y 1.9813e-05
3 *217:10 2.15305e-05
4 *614:C *614:B2 8.53214e-06
5 *614:C *432:34 3.24655e-06
6 *147:220 *217:10 4.6189e-06
7 *211:253 *217:10 3.18075e-06
*RES
1 *613:Y *217:10 44.8451 
2 *217:10 *614:C 36.5393 
*END

*D_NET *218 0.000324515
*CONN
*I *615:B I *D OA21x2_ASAP7_75t_R
*I *614:Y O *D AO221x1_ASAP7_75t_R
*CAP
1 *615:B 8.9508e-06
2 *614:Y 2.28723e-05
3 *218:16 7.49484e-05
4 *218:12 8.28762e-05
5 *218:8 3.9751e-05
6 *615:B *432:12 0
7 *218:8 *614:B2 7.58115e-06
8 *218:8 *397:31 3.09538e-06
9 *218:16 *339:24 1.54439e-05
10 *614:A1 *218:8 5.85387e-06
11 *40:21 *615:B 5.79724e-07
12 *144:129 *615:B 3.61852e-06
13 *211:245 *218:12 7.88944e-06
14 *216:10 *218:12 5.10542e-05
*RES
1 *614:Y *218:8 44.5617 
2 *218:8 *218:12 34.6581 
3 *218:12 *218:16 45.5457 
4 *218:16 *615:B 41.158 
*END

*D_NET *219 5.5577e-05
*CONN
*I *620:B1 I *D AOI22x1_ASAP7_75t_R
*I *616:Y O *D NAND2x1_ASAP7_75t_R
*CAP
1 *620:B1 0
2 *616:Y 9.55661e-06
3 *219:8 9.55661e-06
4 *219:8 *620:A1 0
5 *219:8 *222:18 3.92018e-06
6 *219:8 *398:10 8.46363e-06
7 *90:8 *219:8 4.11476e-06
8 *211:228 *219:8 1.99652e-05
*RES
1 *616:Y *219:8 45.6633 
2 *219:8 *620:B1 34.4 
*END

*D_NET *220 7.7852e-05
*CONN
*I *619:B I *D OR3x1_ASAP7_75t_R
*I *617:Y O *D NOR2x1_ASAP7_75t_R
*CAP
1 *619:B 1.62188e-05
2 *617:Y 1.62188e-05
3 *619:B *617:A 2.42422e-05
4 *619:B *221:22 2.12481e-06
5 *619:B *321:12 1.90474e-05
*RES
1 *617:Y *619:B 49.3751 
*END

*D_NET *221 0.00018658
*CONN
*I *619:C I *D OR3x1_ASAP7_75t_R
*I *618:Y O *D AND3x1_ASAP7_75t_R
*CAP
1 *619:C 0
2 *618:Y 1.49787e-05
3 *221:22 4.59839e-06
4 *221:14 5.97291e-05
5 *221:10 7.01095e-05
6 *221:10 *692:A 3.64631e-06
7 *221:10 *279:10 4.68849e-06
8 *221:10 *286:8 2.67046e-05
9 *619:B *221:22 2.12481e-06
*RES
1 *618:Y *221:10 44.7122 
2 *221:10 *221:14 33.2164 
3 *221:14 *221:22 37.0369 
4 *221:22 *619:C 17.2 
*END

*D_NET *222 0.000120598
*CONN
*I *620:B2 I *D AOI22x1_ASAP7_75t_R
*I *619:Y O *D OR3x1_ASAP7_75t_R
*CAP
1 *620:B2 0
2 *619:Y 5.91905e-06
3 *222:18 2.07218e-06
4 *222:12 5.09642e-05
5 *222:8 5.48111e-05
6 *222:12 *305:12 0
7 *222:18 *620:A1 1.64764e-06
8 *74:10 *222:12 1.26378e-06
9 *219:8 *222:18 3.92018e-06
*RES
1 *619:Y *222:8 37.779 
2 *222:8 *222:12 39.1278 
3 *222:12 *222:18 37.2158 
4 *222:18 *620:B2 17.2 
*END

*D_NET *223 9.90085e-05
*CONN
*I *622:A I *D AND2x2_ASAP7_75t_R
*I *694:C2 I *D OA222x2_ASAP7_75t_R
*I *621:Y O *D INVx1_ASAP7_75t_R
*CAP
1 *622:A 8.00386e-07
2 *694:C2 1.13081e-05
3 *621:Y 1.54326e-05
4 *223:10 2.75412e-05
5 *694:C2 *277:181 2.24111e-07
6 *694:C2 *305:20 1.03895e-05
7 *223:10 *224:10 1.07377e-06
8 *91:6 *694:C2 1.06092e-05
9 *140:18 *694:C2 3.22635e-06
10 *140:18 *223:10 4.30517e-07
11 *208:171 *622:A 3.89037e-06
12 *208:171 *223:10 3.56177e-06
13 *208:204 *223:10 1.05206e-05
*RES
1 *621:Y *223:10 46.786 
2 *223:10 *694:C2 43.2406 
3 *223:10 *622:A 35.4697 
*END

*D_NET *224 5.88263e-05
*CONN
*I *628:B1 I *D OA33x2_ASAP7_75t_R
*I *622:Y O *D AND2x2_ASAP7_75t_R
*CAP
1 *628:B1 4.78624e-06
2 *622:Y 1.70971e-05
3 *224:10 2.18834e-05
4 *34:10 *224:10 1.34329e-05
5 *208:171 *224:10 0
6 *208:175 *224:10 5.52807e-07
7 *223:10 *224:10 1.07377e-06
*RES
1 *622:Y *224:10 43.7188 
2 *224:10 *628:B1 36.5393 
*END

*D_NET *225 7.58746e-05
*CONN
*I *626:A1 I *D OA211x2_ASAP7_75t_R
*I *623:Y O *D AND2x2_ASAP7_75t_R
*CAP
1 *626:A1 1.46907e-05
2 *623:Y 3.68929e-06
3 *225:8 1.838e-05
4 *626:A1 *227:12 3.4229e-05
5 *626:A1 *227:18 1.64764e-06
6 *225:8 *623:A 2.52755e-07
7 *131:18 *626:A1 0
8 *139:49 *626:A1 2.98532e-06
*RES
1 *623:Y *225:8 36.0045 
2 *225:8 *626:A1 48.4791 
*END

*D_NET *226 8.45686e-05
*CONN
*I *625:B I *D NOR3x1_ASAP7_75t_R
*I *624:Y O *D INVx1_ASAP7_75t_R
*CAP
1 *625:B 2.22568e-05
2 *624:Y 7.99e-06
3 *226:8 3.02468e-05
4 *625:C *625:B 6.19506e-06
5 *38:10 *226:8 0
6 *113:34 *226:8 4.90042e-07
7 *113:49 *625:B 6.07405e-06
8 *113:49 *226:8 1.02642e-06
9 *131:14 *625:B 1.02895e-05
10 *211:10 *226:8 0
*RES
1 *624:Y *226:8 40.0317 
2 *226:8 *625:B 47.7706 
*END

*D_NET *227 0.000144711
*CONN
*I *626:A2 I *D OA211x2_ASAP7_75t_R
*I *625:Y O *D NOR3x1_ASAP7_75t_R
*CAP
1 *626:A2 0
2 *625:Y 0
3 *227:18 4.47264e-06
4 *227:12 3.96718e-05
5 *227:6 3.51992e-05
6 *227:12 *623:A 9.27956e-06
7 *227:12 *334:290 5.91095e-06
8 *227:12 *411:10 0
9 *227:12 *415:20 2.34878e-06
10 *626:A1 *227:12 3.4229e-05
11 *626:A1 *227:18 1.64764e-06
12 *626:B *227:12 2.27479e-06
13 *131:18 *227:12 0
14 *139:49 *227:12 9.67723e-06
*RES
1 *625:Y *227:6 34.4 
2 *227:6 *227:12 46.7927 
3 *227:12 *227:18 37.2158 
4 *227:18 *626:A2 17.2 
*END

*D_NET *228 0.000110587
*CONN
*I *628:B2 I *D OA33x2_ASAP7_75t_R
*I *626:Y O *D OA211x2_ASAP7_75t_R
*CAP
1 *628:B2 0
2 *626:Y 6.33299e-06
3 *228:12 4.51108e-05
4 *228:8 5.14438e-05
5 *228:12 *274:199 1.10561e-06
6 *228:12 *287:25 2.05883e-06
7 *228:12 *287:35 0
8 *34:10 *228:12 2.32117e-06
9 *34:18 *228:12 0
10 *139:41 *228:8 2.2142e-06
*RES
1 *626:Y *228:8 37.0741 
2 *228:8 *228:12 48.1741 
3 *228:12 *628:B2 17.2 
*END

*D_NET *229 0.000567277
*CONN
*I *628:B3 I *D OA33x2_ASAP7_75t_R
*I *627:Y O *D AO21x1_ASAP7_75t_R
*CAP
1 *628:B3 2.6243e-06
2 *627:Y 6.34332e-06
3 *229:24 7.24943e-05
4 *229:18 7.61219e-05
5 *229:12 0.000131654
6 *229:10 0.000125402
7 *229:8 6.34332e-06
8 *229:12 *304:12 0
9 *229:12 *334:267 1.46661e-05
10 *229:12 *334:324 3.83452e-05
11 *229:12 *438:12 2.46228e-05
12 *229:12 *447:364 1.60648e-05
13 *229:12 *447:383 4.32502e-06
14 *229:18 *438:20 1.2903e-05
15 *229:18 *447:362 5.0468e-07
16 *229:18 *447:399 8.37026e-06
17 *229:24 *274:214 0
18 *229:24 *277:204 0
19 *229:24 *277:225 0
20 *229:24 *287:25 4.94003e-06
21 *229:24 *334:273 5.90945e-06
22 *229:24 *447:258 0
23 *34:10 *229:24 3.05118e-08
24 *140:22 *229:24 1.40879e-06
25 *145:90 *229:24 1.42041e-05
*RES
1 *627:Y *229:8 37.779 
2 *229:8 *229:10 17.2 
3 *229:10 *229:12 59.3656 
4 *229:12 *229:18 41.2519 
5 *229:18 *229:24 43.2531 
6 *229:24 *628:B3 35.4697 
*END

*D_NET *230 0.00140736
*CONN
*I *679:B I *D NOR2x1_ASAP7_75t_R
*I *674:B I *D NOR2x1_ASAP7_75t_R
*I *649:B I *D NOR2x1_ASAP7_75t_R
*I *633:A2 I *D OA21x2_ASAP7_75t_R
*I *629:Y O *D OR2x4_ASAP7_75t_R
*CAP
1 *679:B 0
2 *674:B 1.48461e-05
3 *649:B 0
4 *633:A2 0
5 *629:Y 6.02653e-06
6 *230:74 2.67131e-05
7 *230:68 4.83532e-05
8 *230:66 4.76858e-05
9 *230:58 1.11996e-05
10 *230:56 5.82712e-05
11 *230:49 2.34413e-05
12 *230:43 8.17125e-05
13 *230:41 4.2481e-05
14 *230:39 4.2481e-05
15 *230:32 2.72057e-05
16 *230:26 3.65474e-05
17 *230:20 2.95806e-05
18 *230:16 0.000137499
19 *230:14 0.000118776
20 *230:10 7.54281e-06
21 *674:B *274:99 2.04513e-06
22 *674:B *274:103 7.94909e-06
23 *230:20 *717:B 1.81409e-05
24 *230:20 *285:18 2.41555e-05
25 *230:20 *447:399 3.68117e-05
26 *230:32 *633:B 2.9678e-06
27 *230:32 *232:8 1.28891e-05
28 *230:32 *421:10 1.55169e-05
29 *230:32 *432:12 0
30 *230:41 *447:296 6.0212e-06
31 *230:41 *447:298 2.86737e-05
32 *230:56 *679:A 0
33 *230:56 *284:18 0
34 *230:56 *334:304 0
35 *230:68 *447:318 1.84289e-05
36 *230:74 *447:318 0
37 *40:10 *230:20 2.22736e-06
38 *40:21 *230:20 3.3563e-06
39 *41:8 *230:32 1.40012e-05
40 *42:8 *230:32 0
41 *113:12 *230:68 0.000187099
42 *113:56 *230:74 0
43 *132:8 *230:20 2.02077e-05
44 *132:8 *230:32 0
45 *135:6 *230:49 3.33273e-05
46 *139:63 *230:10 6.45149e-06
47 *139:63 *230:14 8.45637e-06
48 *139:130 *230:66 7.68501e-06
49 *139:130 *230:68 0.000123348
50 *144:12 *230:49 0
51 *144:12 *230:56 0
52 *144:111 *230:56 0
53 *144:140 *230:56 0
54 *144:140 *230:66 2.88481e-06
55 *144:144 *230:66 0
56 *145:29 *230:74 1.24503e-06
57 *145:61 *230:41 3.90258e-06
58 *145:67 *230:41 3.90258e-06
59 *145:108 *230:26 6.7842e-07
60 *145:114 *230:32 9.81412e-07
61 *207:6 *230:41 9.08513e-06
62 *207:45 *230:10 1.06925e-05
63 *207:45 *230:14 8.06436e-06
64 *207:45 *230:41 1.53906e-05
65 *208:179 *230:16 1.04051e-05
*RES
1 *629:Y *230:10 38.8203 
2 *230:10 *230:14 20.0158 
3 *230:14 *230:16 70.0621 
4 *230:16 *230:20 45.3583 
5 *230:20 *230:26 39.2134 
6 *230:26 *230:32 42.9923 
7 *230:32 *633:A2 17.2 
8 *230:10 *230:39 17.2 
9 *230:39 *230:41 34.7636 
10 *230:41 *230:43 17.2 
11 *230:43 *230:49 35.246 
12 *230:49 *649:B 17.2 
13 *230:43 *230:56 43.9269 
14 *230:56 *230:58 17.2 
15 *230:58 *230:66 43.1556 
16 *230:66 *230:68 48.6691 
17 *230:68 *230:74 43.4107 
18 *230:74 *674:B 26.292 
19 *230:58 *679:B 17.2 
*END

*D_NET *231 0.00034509
*CONN
*I *632:A2 I *D AO21x1_ASAP7_75t_R
*I *630:Y O *D INVx1_ASAP7_75t_R
*CAP
1 *632:A2 2.41543e-05
2 *630:Y 6.05603e-06
3 *231:18 3.41683e-05
4 *231:12 5.69116e-05
5 *231:8 5.29537e-05
6 *632:A2 *632:A1 7.91388e-05
7 *632:A2 *632:B 1.44996e-05
8 *632:A2 *931:A 7.88079e-06
9 *231:8 *274:349 4.8043e-06
10 *231:8 *290:29 4.67779e-07
11 *231:8 *334:362 1.63125e-05
12 *231:8 *453:8 2.64395e-05
13 *231:12 *712:A 4.6198e-06
14 *231:12 *274:301 1.27802e-05
15 *231:12 *274:349 3.90258e-06
*RES
1 *630:Y *231:8 43.4107 
2 *231:8 *231:12 38.0582 
3 *231:12 *231:18 40.0317 
4 *231:18 *632:A2 39.1278 
*END

*D_NET *232 9.31921e-05
*CONN
*I *632:B I *D AO21x1_ASAP7_75t_R
*I *631:Y O *D OA211x2_ASAP7_75t_R
*CAP
1 *632:B 5.87851e-06
2 *631:Y 1.574e-05
3 *232:8 2.16186e-05
4 *232:8 *233:8 1.61233e-05
5 *232:8 *421:10 3.25578e-06
6 *232:8 *444:18 1.64764e-06
7 *232:8 *444:24 1.53963e-06
8 *632:A2 *632:B 1.44996e-05
9 *230:32 *232:8 1.28891e-05
*RES
1 *631:Y *232:8 48.4791 
2 *232:8 *632:B 38.6786 
*END

*D_NET *233 4.55816e-05
*CONN
*I *633:B I *D OA21x2_ASAP7_75t_R
*I *632:Y O *D AO21x1_ASAP7_75t_R
*CAP
1 *633:B 5.0902e-06
2 *632:Y 4.56999e-06
3 *233:8 9.66019e-06
4 *233:8 *444:18 3.79307e-06
5 *233:8 *444:24 3.37709e-06
6 *230:32 *633:B 2.9678e-06
7 *232:8 *233:8 1.61233e-05
*RES
1 *632:Y *233:8 40.0317 
2 *233:8 *633:B 37.0741 
*END

*D_NET *234 0.0004915
*CONN
*I *635:B1 I *D AOI22x1_ASAP7_75t_R
*I *633:Y O *D OA21x2_ASAP7_75t_R
*CAP
1 *635:B1 0
2 *633:Y 0
3 *234:16 9.31331e-05
4 *234:14 0.000100166
5 *234:8 7.18617e-05
6 *234:6 6.48287e-05
7 *234:8 *421:10 2.85516e-05
8 *234:8 *430:17 0
9 *234:8 *430:34 0
10 *234:8 *430:38 3.16603e-06
11 *234:14 *430:34 2.20493e-06
12 *234:16 *288:10 3.32579e-06
13 *234:16 *306:28 0
14 *234:16 *430:38 7.69652e-05
15 *234:16 *444:10 9.59753e-06
16 *234:16 *444:18 0
17 *26:8 *234:8 8.45637e-06
18 *30:10 *234:16 8.06799e-07
19 *31:25 *234:16 2.67279e-05
20 *136:8 *234:8 1.70866e-06
*RES
1 *633:Y *234:6 34.4 
2 *234:6 *234:8 50.1218 
3 *234:8 *234:14 38.1438 
4 *234:14 *234:16 81.6591 
5 *234:16 *635:B1 34.4 
*END

*D_NET *235 1.68753e-05
*CONN
*I *635:B2 I *D AOI22x1_ASAP7_75t_R
*I *634:Y O *D NAND2x1_ASAP7_75t_R
*CAP
1 *635:B2 6.34816e-06
2 *634:Y 6.34816e-06
3 *211:289 *635:B2 4.17901e-06
*RES
1 *634:Y *635:B2 39.2134 
*END

*D_NET *236 0.00013899
*CONN
*I *697:C2 I *D OA222x2_ASAP7_75t_R
*I *639:A1 I *D AO22x1_ASAP7_75t_R
*I *636:Y O *D INVx1_ASAP7_75t_R
*CAP
1 *697:C2 2.32403e-05
2 *639:A1 8.70121e-06
3 *636:Y 4.27765e-06
4 *236:25 3.46987e-05
5 *236:12 2.44138e-05
6 *236:8 8.53188e-06
7 *639:A1 *639:A2 1.02506e-06
8 *697:C2 *277:265 5.09299e-06
9 *697:C2 *338:20 4.05812e-06
10 *236:8 *306:8 3.95845e-06
11 *236:25 *238:10 8.52021e-06
12 *236:25 *306:8 1.12894e-06
13 *236:25 *397:42 2.25787e-06
14 *93:8 *697:C2 9.08513e-06
*RES
1 *636:Y *236:8 37.779 
2 *236:8 *236:12 18.8045 
3 *236:12 *639:A1 20.9438 
4 *236:12 *236:25 44.537 
5 *236:25 *697:C2 33.7796 
*END

*D_NET *237 0.000109235
*CONN
*I *639:B1 I *D AO22x1_ASAP7_75t_R
*I *637:Y O *D NAND2x1_ASAP7_75t_R
*CAP
1 *639:B1 0
2 *637:Y 0
3 *237:12 1.77515e-05
4 *237:6 1.77515e-05
5 *237:12 *239:8 3.48165e-06
6 *237:12 *243:10 1.67193e-05
7 *237:12 *343:25 4.26184e-06
8 *14:10 *237:12 4.81408e-05
9 *147:188 *237:12 1.12894e-06
*RES
1 *637:Y *237:6 34.4 
2 *237:6 *237:12 36.2059 
3 *237:12 *639:B1 17.2 
*END

*D_NET *238 7.81083e-05
*CONN
*I *639:B2 I *D AO22x1_ASAP7_75t_R
*I *638:Y O *D AO21x1_ASAP7_75t_R
*CAP
1 *639:B2 2.17092e-06
2 *638:Y 1.94102e-05
3 *238:10 2.15811e-05
4 *238:10 *638:A2 6.28016e-06
5 *238:10 *306:8 2.01457e-05
6 *236:25 *238:10 8.52021e-06
*RES
1 *638:Y *238:10 47.0411 
2 *238:10 *639:B2 35.4697 
*END

*D_NET *239 0.000185516
*CONN
*I *640:B I *D AO21x1_ASAP7_75t_R
*I *639:Y O *D AO22x1_ASAP7_75t_R
*CAP
1 *640:B 0
2 *639:Y 7.19938e-06
3 *239:14 2.79219e-05
4 *239:8 3.51213e-05
5 *239:8 *343:29 2.20493e-06
6 *239:14 *306:8 2.6904e-05
7 *239:14 *306:16 1.37455e-06
8 *637:A *239:14 1.44167e-06
9 *14:10 *239:14 5.1098e-05
10 *15:16 *239:14 8.146e-06
11 *77:8 *239:14 2.11853e-06
12 *147:182 *239:8 7.81138e-06
13 *147:192 *239:14 5.85387e-06
14 *147:194 *239:14 4.83862e-06
15 *237:12 *239:8 3.48165e-06
*RES
1 *639:Y *239:8 40.2831 
2 *239:8 *239:14 45.8895 
3 *239:14 *640:B 17.2 
*END

*D_NET *240 0.000108177
*CONN
*I *644:A1 I *D AO22x1_ASAP7_75t_R
*I *698:C2 I *D OA222x2_ASAP7_75t_R
*I *641:Y O *D INVx1_ASAP7_75t_R
*CAP
1 *644:A1 1.64142e-05
2 *698:C2 1.89241e-05
3 *641:Y 4.50981e-06
4 *240:8 3.9848e-05
5 *644:A1 *277:261 0
6 *644:A1 *397:33 5.58366e-06
7 *698:C2 *277:261 0
8 *698:C2 *308:6 2.03608e-06
9 *698:C2 *320:6 1.75355e-05
10 *698:C2 *397:33 3.32579e-06
11 *25:14 *240:8 0
*RES
1 *641:Y *240:8 36.0045 
2 *240:8 *698:C2 49.8852 
3 *240:8 *644:A1 47.3528 
*END

*D_NET *241 3.50855e-05
*CONN
*I *644:B1 I *D AO22x1_ASAP7_75t_R
*I *642:Y O *D NAND2x1_ASAP7_75t_R
*CAP
1 *644:B1 2.21479e-06
2 *642:Y 4.54782e-06
3 *241:8 6.76262e-06
4 *644:B1 *644:B2 2.20493e-06
5 *241:8 *397:33 2.1664e-06
6 *241:8 *397:42 2.68933e-07
7 *14:22 *241:8 1.692e-05
*RES
1 *642:Y *241:8 40.0317 
2 *241:8 *644:B1 36.0045 
*END

*D_NET *242 6.40633e-05
*CONN
*I *644:B2 I *D AO22x1_ASAP7_75t_R
*I *643:Y O *D AO21x1_ASAP7_75t_R
*CAP
1 *644:B2 1.48722e-05
2 *643:Y 6.98918e-06
3 *242:10 2.18614e-05
4 *242:10 *643:A2 2.90209e-08
5 *242:10 *243:10 5.06565e-06
6 *644:B1 *644:B2 2.20493e-06
7 *147:154 *242:10 1.30409e-05
*RES
1 *643:Y *242:10 39.975 
2 *242:10 *644:B2 41.8876 
*END

*D_NET *243 0.000250275
*CONN
*I *645:B I *D AO21x1_ASAP7_75t_R
*I *644:Y O *D AO22x1_ASAP7_75t_R
*CAP
1 *645:B 3.5025e-06
2 *644:Y 2.81433e-06
3 *243:18 3.02801e-05
4 *243:10 7.09327e-05
5 *243:8 4.69694e-05
6 *645:B *343:25 2.0895e-06
7 *243:10 *638:A2 5.04661e-06
8 *243:10 *343:25 1.71113e-05
9 *14:10 *243:10 3.06124e-05
10 *28:38 *645:B 9.08513e-06
11 *78:10 *645:B 1.52651e-06
12 *147:154 *243:10 3.29527e-06
13 *147:188 *243:10 5.22486e-06
14 *237:12 *243:10 1.67193e-05
15 *242:10 *243:10 5.06565e-06
*RES
1 *644:Y *243:8 36.0045 
2 *243:8 *243:10 41.7681 
3 *243:10 *243:18 41.983 
4 *243:18 *645:B 38.1438 
*END

*D_NET *244 3.60246e-05
*CONN
*I *647:B I *D AO21x1_ASAP7_75t_R
*I *646:Y O *D AND3x1_ASAP7_75t_R
*CAP
1 *647:B 7.722e-06
2 *646:Y 7.722e-06
3 *647:B *310:14 8.3281e-06
4 *647:B *446:16 1.22525e-05
*RES
1 *646:Y *647:B 41.3527 
*END

*D_NET *245 4.49038e-05
*CONN
*I *648:C I *D AO221x1_ASAP7_75t_R
*I *647:Y O *D AO21x1_ASAP7_75t_R
*CAP
1 *648:C 3.03376e-06
2 *647:Y 1.37506e-05
3 *245:10 1.67844e-05
4 *648:C *648:B2 6.7842e-07
5 *648:C *301:29 2.88806e-06
6 *245:10 *897:A 0
7 *245:10 *301:37 2.67535e-06
8 *245:10 *344:25 7.47402e-07
9 *245:10 *446:16 4.06202e-06
10 *211:183 *245:10 2.83874e-07
*RES
1 *647:Y *245:10 43.354 
2 *245:10 *648:C 36.5393 
*END

*D_NET *246 0.000202758
*CONN
*I *653:B1 I *D OA22x2_ASAP7_75t_R
*I *649:Y O *D NOR2x1_ASAP7_75t_R
*CAP
1 *653:B1 0
2 *649:Y 0
3 *246:8 7.45608e-05
4 *246:6 7.45608e-05
5 *246:8 *249:10 3.76935e-06
6 *144:12 *246:8 9.81516e-06
7 *144:60 *246:8 3.81397e-05
8 *147:10 *246:8 1.91241e-06
9 *208:28 *246:8 0
*RES
1 *649:Y *246:6 34.4 
2 *246:6 *246:8 65.8904 
3 *246:8 *653:B1 34.4 
*END

*D_NET *247 3.46789e-05
*CONN
*I *651:B I *D NOR2x1_ASAP7_75t_R
*I *650:Y O *D OA21x2_ASAP7_75t_R
*CAP
1 *651:B 6.80553e-06
2 *650:Y 5.7136e-06
3 *247:8 1.25191e-05
4 *651:B *651:A 2.20493e-06
5 *651:B *334:95 5.17782e-06
6 *247:8 *334:106 2.25787e-06
7 *247:8 *443:8 0
*RES
1 *650:Y *247:8 38.9053 
2 *247:8 *651:B 39.2134 
*END

*D_NET *248 0.000325981
*CONN
*I *652:C I *D AO221x2_ASAP7_75t_R
*I *651:Y O *D NOR2x1_ASAP7_75t_R
*CAP
1 *652:C 2.2506e-06
2 *651:Y 6.85881e-06
3 *248:10 5.52158e-05
4 *248:8 5.9824e-05
5 *248:8 *334:95 5.25794e-06
6 *248:10 *274:24 1.49407e-08
7 *248:10 *277:22 1.64747e-05
8 *248:10 *292:20 5.16662e-05
9 *248:10 *292:39 2.24466e-05
10 *248:10 *324:8 3.3563e-06
11 *248:10 *334:91 0
12 *248:10 *443:8 7.71949e-06
13 *248:10 *446:94 3.02222e-05
14 *248:10 *446:100 4.81456e-05
15 *64:10 *248:10 1.33022e-05
16 *64:27 *248:10 3.22574e-06
*RES
1 *651:Y *248:8 38.1438 
2 *248:8 *248:10 57.4429 
3 *248:10 *652:C 35.4697 
*END

*D_NET *249 7.82046e-05
*CONN
*I *653:B2 I *D OA22x2_ASAP7_75t_R
*I *652:Y O *D AO221x2_ASAP7_75t_R
*CAP
1 *653:B2 2.69376e-06
2 *652:Y 2.1894e-05
3 *249:10 2.45877e-05
4 *144:60 *249:10 8.71771e-06
5 *144:64 *249:10 1.6528e-05
6 *208:30 *653:B2 1.40419e-08
7 *246:8 *249:10 3.76935e-06
*RES
1 *652:Y *249:10 48.1674 
2 *249:10 *653:B2 35.4697 
*END

*D_NET *250 0.000293092
*CONN
*I *702:C2 I *D OA222x2_ASAP7_75t_R
*I *656:A1 I *D AO221x1_ASAP7_75t_R
*I *654:Y O *D INVx1_ASAP7_75t_R
*CAP
1 *702:C2 5.08214e-06
2 *656:A1 0
3 *654:Y 1.76e-05
4 *250:22 7.76025e-06
5 *250:14 3.37461e-05
6 *250:8 4.8668e-05
7 *702:C2 *346:10 2.22736e-06
8 *250:8 *277:34 3.33273e-05
9 *250:14 *327:16 4.78269e-05
10 *250:14 *346:10 5.79724e-07
11 *250:22 *346:31 6.95214e-06
12 *147:38 *250:22 1.40419e-08
13 *208:61 *250:22 6.6421e-06
14 *211:192 *250:14 8.26661e-05
*RES
1 *654:Y *250:8 44.5617 
2 *250:8 *250:14 46.8421 
3 *250:14 *250:22 41.1013 
4 *250:22 *656:A1 17.2 
5 *250:8 *702:C2 38.3422 
*END

*D_NET *251 0.000112243
*CONN
*I *656:C I *D AO221x1_ASAP7_75t_R
*I *655:Y O *D AO21x1_ASAP7_75t_R
*CAP
1 *656:C 0
2 *655:Y 4.46862e-05
3 *251:12 8.06215e-06
4 *251:6 5.27483e-05
5 *251:6 *740:CLK 2.27479e-06
6 *251:6 *446:50 2.27479e-06
7 *208:70 *251:12 2.19685e-06
*RES
1 *655:Y *251:6 39.1278 
2 *251:6 *251:12 40.0317 
3 *251:12 *656:C 17.2 
*END

*D_NET *252 6.16203e-05
*CONN
*I *657:B I *D OA21x2_ASAP7_75t_R
*I *656:Y O *D AO221x1_ASAP7_75t_R
*CAP
1 *657:B 0
2 *656:Y 0
3 *252:12 2.17926e-05
4 *252:6 2.17926e-05
5 *252:12 *657:A1 2.20493e-06
6 *252:12 *446:46 4.83862e-06
7 *252:12 *447:71 5.49212e-07
8 *252:12 *447:82 9.39763e-06
9 *81:10 *252:12 1.04475e-06
10 *208:70 *252:12 0
*RES
1 *656:Y *252:6 34.4 
2 *252:6 *252:12 36.2626 
3 *252:12 *657:B 17.2 
*END

*D_NET *253 0.000114483
*CONN
*I *660:A1 I *D AO221x1_ASAP7_75t_R
*I *703:C2 I *D OA222x2_ASAP7_75t_R
*I *658:Y O *D INVx1_ASAP7_75t_R
*CAP
1 *660:A1 7.24724e-06
2 *703:C2 2.69552e-06
3 *658:Y 2.1814e-05
4 *253:8 3.17568e-05
5 *660:A1 *274:119 8.2174e-07
6 *660:A1 *277:146 1.31716e-05
7 *703:C2 *703:B2 5.22376e-07
8 *703:C2 *703:C1 5.41446e-06
9 *703:C2 *274:119 5.52807e-07
10 *703:C2 *277:146 4.83862e-06
11 *253:8 *703:B2 5.0551e-07
12 *253:8 *446:74 2.29378e-05
13 *208:86 *660:A1 2.20493e-06
*RES
1 *658:Y *253:8 45.6313 
2 *253:8 *703:C2 38.2288 
3 *253:8 *660:A1 41.0446 
*END

*D_NET *254 5.77802e-05
*CONN
*I *660:C I *D AO221x1_ASAP7_75t_R
*I *659:Y O *D AO21x1_ASAP7_75t_R
*CAP
1 *660:C 3.94488e-06
2 *659:Y 1.23733e-05
3 *254:10 1.63182e-05
4 *660:C *347:37 7.57325e-06
5 *254:10 *274:119 8.33296e-06
6 *254:10 *447:100 0
7 *660:B1 *254:10 8.65792e-06
8 *211:57 *254:10 5.79724e-07
*RES
1 *659:Y *254:10 42.5641 
2 *254:10 *660:C 37.0741 
*END

*D_NET *255 4.86935e-05
*CONN
*I *661:B I *D OA21x2_ASAP7_75t_R
*I *660:Y O *D AO221x1_ASAP7_75t_R
*CAP
1 *661:B 0
2 *660:Y 1.93672e-05
3 *255:10 1.93672e-05
4 *255:10 *294:14 7.72307e-07
5 *255:10 *347:14 2.32105e-06
6 *661:A2 *255:10 3.13426e-06
7 *208:82 *255:10 3.73144e-06
*RES
1 *660:Y *255:10 45.2382 
2 *255:10 *661:B 34.4 
*END

*D_NET *256 0.000171894
*CONN
*I *704:C2 I *D OA222x2_ASAP7_75t_R
*I *665:A1 I *D AO221x1_ASAP7_75t_R
*I *662:Y O *D INVx1_ASAP7_75t_R
*CAP
1 *704:C2 0
2 *665:A1 0
3 *662:Y 2.24752e-05
4 *256:14 1.86154e-05
5 *256:6 4.10906e-05
6 *256:14 *437:22 1.5811e-05
7 *20:130 *256:6 6.1256e-05
8 *20:132 *256:14 1.02842e-06
9 *208:88 *256:14 1.69111e-06
10 *208:107 *256:14 9.92599e-06
*RES
1 *662:Y *256:6 32.7099 
2 *256:6 *256:14 46.4496 
3 *256:14 *665:A1 17.2 
4 *256:6 *704:C2 17.2 
*END

*D_NET *257 0.000119142
*CONN
*I *664:B I *D AO21x1_ASAP7_75t_R
*I *663:Y O *D AND3x1_ASAP7_75t_R
*CAP
1 *664:B 6.7337e-06
2 *663:Y 4.64427e-06
3 *257:14 3.61467e-05
4 *257:8 3.40573e-05
5 *664:B *334:164 1.05893e-06
6 *664:B *334:190 2.59962e-07
7 *664:B *348:22 3.88042e-07
8 *257:8 *274:117 1.30226e-05
9 *257:14 *665:C 7.15685e-06
10 *20:142 *257:8 5.63702e-07
11 *147:62 *664:B 3.78382e-06
12 *211:55 *257:8 1.57014e-06
13 *211:74 *257:14 9.75645e-06
*RES
1 *663:Y *257:8 38.9053 
2 *257:8 *257:14 45.6313 
3 *257:14 *664:B 39.4685 
*END

*D_NET *258 4.59371e-05
*CONN
*I *665:C I *D AO221x1_ASAP7_75t_R
*I *664:Y O *D AO21x1_ASAP7_75t_R
*CAP
1 *665:C 1.09065e-05
2 *664:Y 1.09065e-05
3 *665:C *348:37 1.35684e-06
4 *665:B1 *665:C 5.85387e-06
5 *211:74 *665:C 9.75645e-06
6 *257:14 *665:C 7.15685e-06
*RES
1 *664:Y *665:C 41.8876 
*END

*D_NET *259 0.00030434
*CONN
*I *705:C2 I *D OA222x2_ASAP7_75t_R
*I *669:A1 I *D AO221x1_ASAP7_75t_R
*I *666:Y O *D INVx1_ASAP7_75t_R
*CAP
1 *705:C2 0
2 *669:A1 0
3 *666:Y 0
4 *259:24 1.4567e-05
5 *259:14 2.96287e-05
6 *259:6 0.000109347
7 *259:4 9.42853e-05
8 *259:6 *666:A 0
9 *259:14 *277:105 1.33669e-05
10 *259:14 *277:113 2.22736e-06
11 *259:14 *437:38 0
12 *259:14 *437:47 0
13 *259:24 *277:113 2.01457e-05
14 *259:24 *437:47 0
15 *669:A2 *259:24 2.71368e-06
16 *208:125 *259:24 1.80582e-05
*RES
1 *666:Y *259:4 17.2 
2 *259:4 *259:6 44.3905 
3 *259:6 *259:14 48.9856 
4 *259:14 *259:24 47.0411 
5 *259:24 *669:A1 17.2 
6 *259:14 *705:C2 17.2 
*END

*D_NET *260 0.00014808
*CONN
*I *668:B I *D AO21x1_ASAP7_75t_R
*I *667:Y O *D AND3x1_ASAP7_75t_R
*CAP
1 *668:B 0
2 *667:Y 1.59413e-05
3 *260:14 1.42905e-05
4 *260:8 3.02318e-05
5 *260:14 *667:B 1.67893e-05
6 *260:14 *669:C 2.03526e-06
7 *260:14 *447:142 2.02764e-05
8 *260:14 *447:153 2.33787e-05
9 *260:14 *451:10 2.51223e-05
10 *667:C *260:8 1.40419e-08
*RES
1 *667:Y *260:8 40.2831 
2 *260:8 *260:14 35.5578 
3 *260:14 *668:B 17.2 
*END

*D_NET *261 3.6034e-05
*CONN
*I *669:C I *D AO221x1_ASAP7_75t_R
*I *668:Y O *D AO21x1_ASAP7_75t_R
*CAP
1 *669:C 1.36905e-05
2 *668:Y 1.36905e-05
3 *669:C *349:45 2.20493e-06
4 *669:B1 *669:C 3.89037e-06
5 *208:125 *669:C 5.22376e-07
6 *260:14 *669:C 2.03526e-06
*RES
1 *668:Y *669:C 41.8876 
*END

*D_NET *262 0.0002361
*CONN
*I *706:C2 I *D OA222x2_ASAP7_75t_R
*I *672:A1 I *D AO221x1_ASAP7_75t_R
*I *670:Y O *D INVx1_ASAP7_75t_R
*CAP
1 *706:C2 0
2 *672:A1 8.56178e-06
3 *670:Y 3.08731e-05
4 *262:37 1.38164e-05
5 *262:20 2.23782e-05
6 *262:18 2.51937e-05
7 *262:12 3.28109e-05
8 *262:6 3.84903e-05
9 *262:12 *437:58 0
10 *262:18 *673:B 2.29378e-05
11 *262:18 *277:113 1.64764e-06
12 *262:18 *437:58 0
13 *262:37 *673:A1 3.32579e-06
14 *262:37 *277:113 0
15 *262:37 *433:27 6.7842e-07
16 *262:37 *433:35 5.0551e-07
17 *262:37 *437:58 0
18 *144:175 *262:6 2.50224e-05
19 *144:175 *262:18 9.07421e-06
20 *208:140 *262:18 7.84037e-07
*RES
1 *670:Y *262:6 34.8492 
2 *262:6 *262:12 39.4685 
3 *262:12 *262:18 37.6651 
4 *262:18 *262:20 17.2 
5 *262:20 *672:A1 21.4786 
6 *262:20 *262:37 45.4366 
7 *262:37 *706:C2 17.2 
*END

*D_NET *263 0.000160633
*CONN
*I *672:C I *D AO221x1_ASAP7_75t_R
*I *671:Y O *D AO21x1_ASAP7_75t_R
*CAP
1 *672:C 2.54009e-05
2 *671:Y 0
3 *263:10 5.8647e-05
4 *263:6 3.32461e-05
5 *672:C *350:30 7.58265e-07
6 *672:C *350:38 2.12481e-06
7 *263:10 *883:A 6.33206e-07
8 *263:10 *349:20 3.07377e-05
9 *263:10 *447:153 0
10 *672:B1 *672:C 9.08513e-06
*RES
1 *671:Y *263:6 34.4 
2 *263:6 *263:10 47.0478 
3 *263:10 *672:C 32.7099 
*END

*D_NET *264 4.13761e-05
*CONN
*I *673:B I *D OA21x2_ASAP7_75t_R
*I *672:Y O *D AO221x1_ASAP7_75t_R
*CAP
1 *673:B 4.88898e-06
2 *672:Y 4.88898e-06
3 *673:B *673:A1 1.52651e-06
4 *144:175 *673:B 7.13384e-06
5 *262:18 *673:B 2.29378e-05
*RES
1 *672:Y *673:B 41.3527 
*END

*D_NET *265 0.000116135
*CONN
*I *678:B1 I *D OA22x2_ASAP7_75t_R
*I *674:Y O *D NOR2x1_ASAP7_75t_R
*CAP
1 *678:B1 0
2 *674:Y 8.1036e-06
3 *265:12 2.23688e-05
4 *265:8 3.04724e-05
5 *265:8 *274:99 7.21596e-07
6 *265:8 *333:28 0
7 *265:12 *268:14 2.20493e-06
8 *265:12 *437:104 1.76536e-05
9 *265:12 *440:49 2.11853e-06
10 *950:A *265:12 1.32196e-05
11 *113:56 *265:8 1.9272e-05
*RES
1 *674:Y *265:8 41.158 
2 *265:8 *265:12 33.7796 
3 *265:12 *678:B1 17.2 
*END

*D_NET *266 0.000204083
*CONN
*I *676:B I *D NOR2x1_ASAP7_75t_R
*I *675:Y O *D OA21x2_ASAP7_75t_R
*CAP
1 *676:B 0
2 *675:Y 6.20888e-05
3 *266:14 1.31296e-05
4 *266:6 7.52183e-05
5 *266:6 *675:A1 2.01337e-05
6 *266:6 *419:27 0
7 *266:6 *419:42 1.2768e-05
8 *266:14 *267:8 2.32767e-06
9 *266:14 *419:27 5.54065e-06
10 *266:14 *419:42 8.2849e-06
11 *266:14 *419:44 2.50007e-07
12 *972:A *266:6 4.34114e-06
13 *67:42 *266:14 0
14 *113:12 *266:6 0
*RES
1 *675:Y *266:6 41.2671 
2 *266:6 *266:14 44.2252 
3 *266:14 *676:B 17.2 
*END

*D_NET *267 0.000158961
*CONN
*I *677:C I *D AO221x2_ASAP7_75t_R
*I *676:Y O *D NOR2x1_ASAP7_75t_R
*CAP
1 *677:C 2.76542e-06
2 *676:Y 0
3 *267:8 4.53829e-05
4 *267:6 4.26175e-05
5 *677:C *677:A1 7.63254e-07
6 *677:C *318:12 1.44167e-06
7 *677:C *318:20 5.85387e-06
8 *267:8 *268:14 5.67747e-07
9 *267:8 *318:20 4.83862e-06
10 *267:8 *334:228 0
11 *267:8 *401:14 3.2526e-05
12 *267:8 *434:8 1.31716e-05
13 *587:A *267:8 0
14 *950:A *267:8 2.22736e-06
15 *86:8 *267:8 0
16 *144:165 *267:8 4.47696e-06
17 *211:45 *267:8 0
18 *266:14 *267:8 2.32767e-06
*RES
1 *676:Y *267:6 34.4 
2 *267:6 *267:8 33.2268 
3 *267:8 *677:C 36.5393 
*END

*D_NET *268 0.00013115
*CONN
*I *678:B2 I *D OA22x2_ASAP7_75t_R
*I *677:Y O *D AO221x2_ASAP7_75t_R
*CAP
1 *678:B2 0
2 *677:Y 9.52659e-06
3 *268:14 1.77931e-05
4 *268:8 2.73197e-05
5 *268:8 *401:8 0
6 *268:14 *419:44 1.04115e-05
7 *268:14 *437:104 1.01102e-06
8 *587:A *268:14 2.26775e-05
9 *719:B *268:14 9.81516e-06
10 *950:A *268:14 2.9823e-05
11 *265:12 *268:14 2.20493e-06
12 *267:8 *268:14 5.67747e-07
*RES
1 *677:Y *268:8 38.1438 
2 *268:8 *268:14 37.2756 
3 *268:14 *678:B2 17.2 
*END

*D_NET *269 4.01571e-05
*CONN
*I *683:B1 I *D OA22x2_ASAP7_75t_R
*I *679:Y O *D NOR2x1_ASAP7_75t_R
*CAP
1 *683:B1 1.05531e-05
2 *679:Y 6.03769e-06
3 *269:8 1.65908e-05
4 *683:B1 *682:B1 6.7842e-07
5 *683:B1 *683:B2 1.1699e-06
6 *269:8 *679:A 1.60363e-06
7 *269:8 *683:B2 5.63702e-07
8 *269:8 *439:25 4.84697e-07
9 *682:B2 *683:B1 2.47522e-06
*RES
1 *679:Y *269:8 38.9053 
2 *269:8 *683:B1 39.2134 
*END

*D_NET *270 3.53634e-05
*CONN
*I *681:B I *D NOR2x1_ASAP7_75t_R
*I *680:Y O *D OA21x2_ASAP7_75t_R
*CAP
1 *681:B 0
2 *680:Y 1.45199e-05
3 *270:10 1.45199e-05
4 *139:128 *270:10 6.32346e-06
*RES
1 *680:Y *270:10 42.6491 
2 *270:10 *681:B 34.4 
*END

*D_NET *271 0.000142767
*CONN
*I *682:C I *D AO221x2_ASAP7_75t_R
*I *681:Y O *D NOR2x1_ASAP7_75t_R
*CAP
1 *682:C 0
2 *681:Y 4.43068e-06
3 *271:14 4.53056e-05
4 *271:8 4.97363e-05
5 *271:14 *682:A2 3.77e-06
6 *271:14 *272:8 1.61775e-05
7 *271:14 *334:304 6.02341e-06
8 *139:126 *271:14 1.61303e-05
9 *145:57 *271:14 1.1937e-06
10 *211:10 *271:14 0
*RES
1 *681:Y *271:8 36.0045 
2 *271:8 *271:14 49.4632 
3 *271:14 *682:C 17.2 
*END

*D_NET *272 0.000143013
*CONN
*I *683:B2 I *D OA22x2_ASAP7_75t_R
*I *682:Y O *D AO221x2_ASAP7_75t_R
*CAP
1 *683:B2 2.10995e-05
2 *682:Y 2.37996e-05
3 *272:8 4.48992e-05
4 *683:B2 *439:25 1.42652e-05
5 *683:B2 *452:18 2.81851e-06
6 *682:B2 *683:B2 1.82196e-05
7 *683:B1 *683:B2 1.1699e-06
8 *269:8 *683:B2 5.63702e-07
9 *271:14 *272:8 1.61775e-05
*RES
1 *682:Y *272:8 45.6313 
2 *272:8 *683:B2 48.5605 
*END

*D_NET *273 0.000173852
*CONN
*P req_msg[11] I
*I *684:A I *D BUFx2_ASAP7_75t_R
*CAP
1 req_msg[11] 3.68838e-05
2 *684:A 0
3 *273:11 2.12182e-05
4 *273:7 5.8102e-05
5 *273:7 resp_msg[11] 2.03325e-05
6 *273:7 *284:14 0
7 *273:7 *364:9 3.73155e-05
8 *213:7 *273:7 0
9 *213:11 *273:11 0
*RES
1 req_msg[11] *273:7 42.1445 
2 *273:7 *273:11 33.0625 
3 *273:11 *684:A 17.2 
*END

*D_NET *274 0.00568537
*CONN
*I *698:B1 I *D OA222x2_ASAP7_75t_R
*I *696:B1 I *D OA222x2_ASAP7_75t_R
*I *697:B1 I *D OA222x2_ASAP7_75t_R
*I *691:B1 I *D OA222x2_ASAP7_75t_R
*I *693:B1 I *D OA222x2_ASAP7_75t_R
*I *690:B1 I *D OA222x2_ASAP7_75t_R
*I *694:B1 I *D OA222x2_ASAP7_75t_R
*I *710:B1 I *D OA222x2_ASAP7_75t_R
*I *708:B1 I *D OA222x2_ASAP7_75t_R
*I *706:B1 I *D OA222x2_ASAP7_75t_R
*I *705:B1 I *D OA222x2_ASAP7_75t_R
*I *704:B1 I *D OA222x2_ASAP7_75t_R
*I *703:B1 I *D OA222x2_ASAP7_75t_R
*I *701:B1 I *D OA222x2_ASAP7_75t_R
*I *702:B1 I *D OA222x2_ASAP7_75t_R
*I *699:B1 I *D OA222x2_ASAP7_75t_R
*I *685:Y O *D AO21x2_ASAP7_75t_R
*CAP
1 *698:B1 0
2 *696:B1 2.95442e-06
3 *697:B1 2.66185e-06
4 *691:B1 1.68605e-06
5 *693:B1 0
6 *690:B1 2.28978e-06
7 *694:B1 8.45853e-06
8 *710:B1 0
9 *708:B1 5.8751e-06
10 *706:B1 3.90034e-06
11 *705:B1 6.14208e-06
12 *704:B1 2.11982e-06
13 *703:B1 1.29874e-06
14 *701:B1 9.47513e-06
15 *702:B1 0
16 *699:B1 0
17 *685:Y 0
18 *274:349 1.02103e-05
19 *274:330 2.77538e-05
20 *274:322 4.26323e-05
21 *274:318 4.30017e-05
22 *274:303 7.83116e-05
23 *274:301 5.53393e-05
24 *274:297 1.50686e-05
25 *274:295 5.27921e-05
26 *274:293 5.27921e-05
27 *274:291 2.22844e-05
28 *274:276 2.1142e-05
29 *274:268 6.10386e-05
30 *274:262 3.83354e-05
31 *274:249 3.07236e-05
32 *274:243 2.72373e-05
33 *274:235 4.80522e-05
34 *274:218 5.98337e-05
35 *274:216 9.00452e-05
36 *274:214 6.69739e-05
37 *274:199 0.000100969
38 *274:197 5.58106e-05
39 *274:193 3.44213e-05
40 *274:182 9.22681e-06
41 *274:152 4.11601e-05
42 *274:141 7.02738e-05
43 *274:139 2.6872e-05
44 *274:119 5.15303e-05
45 *274:117 9.18046e-05
46 *274:111 8.55684e-05
47 *274:109 4.61152e-05
48 *274:107 1.80596e-05
49 *274:103 0.0001134
50 *274:101 0.000101216
51 *274:99 4.44172e-05
52 *274:93 6.53663e-05
53 *274:87 2.19912e-05
54 *274:83 8.51475e-05
55 *274:81 8.68263e-05
56 *274:61 2.17041e-05
57 *274:59 3.14046e-05
58 *274:50 1.11266e-05
59 *274:40 5.42056e-05
60 *274:36 7.7838e-05
61 *274:32 3.34882e-05
62 *274:26 5.86032e-05
63 *274:24 5.22579e-05
64 *274:18 4.47169e-05
65 *274:12 7.63579e-05
66 *274:10 4.63849e-05
67 *274:6 6.62315e-05
68 *274:4 6.01918e-05
69 *690:B1 *302:12 1.03895e-05
70 *690:B1 *436:63 1.26378e-06
71 *691:B1 *303:14 1.04475e-06
72 *694:B1 *287:25 5.28509e-06
73 *694:B1 *305:20 3.68287e-06
74 *696:B1 *696:B2 1.73158e-06
75 *696:B1 *280:6 2.96818e-06
76 *703:B1 *703:B2 1.52651e-06
77 *708:B1 *282:8 0
78 *708:B1 *437:8 3.68287e-06
79 *274:6 *649:A 9.58768e-06
80 *274:10 *277:61 2.60745e-05
81 *274:12 *277:10 0.000115991
82 *274:12 *277:61 6.71283e-06
83 *274:12 *334:91 4.1233e-05
84 *274:12 *443:8 2.71921e-06
85 *274:18 *277:10 1.01083e-05
86 *274:18 *277:16 2.97068e-05
87 *274:18 *292:10 0
88 *274:18 *292:18 0
89 *274:18 *334:91 2.25911e-05
90 *274:26 *277:24 0.00019818
91 *274:32 *277:32 2.05883e-06
92 *274:32 *277:43 0
93 *274:40 *699:A1 1.07573e-06
94 *274:40 *277:43 0
95 *274:40 *291:37 5.37569e-06
96 *274:40 *301:10 0
97 *274:40 *313:10 4.83862e-06
98 *274:40 *446:31 5.52807e-07
99 *274:40 *447:65 3.25708e-06
100 *274:50 *699:A2 1.17077e-05
101 *274:50 *301:10 5.37866e-07
102 *274:50 *313:10 4.83862e-06
103 *274:50 *447:44 0
104 *274:59 *277:43 0
105 *274:61 *277:34 0.000101079
106 *274:61 *293:19 2.28976e-06
107 *274:61 *410:12 7.46778e-05
108 *274:83 *277:61 0
109 *274:83 *334:106 0
110 *274:83 *447:312 9.5726e-05
111 *274:87 *435:14 5.78609e-05
112 *274:87 *447:318 6.53958e-05
113 *274:93 *277:73 2.45021e-07
114 *274:93 *435:22 1.25592e-05
115 *274:93 *447:318 1.002e-06
116 *274:99 *333:28 4.85329e-06
117 *274:103 *277:99 7.95905e-06
118 *274:103 *295:23 1.04611e-05
119 *274:103 *334:142 0.000103143
120 *274:103 *334:150 1.26391e-06
121 *274:103 *440:23 2.97913e-05
122 *274:107 *277:97 2.98814e-08
123 *274:107 *333:18 2.07915e-06
124 *274:111 *708:A2 1.56713e-06
125 *274:111 *434:22 1.2768e-05
126 *274:111 *434:30 5.62196e-06
127 *274:111 *437:8 5.0551e-07
128 *274:111 *447:171 4.45371e-05
129 *274:117 *348:37 3.05118e-08
130 *274:117 *447:171 7.81138e-06
131 *274:119 *277:146 0
132 *274:119 *347:37 3.88115e-06
133 *274:119 *447:100 0
134 *274:141 *277:105 4.34893e-05
135 *274:141 *277:113 1.20741e-05
136 *274:152 *277:113 0.000169715
137 *274:152 *331:10 2.10531e-05
138 *274:152 *349:37 3.52301e-05
139 *274:152 *349:45 3.05118e-08
140 *274:152 *350:30 1.31716e-05
141 *274:199 *628:A1 2.68365e-06
142 *274:199 *287:25 1.48815e-05
143 *274:199 *287:35 2.63431e-05
144 *274:199 *447:271 0
145 *274:214 *277:204 3.35085e-05
146 *274:214 *447:258 4.55111e-05
147 *274:214 *448:87 0
148 *274:218 *277:208 3.13118e-05
149 *274:218 *302:20 0
150 *274:218 *447:242 0
151 *274:218 *447:244 1.37753e-05
152 *274:218 *447:254 0
153 *274:235 *692:A 1.03604e-06
154 *274:235 *442:14 2.66797e-07
155 *274:235 *447:341 3.05118e-08
156 *274:235 *447:345 1.59615e-06
157 *274:243 *692:A 1.45042e-05
158 *274:243 *286:14 1.4191e-06
159 *274:243 *409:10 2.22736e-06
160 *274:249 *286:14 1.59106e-05
161 *274:249 *304:20 1.49407e-08
162 *274:249 *334:257 4.67671e-07
163 *274:262 *334:257 1.87645e-05
164 *274:262 *438:12 0
165 *274:268 *304:12 2.70592e-05
166 *274:268 *447:364 6.51733e-05
167 *274:268 *447:368 2.98302e-05
168 *274:276 *277:242 1.12894e-06
169 *274:291 *285:12 1.31716e-05
170 *274:291 *447:368 1.97537e-05
171 *274:295 *277:253 0
172 *274:295 *290:29 1.62058e-05
173 *274:295 *303:14 1.91241e-06
174 *274:295 *320:12 1.2892e-06
175 *274:295 *397:18 1.9063e-05
176 *274:295 *453:8 6.84773e-06
177 *274:301 *712:A 1.07377e-06
178 *274:303 *290:29 3.7559e-06
179 *274:303 *334:352 3.51712e-06
180 *274:303 *334:362 7.30601e-06
181 *274:303 *338:20 8.58704e-06
182 *274:303 *453:8 0
183 *274:318 *966:A 1.81409e-05
184 *274:318 *277:271 1.64764e-06
185 *274:318 *289:27 1.86216e-05
186 *274:318 *338:20 3.03529e-05
187 *274:318 *342:6 9.30483e-06
188 *274:318 *447:452 0
189 *274:322 *432:81 2.71199e-05
190 *274:322 *432:92 2.68586e-05
191 *274:322 *447:452 1.89747e-06
192 *274:330 *696:C1 1.02661e-05
193 *274:330 *280:6 7.72307e-07
194 *274:330 *447:452 0
195 *274:349 *290:37 3.55712e-06
196 *274:349 *308:6 1.44639e-06
197 *274:349 *453:8 4.17277e-06
198 *660:A1 *274:119 8.2174e-07
199 *674:B *274:99 2.04513e-06
200 *674:B *274:103 7.94909e-06
201 *685:B *274:6 5.19475e-06
202 *703:C2 *274:119 5.52807e-07
203 *745:D *274:103 6.03526e-06
204 *7:8 *274:103 1.25425e-05
205 *20:132 *274:117 2.19679e-05
206 *20:142 *274:117 2.62861e-06
207 *37:14 *274:235 9.50756e-06
208 *40:6 *274:276 2.30288e-06
209 *67:23 *274:32 0
210 *75:10 *694:B1 1.34466e-06
211 *75:10 *274:199 1.29984e-06
212 *89:12 *274:276 2.74873e-05
213 *93:8 *697:B1 1.04475e-06
214 *96:8 *701:B1 5.19552e-07
215 *113:56 *274:99 5.13209e-07
216 *131:51 *274:6 2.88806e-06
217 *131:57 *274:6 1.23061e-05
218 *135:6 *274:6 0.000111031
219 *135:18 *274:193 6.33206e-07
220 *135:22 *274:197 3.07043e-05
221 *139:63 *274:6 3.68287e-06
222 *139:63 *274:193 0
223 *139:69 *274:6 6.8815e-05
224 *139:75 *274:81 1.25606e-05
225 *139:83 *274:83 5.52807e-07
226 *144:18 *274:10 0
227 *144:18 *274:83 1.12894e-06
228 *145:90 *274:199 6.7203e-06
229 *145:125 *274:243 8.46363e-06
230 *145:125 *274:249 2.83874e-07
231 *147:22 *274:61 2.0895e-06
232 *147:135 *274:276 8.2174e-07
233 *147:135 *274:295 5.88157e-05
234 *147:220 *274:295 4.92493e-05
235 *158:10 *274:83 0
236 *158:10 *274:93 0
237 *207:45 *274:193 5.79724e-07
238 *208:30 *274:26 2.69005e-05
239 *208:55 *274:40 5.52807e-07
240 *208:88 *274:117 5.43721e-07
241 *208:88 *274:119 2.93585e-05
242 *208:96 *274:117 1.57562e-05
243 *208:109 *274:141 4.53195e-05
244 *208:117 *274:141 8.2174e-07
245 *208:117 *274:152 1.35961e-06
246 *208:204 *274:218 1.49407e-08
247 *208:204 *274:235 1.49407e-08
248 *211:57 *274:117 1.17597e-06
249 *211:57 *274:119 1.52395e-05
250 *211:95 *274:152 0
251 *211:157 *274:26 4.40082e-05
252 *211:192 *274:36 1.87514e-05
253 *211:211 *274:218 9.14777e-05
254 *211:245 *274:268 1.26211e-05
255 *211:245 *274:291 1.5464e-05
256 *211:253 *274:303 1.38351e-05
257 *211:253 *274:318 2.83874e-07
258 *211:263 *274:318 6.33206e-06
259 *211:263 *274:322 2.83874e-07
260 *211:269 *274:322 6.77961e-05
261 *215:22 *274:218 3.30589e-06
262 *216:10 *274:291 2.35211e-06
263 *216:25 *691:B1 2.20493e-06
264 *228:12 *274:199 1.10561e-06
265 *229:24 *274:214 0
266 *231:8 *274:349 4.8043e-06
267 *231:12 *274:301 1.27802e-05
268 *231:12 *274:349 3.90258e-06
269 *248:10 *274:24 1.49407e-08
270 *254:10 *274:119 8.33296e-06
271 *257:8 *274:117 1.30226e-05
272 *265:8 *274:99 7.21596e-07
*RES
1 *685:Y *274:4 17.2 
2 *274:4 *274:6 57.2263 
3 *274:6 *274:10 26.2107 
4 *274:10 *274:12 40.548 
5 *274:12 *274:18 44.0168 
6 *274:18 *274:24 35.4325 
7 *274:24 *274:26 58.2959 
8 *274:26 *274:32 40.0317 
9 *274:32 *274:36 30.5706 
10 *274:36 *274:40 47.611 
11 *274:40 *274:50 42.5641 
12 *274:50 *699:B1 17.2 
13 *274:36 *274:59 22.8317 
14 *274:59 *274:61 35.8333 
15 *274:61 *702:B1 17.2 
16 *274:12 *701:B1 38.6786 
17 *274:10 *274:81 43.492 
18 *274:81 *274:83 61.9483 
19 *274:83 *274:87 33.7796 
20 *274:87 *274:93 44.537 
21 *274:93 *274:99 34.4561 
22 *274:99 *274:101 17.2 
23 *274:101 *274:103 71.1317 
24 *274:103 *274:107 23.958 
25 *274:107 *274:109 17.2 
26 *274:109 *274:111 36.9029 
27 *274:111 *274:117 48.9887 
28 *274:117 *274:119 48.9954 
29 *274:119 *703:B1 35.4697 
30 *274:117 *704:B1 35.4697 
31 *274:111 *274:139 17.2 
32 *274:139 *274:141 37.7321 
33 *274:141 *705:B1 37.609 
34 *274:141 *274:152 56.3166 
35 *274:152 *706:B1 36.0045 
36 *274:107 *708:B1 39.4118 
37 *274:93 *274:182 39.89 
38 *274:182 *710:B1 17.2 
39 *274:4 *274:193 37.2158 
40 *274:193 *274:197 41.2671 
41 *274:197 *274:199 23.3714 
42 *274:199 *694:B1 40.8197 
43 *274:199 *274:214 40.3589 
44 *274:214 *274:216 17.2 
45 *274:216 *274:218 57.1614 
46 *274:218 *690:B1 37.609 
47 *274:216 *274:235 49.7417 
48 *274:235 *274:243 44.3386 
49 *274:243 *274:249 25.0276 
50 *274:249 *693:B1 17.2 
51 *274:249 *274:262 46.6196 
52 *274:262 *274:268 46.0559 
53 *274:268 *274:276 49.1804 
54 *274:276 *691:B1 36.0045 
55 *274:268 *274:291 34.9662 
56 *274:291 *274:293 17.2 
57 *274:293 *274:295 52.3744 
58 *274:295 *274:297 17.2 
59 *274:297 *274:301 20.9438 
60 *274:301 *274:303 43.9269 
61 *274:303 *697:B1 36.0045 
62 *274:303 *274:318 43.5271 
63 *274:318 *274:322 43.1056 
64 *274:322 *274:330 47.3775 
65 *274:330 *696:B1 37.0741 
66 *274:297 *274:349 44.9585 
67 *274:349 *698:B1 17.2 
*END

*D_NET *275 0.000358244
*CONN
*P req_msg[10] I
*I *686:A I *D BUFx2_ASAP7_75t_R
*CAP
1 req_msg[10] 1.06568e-05
2 *686:A 0
3 *275:13 7.06613e-05
4 *275:11 7.06613e-05
5 *275:9 4.42974e-05
6 *275:7 5.49542e-05
7 *275:7 resp_msg[12] 3.54999e-05
8 *275:9 *362:9 2.25196e-06
9 *275:13 *339:24 1.22121e-05
10 *275:13 *382:6 1.77048e-05
11 *148:11 *275:9 3.30589e-06
12 *212:5 *275:7 3.6038e-05
*RES
1 req_msg[10] *275:7 30.4568 
2 *275:7 *275:9 38.5769 
3 *275:9 *275:11 17.2 
4 *275:11 *275:13 55.087 
5 *275:13 *686:A 17.2 
*END

*D_NET *276 1.79713e-05
*CONN
*I *688:B I *D NAND2x2_ASAP7_75t_R
*I *687:Y O *D AO21x2_ASAP7_75t_R
*CAP
1 *688:B 2.93912e-06
2 *687:Y 2.93912e-06
3 *688:B *277:6 2.61188e-06
4 *688:B *277:167 2.61188e-06
5 *135:18 *688:B 6.86929e-06
*RES
1 *687:Y *688:B 39.2134 
*END

*D_NET *277 0.00519418
*CONN
*I *698:C1 I *D OA222x2_ASAP7_75t_R
*I *697:C1 I *D OA222x2_ASAP7_75t_R
*I *696:C1 I *D OA222x2_ASAP7_75t_R
*I *691:C1 I *D OA222x2_ASAP7_75t_R
*I *693:C1 I *D OA222x2_ASAP7_75t_R
*I *690:C1 I *D OA222x2_ASAP7_75t_R
*I *694:C1 I *D OA222x2_ASAP7_75t_R
*I *710:C1 I *D OA222x2_ASAP7_75t_R
*I *708:C1 I *D OA222x2_ASAP7_75t_R
*I *703:C1 I *D OA222x2_ASAP7_75t_R
*I *704:C1 I *D OA222x2_ASAP7_75t_R
*I *705:C1 I *D OA222x2_ASAP7_75t_R
*I *706:C1 I *D OA222x2_ASAP7_75t_R
*I *701:C1 I *D OA222x2_ASAP7_75t_R
*I *699:C1 I *D OA222x2_ASAP7_75t_R
*I *702:C1 I *D OA222x2_ASAP7_75t_R
*I *688:Y O *D NAND2x2_ASAP7_75t_R
*CAP
1 *698:C1 0
2 *697:C1 0
3 *696:C1 1.68752e-05
4 *691:C1 2.07587e-06
5 *693:C1 0
6 *690:C1 0
7 *694:C1 0
8 *710:C1 0
9 *708:C1 0
10 *703:C1 7.51709e-07
11 *704:C1 2.15122e-06
12 *705:C1 0
13 *706:C1 4.33668e-06
14 *701:C1 0
15 *699:C1 2.14889e-06
16 *702:C1 0
17 *688:Y 0
18 *277:271 7.4987e-05
19 *277:269 5.96423e-05
20 *277:265 6.04053e-06
21 *277:261 5.45892e-05
22 *277:259 5.00792e-05
23 *277:257 2.63366e-06
24 *277:253 6.85617e-05
25 *277:242 0.000107226
26 *277:240 7.96313e-05
27 *277:231 4.25604e-05
28 *277:225 6.76333e-05
29 *277:208 4.53859e-05
30 *277:206 4.53859e-05
31 *277:204 8.26974e-05
32 *277:200 2.63456e-05
33 *277:194 2.25605e-05
34 *277:181 2.95377e-05
35 *277:175 5.10899e-05
36 *277:167 0.000105615
37 *277:146 4.49216e-05
38 *277:144 4.41699e-05
39 *277:135 2.00995e-05
40 *277:131 4.95818e-05
41 *277:113 3.79988e-05
42 *277:111 3.73236e-05
43 *277:107 3.66148e-06
44 *277:105 3.84112e-05
45 *277:103 7.04729e-05
46 *277:99 0.00012
47 *277:97 6.58432e-05
48 *277:91 2.44513e-05
49 *277:89 1.79697e-05
50 *277:83 5.4468e-05
51 *277:79 0.000108835
52 *277:73 7.42452e-05
53 *277:65 4.12773e-05
54 *277:61 0.000115549
55 *277:43 4.27209e-05
56 *277:34 3.50166e-05
57 *277:32 8.67449e-05
58 *277:24 6.60138e-05
59 *277:22 6.03713e-05
60 *277:16 4.22969e-05
61 *277:10 6.95153e-05
62 *277:8 0.000123825
63 *277:6 7.4725e-05
64 *277:4 0.000145357
65 *696:C1 *280:6 3.05302e-06
66 *703:C1 *703:B2 2.28976e-06
67 *706:C1 *433:35 4.41457e-06
68 *277:10 *281:8 8.29921e-06
69 *277:10 *447:203 7.84772e-07
70 *277:16 *292:10 1.10561e-06
71 *277:22 *406:17 0
72 *277:32 *410:8 6.33206e-07
73 *277:32 *410:12 5.17782e-06
74 *277:34 *410:12 7.46759e-06
75 *277:43 *301:10 1.64046e-05
76 *277:43 *446:31 9.81516e-06
77 *277:43 *447:44 2.83449e-06
78 *277:61 *447:304 9.39763e-06
79 *277:61 *447:312 0
80 *277:65 *709:A 1.19785e-05
81 *277:65 *710:C2 2.58566e-05
82 *277:79 *762:CLK 0
83 *277:79 *437:104 0
84 *277:83 *333:20 0.000160671
85 *277:89 *434:18 4.55487e-06
86 *277:91 *708:C2 2.61188e-06
87 *277:91 *434:22 5.56198e-05
88 *277:91 *437:6 4.07216e-06
89 *277:91 *437:8 2.66797e-07
90 *277:97 *282:8 2.98814e-08
91 *277:99 *295:23 1.86049e-06
92 *277:99 *333:12 7.21252e-05
93 *277:103 *333:12 5.69899e-05
94 *277:105 *437:14 1.94229e-06
95 *277:105 *437:38 0
96 *277:113 *673:A1 0
97 *277:113 *350:30 2.84286e-06
98 *277:146 *294:22 8.05934e-06
99 *277:146 *437:22 2.03521e-05
100 *277:167 *688:A 2.12481e-06
101 *277:167 *447:273 4.0801e-05
102 *277:175 *447:271 9.67723e-06
103 *277:181 *287:25 1.3072e-05
104 *277:194 *305:20 2.66207e-05
105 *277:200 *305:20 5.75695e-05
106 *277:200 *447:254 3.05118e-08
107 *277:208 *436:69 9.81516e-06
108 *277:208 *447:341 1.7574e-05
109 *277:225 *286:14 1.04015e-05
110 *277:225 *286:20 1.34134e-05
111 *277:231 *279:10 1.93815e-06
112 *277:231 *334:257 1.71384e-06
113 *277:240 *627:A1 6.32656e-06
114 *277:240 *693:C2 1.58373e-06
115 *277:242 *447:383 0
116 *277:253 *303:14 1.4814e-05
117 *277:253 *397:33 0
118 *277:253 *432:40 5.27966e-06
119 *277:253 *453:8 6.35954e-06
120 *277:257 *308:6 2.20493e-06
121 *277:261 *290:10 1.30409e-05
122 *277:261 *397:33 0
123 *277:261 *397:42 0
124 *277:261 *453:8 6.40246e-05
125 *277:265 *338:20 6.6195e-06
126 *277:269 *338:20 1.52651e-06
127 *277:271 *966:A 8.05934e-06
128 *277:271 *338:20 1.32161e-05
129 *277:271 *453:8 8.32972e-06
130 *627:B *277:240 2.48891e-05
131 *644:A1 *277:261 0
132 *660:A1 *277:146 1.31716e-05
133 *662:A *277:135 6.86929e-06
134 *687:A1 *277:6 5.41446e-06
135 *688:B *277:6 2.61188e-06
136 *688:B *277:167 2.61188e-06
137 *694:C2 *277:181 2.24111e-07
138 *697:C2 *277:265 5.09299e-06
139 *698:C2 *277:261 0
140 *703:C2 *703:C1 5.41446e-06
141 *703:C2 *277:146 4.83862e-06
142 *736:D *277:271 0
143 *15:24 *277:271 9.94583e-06
144 *20:75 *277:6 5.51397e-07
145 *20:120 *277:131 2.00142e-07
146 *20:126 *277:131 3.6736e-06
147 *20:130 *704:C1 6.19506e-06
148 *20:130 *277:135 6.09148e-05
149 *25:22 *277:261 4.74885e-06
150 *34:10 *277:181 3.55279e-06
151 *67:23 *277:32 0
152 *80:10 *277:16 6.33206e-07
153 *92:8 *696:C1 3.71468e-06
154 *93:8 *277:265 1.07377e-06
155 *93:8 *277:269 2.90209e-08
156 *94:8 *277:253 0
157 *95:8 *277:43 5.79724e-07
158 *113:56 *277:79 2.19482e-06
159 *135:18 *277:6 0
160 *135:18 *277:167 0
161 *139:73 *277:6 5.0551e-07
162 *139:75 *277:6 1.06719e-05
163 *140:12 *277:200 1.21934e-06
164 *140:18 *277:200 5.77892e-05
165 *144:12 *277:61 0
166 *144:60 *277:10 0
167 *144:60 *277:16 0
168 *144:60 *277:61 0
169 *144:111 *277:61 0
170 *144:140 *277:61 0
171 *144:144 *277:61 0
172 *144:159 *277:83 6.60765e-05
173 *147:14 *277:16 3.22132e-06
174 *147:22 *277:24 4.40375e-05
175 *147:22 *277:32 7.58265e-07
176 *147:131 *277:240 1.25483e-05
177 *147:135 *277:242 0
178 *147:135 *277:253 0
179 *157:25 *277:79 2.30873e-06
180 *158:10 *277:73 9.41645e-07
181 *208:30 *277:24 3.13426e-06
182 *208:55 *277:43 9.67723e-06
183 *208:78 *277:146 0
184 *208:88 *277:146 5.49435e-05
185 *208:109 *277:105 5.67747e-07
186 *208:125 *277:113 1.89962e-06
187 *208:140 *277:113 0.000118817
188 *208:164 *277:175 0
189 *208:212 *277:208 0
190 *211:211 *277:208 8.17908e-05
191 *211:263 *277:271 2.60745e-05
192 *211:269 *277:271 7.05202e-06
193 *216:25 *691:C1 1.36155e-06
194 *216:25 *277:242 3.47607e-06
195 *216:25 *277:253 3.6269e-06
196 *229:24 *277:204 0
197 *229:24 *277:225 0
198 *248:10 *277:22 1.64747e-05
199 *250:8 *277:34 3.33273e-05
200 *259:14 *277:105 1.33669e-05
201 *259:14 *277:113 2.22736e-06
202 *259:24 *277:113 2.01457e-05
203 *262:18 *277:113 1.64764e-06
204 *262:37 *277:113 0
205 *274:10 *277:61 2.60745e-05
206 *274:12 *277:10 0.000115991
207 *274:12 *277:61 6.71283e-06
208 *274:18 *277:10 1.01083e-05
209 *274:18 *277:16 2.97068e-05
210 *274:26 *277:24 0.00019818
211 *274:32 *277:32 2.05883e-06
212 *274:32 *277:43 0
213 *274:40 *277:43 0
214 *274:59 *277:43 0
215 *274:61 *277:34 0.000101079
216 *274:83 *277:61 0
217 *274:93 *277:73 2.45021e-07
218 *274:103 *277:99 7.95905e-06
219 *274:107 *277:97 2.98814e-08
220 *274:119 *277:146 0
221 *274:141 *277:105 4.34893e-05
222 *274:141 *277:113 1.20741e-05
223 *274:152 *277:113 0.000169715
224 *274:214 *277:204 3.35085e-05
225 *274:218 *277:208 3.13118e-05
226 *274:276 *277:242 1.12894e-06
227 *274:295 *277:253 0
228 *274:318 *277:271 1.64764e-06
229 *274:330 *696:C1 1.02661e-05
*RES
1 *688:Y *277:4 17.2 
2 *277:4 *277:6 35.8333 
3 *277:6 *277:8 17.2 
4 *277:8 *277:10 41.6743 
5 *277:10 *277:16 37.4987 
6 *277:16 *277:22 40.0317 
7 *277:22 *277:24 63.6442 
8 *277:24 *277:32 43.0989 
9 *277:32 *277:34 36.3681 
10 *277:34 *702:C1 17.2 
11 *277:32 *277:43 48.1741 
12 *277:43 *699:C1 35.4697 
13 *277:10 *701:C1 34.4 
14 *277:8 *277:61 70.3958 
15 *277:61 *277:65 36.9885 
16 *277:65 *277:73 43.8321 
17 *277:73 *277:79 41.0422 
18 *277:79 *277:83 45.5534 
19 *277:83 *277:89 36.3711 
20 *277:89 *277:91 16.5796 
21 *277:91 *277:97 38.9053 
22 *277:97 *277:99 25.1368 
23 *277:99 *277:103 31.6403 
24 *277:103 *277:105 38.2953 
25 *277:105 *277:107 17.2 
26 *277:107 *277:111 18.8045 
27 *277:111 *277:113 61.9483 
28 *277:113 *706:C1 37.609 
29 *277:107 *705:C1 17.2 
30 *277:99 *277:131 38.0371 
31 *277:131 *277:135 33.7796 
32 *277:135 *704:C1 18.8045 
33 *277:135 *277:144 17.2 
34 *277:144 *277:146 50.1218 
35 *277:146 *703:C1 36.0045 
36 *277:91 *708:C1 17.2 
37 *277:65 *710:C1 17.2 
38 *277:4 *277:167 37.9726 
39 *277:167 *277:175 49.0103 
40 *277:175 *277:181 46.7897 
41 *277:181 *694:C1 17.2 
42 *277:181 *277:194 45.2382 
43 *277:194 *277:200 36.4449 
44 *277:200 *277:204 24.126 
45 *277:204 *277:206 17.2 
46 *277:206 *277:208 52.2806 
47 *277:208 *690:C1 34.4 
48 *277:204 *277:225 43.9027 
49 *277:225 *277:231 36.5588 
50 *277:231 *693:C1 17.2 
51 *277:231 *277:240 44.4761 
52 *277:240 *277:242 25.9056 
53 *277:242 *691:C1 35.4697 
54 *277:242 *277:253 51.2481 
55 *277:253 *277:257 18.8045 
56 *277:257 *277:259 17.2 
57 *277:259 *277:261 51.2481 
58 *277:261 *277:265 22.5483 
59 *277:265 *277:269 18.2696 
60 *277:269 *277:271 51.2481 
61 *277:271 *696:C1 47.2358 
62 *277:265 *697:C1 17.2 
63 *277:257 *698:C1 17.2 
*END

*D_NET *278 0.000128475
*CONN
*P req_msg[0] I
*I *689:A I *D BUFx2_ASAP7_75t_R
*CAP
1 req_msg[0] 1.65385e-05
2 *689:A 0
3 *278:17 3.99095e-05
4 *278:11 5.6448e-05
5 *278:11 resp_msg[0] 1.55793e-05
6 *278:17 *380:8 0
*RES
1 req_msg[0] *278:11 39.8839 
2 *278:11 *278:17 48.314 
3 *278:17 *689:A 17.2 
*END

*D_NET *279 6.39023e-05
*CONN
*I *693:C2 I *D OA222x2_ASAP7_75t_R
*I *692:Y O *D INVx1_ASAP7_75t_R
*CAP
1 *693:C2 1.90565e-06
2 *692:Y 2.41566e-05
3 *279:10 2.60623e-05
4 *279:10 *334:257 0
5 *90:8 *279:10 3.56738e-06
6 *221:10 *279:10 4.68849e-06
7 *277:231 *279:10 1.93815e-06
8 *277:240 *693:C2 1.58373e-06
*RES
1 *692:Y *279:10 47.0977 
2 *279:10 *693:C2 35.4697 
*END

*D_NET *280 0.00010084
*CONN
*I *696:C2 I *D OA222x2_ASAP7_75t_R
*I *695:Y O *D INVx1_ASAP7_75t_R
*CAP
1 *696:C2 0
2 *695:Y 3.59716e-05
3 *280:6 3.59716e-05
4 *280:6 *696:A1 8.13589e-06
5 *280:6 *696:B2 8.03705e-06
6 *280:6 *306:28 5.92989e-06
7 *696:B1 *280:6 2.96818e-06
8 *696:C1 *280:6 3.05302e-06
9 *274:330 *280:6 7.72307e-07
*RES
1 *695:Y *280:6 38.593 
2 *280:6 *696:C2 17.2 
*END

*D_NET *281 5.07757e-05
*CONN
*I *701:C2 I *D OA222x2_ASAP7_75t_R
*I *700:Y O *D INVx1_ASAP7_75t_R
*CAP
1 *701:C2 3.21204e-06
2 *700:Y 1.32218e-05
3 *281:8 1.64338e-05
4 *701:C2 *447:203 2.12481e-06
5 *96:8 *701:C2 2.52755e-07
6 *144:60 *281:8 7.2313e-06
7 *277:10 *281:8 8.29921e-06
*RES
1 *700:Y *281:8 47.3528 
2 *281:8 *701:C2 36.5393 
*END

*D_NET *282 5.92143e-05
*CONN
*I *708:C2 I *D OA222x2_ASAP7_75t_R
*I *707:Y O *D INVx1_ASAP7_75t_R
*CAP
1 *708:C2 2.32876e-06
2 *707:Y 9.29285e-06
3 *282:8 1.16216e-05
4 *708:C2 *437:6 1.06092e-05
5 *282:8 *441:15 2.27201e-05
6 *708:B1 *282:8 0
7 *277:91 *708:C2 2.61188e-06
8 *277:97 *282:8 2.98814e-08
*RES
1 *707:Y *282:8 42.2843 
2 *282:8 *708:C2 37.609 
*END

*D_NET *283 7.06621e-05
*CONN
*I *710:C2 I *D OA222x2_ASAP7_75t_R
*I *709:Y O *D INVx1_ASAP7_75t_R
*CAP
1 *710:C2 2.24028e-05
2 *709:Y 2.24028e-05
3 *277:65 *710:C2 2.58566e-05
*RES
1 *709:Y *710:C2 49.3751 
*END

*D_NET *284 0.00112748
*CONN
*P clk I
*I *958:A I *D BUFx4_ASAP7_75t_R
*CAP
1 clk 2.73915e-05
2 *958:A 0
3 *284:18 8.49303e-06
4 *284:14 0.000375302
5 *284:12 0.000366809
6 *284:10 0.000135069
7 *284:8 0.000162461
8 *284:14 resp_msg[11] 3.39601e-07
9 *284:14 *448:21 7.93328e-06
10 *284:14 *448:77 3.72531e-05
11 *284:18 *334:304 6.42615e-06
12 *230:56 *284:18 0
13 *273:7 *284:14 0
*RES
1 clk *284:8 25.8685 
2 *284:8 *284:10 71.5671 
3 *284:10 *284:12 11.8 
4 *284:12 *284:14 124.29 
5 *284:14 *284:18 23.8641 
6 *284:18 *958:A 34.4 
*END

*D_NET *285 0.000376609
*CONN
*I *691:B2 I *D OA222x2_ASAP7_75t_R
*I *717:B I *D HAxp5_ASAP7_75t_R
*I *615:A1 I *D OA21x2_ASAP7_75t_R
*I *600:Y O *D INVx1_ASAP7_75t_R
*CAP
1 *691:B2 8.22105e-06
2 *717:B 5.06452e-06
3 *615:A1 0
4 *600:Y 3.59359e-05
5 *285:18 9.09227e-06
6 *285:14 5.69175e-05
7 *285:12 6.62962e-05
8 *285:8 4.11214e-05
9 *691:B2 *691:A1 6.7842e-07
10 *691:B2 *303:14 3.89037e-06
11 *691:B2 *303:22 5.85387e-06
12 *285:14 *691:A1 6.7842e-07
13 *285:14 *438:31 1.76928e-06
14 *600:A *285:8 0
15 *40:21 *717:B 6.6421e-06
16 *40:21 *285:18 1.039e-05
17 *208:189 *285:14 3.07169e-05
18 *211:245 *285:12 5.49212e-06
19 *216:6 *285:14 2.03608e-06
20 *216:10 *285:12 3.00916e-05
21 *216:25 *691:B2 2.52755e-07
22 *230:20 *717:B 1.81409e-05
23 *230:20 *285:18 2.41555e-05
24 *274:291 *285:12 1.31716e-05
*RES
1 *600:Y *285:8 47.7706 
2 *285:8 *285:12 27.337 
3 *285:12 *285:14 33.694 
4 *285:14 *285:18 25.0843 
5 *285:18 *615:A1 34.4 
6 *285:18 *717:B 41.158 
7 *285:12 *691:B2 21.4786 
*END

*D_NET *286 0.000497154
*CONN
*I *693:B2 I *D OA222x2_ASAP7_75t_R
*I *716:A I *D HAxp5_ASAP7_75t_R
*I *599:Y O *D INVx1_ASAP7_75t_R
*CAP
1 *693:B2 0
2 *716:A 0
3 *599:Y 1.1067e-05
4 *286:37 7.1417e-06
5 *286:24 4.88837e-05
6 *286:22 4.88837e-05
7 *286:20 3.00067e-05
8 *286:14 5.1169e-05
9 *286:8 2.50876e-05
10 *286:14 *334:257 2.86184e-05
11 *286:20 *748:CLK 0
12 *286:20 *304:20 3.31715e-05
13 *286:20 *334:273 4.61286e-07
14 *286:20 *409:10 5.10743e-06
15 *286:20 *438:12 1.08639e-05
16 *286:20 *438:31 3.32524e-06
17 *286:20 *447:362 6.59506e-06
18 *286:20 *447:399 0
19 *599:A *286:8 1.41856e-05
20 *716:B *286:24 2.0895e-06
21 *37:37 *286:24 5.38988e-05
22 *40:10 *286:20 3.32579e-06
23 *40:21 *286:20 2.77657e-06
24 *208:189 *286:24 4.2646e-05
25 *221:10 *286:8 2.67046e-05
26 *274:243 *286:14 1.4191e-06
27 *274:249 *286:14 1.59106e-05
28 *277:225 *286:14 1.04015e-05
29 *277:225 *286:20 1.34134e-05
*RES
1 *599:Y *286:8 42.4224 
2 *286:8 *286:14 29.6239 
3 *286:14 *286:20 44.454 
4 *286:20 *286:22 17.2 
5 *286:22 *286:24 35.8333 
6 *286:24 *716:A 17.2 
7 *286:14 *286:37 37.6001 
8 *286:37 *693:B2 17.2 
*END

*D_NET *287 0.000413571
*CONN
*I *628:A2 I *D OA33x2_ASAP7_75t_R
*I *715:B I *D HAxp5_ASAP7_75t_R
*I *694:B2 I *D OA222x2_ASAP7_75t_R
*I *598:Y O *D INVx1_ASAP7_75t_R
*CAP
1 *628:A2 0
2 *715:B 0
3 *694:B2 0
4 *598:Y 7.0121e-06
5 *287:35 3.21369e-05
6 *287:33 3.37229e-05
7 *287:29 7.73464e-06
8 *287:25 3.23036e-05
9 *287:16 2.20551e-05
10 *287:6 5.52222e-05
11 *287:16 *305:20 2.12481e-06
12 *287:35 *628:A1 1.66659e-05
13 *287:35 *334:290 0.000102763
14 *287:35 *411:10 5.67735e-06
15 *598:A *287:16 0
16 *694:B1 *287:25 5.28509e-06
17 *34:10 *287:25 1.13549e-06
18 *34:18 *287:35 0
19 *75:10 *287:16 1.36943e-05
20 *75:10 *287:25 0
21 *144:121 *287:35 5.79724e-07
22 *145:82 *287:29 5.85387e-06
23 *145:82 *287:33 3.46317e-06
24 *145:90 *287:25 4.84588e-06
25 *228:12 *287:25 2.05883e-06
26 *228:12 *287:35 0
27 *229:24 *287:25 4.94003e-06
28 *274:199 *287:25 1.48815e-05
29 *274:199 *287:35 2.63431e-05
30 *277:181 *287:25 1.3072e-05
*RES
1 *598:Y *287:6 19.8741 
2 *287:6 *287:16 46.3929 
3 *287:16 *694:B2 17.2 
4 *287:6 *287:25 41.9793 
5 *287:25 *287:29 20.409 
6 *287:29 *287:33 18.2696 
7 *287:33 *287:35 39.4216 
8 *287:35 *715:B 34.4 
9 *287:29 *628:A2 17.2 
*END

*D_NET *288 0.000187884
*CONN
*I *696:B2 I *D OA222x2_ASAP7_75t_R
*I *714:A I *D HAxp5_ASAP7_75t_R
*I *597:Y O *D INVx1_ASAP7_75t_R
*CAP
1 *696:B2 2.72695e-06
2 *714:A 0
3 *597:Y 0
4 *288:21 3.51472e-05
5 *288:10 4.31666e-05
6 *288:4 7.55869e-05
7 *288:10 *432:100 1.90624e-06
8 *288:21 *432:92 0
9 *288:21 *447:452 0
10 *635:A1 *288:10 6.47703e-06
11 *696:B1 *696:B2 1.73158e-06
12 *147:204 *288:10 0
13 *147:204 *288:21 0
14 *211:281 *288:21 9.77825e-06
15 *234:16 *288:10 3.32579e-06
16 *280:6 *696:B2 8.03705e-06
*RES
1 *597:Y *288:4 17.2 
2 *288:4 *288:10 37.3853 
3 *288:10 *714:A 34.4 
4 *288:4 *288:21 39.7266 
5 *288:21 *696:B2 36.5393 
*END

*D_NET *289 0.000313136
*CONN
*I *697:B2 I *D OA222x2_ASAP7_75t_R
*I *713:A I *D HAxp5_ASAP7_75t_R
*I *596:Y O *D INVx1_ASAP7_75t_R
*CAP
1 *697:B2 1.24753e-06
2 *713:A 0
3 *596:Y 1.71287e-06
4 *289:27 1.40793e-05
5 *289:16 4.2137e-05
6 *289:12 6.94892e-05
7 *289:6 4.18968e-05
8 *289:12 *307:28 2.05883e-06
9 *289:12 *343:6 1.08644e-05
10 *289:12 *432:64 2.39014e-05
11 *289:12 *432:75 2.9823e-05
12 *289:12 *447:441 5.37866e-07
13 *289:12 *447:452 1.89747e-06
14 *289:16 *339:14 4.92332e-06
15 *289:27 *343:12 8.33296e-06
16 *752:D *289:12 2.22736e-06
17 *30:10 *289:16 5.17782e-06
18 *93:8 *697:B2 3.68287e-06
19 *211:253 *289:27 1.51456e-05
20 *211:257 *289:6 5.62196e-06
21 *211:257 *289:12 9.75645e-06
22 *274:318 *289:27 1.86216e-05
*RES
1 *596:Y *289:6 18.8045 
2 *289:6 *289:12 43.7502 
3 *289:12 *289:16 40.1975 
4 *289:16 *713:A 17.2 
5 *289:6 *289:27 49.6055 
6 *289:27 *697:B2 18.2696 
*END

*D_NET *290 0.000293747
*CONN
*I *698:B2 I *D OA222x2_ASAP7_75t_R
*I *712:A I *D HAxp5_ASAP7_75t_R
*I *595:Y O *D INVx1_ASAP7_75t_R
*CAP
1 *698:B2 0
2 *712:A 4.65757e-05
3 *595:Y 1.74662e-05
4 *290:37 5.13521e-06
5 *290:29 2.41268e-05
6 *290:14 8.4354e-05
7 *290:10 3.62528e-05
8 *290:10 *323:12 1.07377e-06
9 *290:29 *320:12 1.12894e-06
10 *290:29 *334:352 2.98814e-07
11 *290:29 *334:362 1.2131e-06
12 *290:37 *308:6 1.01102e-06
13 *290:37 *320:6 1.3659e-05
14 *290:37 *453:8 2.20028e-06
15 *595:A *290:10 5.25794e-06
16 *25:22 *290:14 2.66797e-07
17 *25:30 *290:29 4.63777e-06
18 *27:10 *712:A 6.36827e-06
19 *231:8 *290:29 4.67779e-07
20 *231:12 *712:A 4.6198e-06
21 *274:295 *290:29 1.62058e-05
22 *274:301 *712:A 1.07377e-06
23 *274:303 *290:29 3.7559e-06
24 *274:349 *290:37 3.55712e-06
25 *277:261 *290:10 1.30409e-05
*RES
1 *595:Y *290:10 44.7884 
2 *290:10 *290:14 25.2224 
3 *290:14 *712:A 42.3368 
4 *290:14 *290:29 46.0731 
5 *290:29 *290:37 38.9885 
6 *290:37 *698:B2 17.2 
*END

*D_NET *291 0.000414043
*CONN
*I *726:A I *D HAxp5_ASAP7_75t_R
*I *699:B2 I *D OA222x2_ASAP7_75t_R
*I *646:B I *D AND3x1_ASAP7_75t_R
*I *594:Y O *D INVx1_ASAP7_75t_R
*CAP
1 *726:A 0
2 *699:B2 0
3 *646:B 0
4 *594:Y 1.76178e-05
5 *291:44 5.25795e-05
6 *291:37 5.53521e-06
7 *291:29 5.47908e-05
8 *291:25 0.00011199
9 *291:16 1.45629e-05
10 *291:6 4.23359e-05
11 *291:16 *446:16 2.46349e-07
12 *291:16 *447:38 3.37709e-06
13 *291:25 *446:16 5.52264e-06
14 *291:29 *711:A 2.09987e-05
15 *291:29 *301:10 3.42061e-05
16 *291:29 *447:50 5.2818e-06
17 *291:37 *699:A1 5.68573e-06
18 *291:37 *699:A2 1.52651e-06
19 *291:44 *446:10 1.44931e-05
20 *291:44 *446:16 2.22736e-06
21 *20:36 *291:16 8.06923e-06
22 *67:14 *291:44 0
23 *67:23 *291:44 7.61977e-06
24 *274:40 *291:37 5.37569e-06
*RES
1 *594:Y *291:6 25.2224 
2 *291:6 *291:16 43.8321 
3 *291:16 *646:B 17.2 
4 *291:6 *291:25 26.2107 
5 *291:25 *291:29 42.3368 
6 *291:29 *291:37 39.975 
7 *291:37 *699:B2 17.2 
8 *291:25 *291:44 38.8585 
9 *291:44 *726:A 34.4 
*END

*D_NET *292 0.000475273
*CONN
*I *653:A1 I *D OA22x2_ASAP7_75t_R
*I *725:B I *D HAxp5_ASAP7_75t_R
*I *701:B2 I *D OA222x2_ASAP7_75t_R
*I *593:Y O *D INVx1_ASAP7_75t_R
*CAP
1 *653:A1 1.84711e-06
2 *725:B 1.28546e-05
3 *701:B2 3.36206e-06
4 *593:Y 5.95104e-05
5 *292:39 3.71472e-05
6 *292:20 4.0681e-05
7 *292:18 2.97197e-05
8 *292:10 2.87002e-05
9 *292:6 6.96702e-05
10 *292:18 *334:91 0
11 *292:20 *324:8 1.98447e-05
12 *292:39 *324:8 2.689e-06
13 *292:39 *324:16 2.63086e-06
14 *292:39 *334:91 3.58577e-07
15 *292:39 *405:8 2.25196e-06
16 *292:39 *405:20 0
17 *593:A *292:6 0
18 *755:D *292:39 1.77587e-06
19 *65:6 *725:B 3.27643e-05
20 *80:10 *292:10 4.10928e-06
21 *80:10 *292:18 2.6409e-06
22 *144:60 *292:10 1.26211e-05
23 *144:60 *292:18 2.84286e-06
24 *144:64 *292:18 6.33206e-07
25 *147:14 *292:6 1.39221e-05
26 *208:30 *653:A1 2.52755e-07
27 *208:30 *292:18 1.72249e-05
28 *248:10 *292:20 5.16662e-05
29 *248:10 *292:39 2.24466e-05
30 *274:18 *292:10 0
31 *274:18 *292:18 0
32 *277:16 *292:10 1.10561e-06
*RES
1 *593:Y *292:6 43.4064 
2 *292:6 *292:10 27.337 
3 *292:10 *292:18 49.5168 
4 *292:18 *292:20 17.4581 
5 *292:20 *701:B2 36.0045 
6 *292:20 *292:39 49.038 
7 *292:39 *725:B 43.492 
8 *292:10 *653:A1 35.4697 
*END

*D_NET *293 0.000278283
*CONN
*I *724:A I *D HAxp5_ASAP7_75t_R
*I *702:B2 I *D OA222x2_ASAP7_75t_R
*I *657:A1 I *D OA21x2_ASAP7_75t_R
*I *592:Y O *D INVx2_ASAP7_75t_R
*CAP
1 *724:A 0
2 *702:B2 0
3 *657:A1 4.27147e-05
4 *592:Y 0
5 *293:30 5.9539e-05
6 *293:19 2.40724e-05
7 *293:13 8.36114e-05
8 *293:4 4.27147e-05
9 *293:19 *346:10 1.5911e-05
10 *293:19 *447:82 0
11 *293:30 *447:82 0
12 *12:10 *293:19 5.22486e-06
13 *81:10 *657:A1 0
14 *252:12 *657:A1 2.20493e-06
15 *274:61 *293:19 2.28976e-06
*RES
1 *592:Y *293:4 17.2 
2 *293:4 *657:A1 34.8492 
3 *293:4 *293:13 17.2 
4 *293:13 *293:19 38.9934 
5 *293:19 *702:B2 17.2 
6 *293:13 *293:30 49.8847 
7 *293:30 *724:A 17.2 
*END

*D_NET *294 0.000406528
*CONN
*I *723:B I *D HAxp5_ASAP7_75t_R
*I *661:A1 I *D OA21x2_ASAP7_75t_R
*I *703:B2 I *D OA222x2_ASAP7_75t_R
*I *591:Y O *D INVx2_ASAP7_75t_R
*CAP
1 *723:B 0
2 *661:A1 0
3 *703:B2 1.49478e-05
4 *591:Y 0
5 *294:42 1.32251e-05
6 *294:22 3.2947e-05
7 *294:14 5.84449e-05
8 *294:12 5.2125e-05
9 *294:4 2.49043e-05
10 *294:22 *446:74 1.15862e-05
11 *496:B *294:12 3.95845e-06
12 *496:B *294:42 1.10447e-05
13 *661:A2 *294:14 1.75355e-05
14 *703:B1 *703:B2 1.52651e-06
15 *703:C1 *703:B2 2.28976e-06
16 *703:C2 *703:B2 5.22376e-07
17 *723:A *294:42 2.20128e-06
18 *61:18 *294:12 0
19 *61:18 *294:42 5.52264e-06
20 *82:10 *294:14 8.87763e-06
21 *144:30 *294:12 5.17782e-06
22 *144:30 *294:42 1.44167e-06
23 *144:36 *294:12 1.33022e-05
24 *144:38 *294:14 9.04696e-05
25 *208:70 *294:22 0
26 *208:78 *294:14 1.62312e-05
27 *208:78 *294:22 0
28 *208:82 *294:14 1.44167e-06
29 *208:82 *294:22 7.46759e-06
30 *253:8 *703:B2 5.0551e-07
31 *255:10 *294:14 7.72307e-07
32 *277:146 *294:22 8.05934e-06
*RES
1 *591:Y *294:4 17.2 
2 *294:4 *294:12 42.6491 
3 *294:12 *294:14 37.4378 
4 *294:14 *294:22 48.7589 
5 *294:22 *703:B2 27.3617 
6 *294:14 *661:A1 17.2 
7 *294:4 *294:42 46.1415 
8 *294:42 *723:B 17.2 
*END

*D_NET *295 0.000515168
*CONN
*I *663:B I *D AND3x1_ASAP7_75t_R
*I *704:B2 I *D OA222x2_ASAP7_75t_R
*I *722:A I *D HAxp5_ASAP7_75t_R
*I *590:Y O *D INVx1_ASAP7_75t_R
*CAP
1 *663:B 7.01049e-07
2 *704:B2 0
3 *722:A 2.65033e-05
4 *590:Y 0
5 *295:39 1.94544e-05
6 *295:33 2.01554e-05
7 *295:31 2.21474e-05
8 *295:23 5.06495e-05
9 *295:21 3.65697e-05
10 *295:10 6.25181e-05
11 *295:6 4.40824e-05
12 *663:B *447:130 3.51726e-06
13 *295:10 *440:31 7.77573e-07
14 *295:10 *441:15 0
15 *295:21 *334:148 2.81851e-06
16 *295:21 *440:31 4.7643e-07
17 *295:23 *333:12 5.77872e-05
18 *295:23 *334:150 6.31682e-05
19 *295:31 *334:162 6.07479e-06
20 *295:39 *329:14 8.13414e-06
21 *295:39 *447:115 1.32809e-05
22 *295:39 *447:130 4.45647e-06
23 *208:109 *295:31 4.97876e-07
24 *211:55 *663:B 5.20126e-06
25 *211:55 *295:39 1.75679e-05
26 *211:57 *295:39 2.85942e-05
27 *211:74 *295:39 7.71191e-06
28 *274:103 *295:23 1.04611e-05
29 *277:99 *295:23 1.86049e-06
*RES
1 *590:Y *295:6 34.4 
2 *295:6 *295:10 43.1056 
3 *295:10 *722:A 28.4313 
4 *295:6 *295:21 22.8317 
5 *295:21 *295:23 37.9726 
6 *295:23 *295:31 42.6324 
7 *295:31 *295:33 17.2 
8 *295:33 *295:39 37.1817 
9 *295:39 *704:B2 17.2 
10 *295:33 *663:B 36.1834 
*END

*D_NET *296 0.000152976
*CONN
*I *721:B I *D HAxp5_ASAP7_75t_R
*I *971:A I *D BUFx3_ASAP7_75t_R
*I *589:Y O *D INVx2_ASAP7_75t_R
*CAP
1 *721:B 3.13439e-05
2 *971:A 0
3 *589:Y 0
4 *296:10 8.32349e-06
5 *296:4 3.96673e-05
6 *296:10 *441:15 1.19496e-05
7 *52:23 *721:B 6.16918e-05
*RES
1 *589:Y *296:4 17.2 
2 *296:4 *296:10 43.4107 
3 *296:10 *971:A 17.2 
4 *296:4 *721:B 41.2671 
*END

*D_NET *297 0.000286688
*CONN
*I *720:B I *D HAxp5_ASAP7_75t_R
*I *943:A I *D BUFx3_ASAP7_75t_R
*I *588:Y O *D INVx1_ASAP7_75t_R
*CAP
1 *720:B 0
2 *943:A 0
3 *588:Y 0
4 *297:33 2.21931e-05
5 *297:20 2.08364e-05
6 *297:12 8.76962e-05
7 *297:10 7.30274e-05
8 *297:4 2.83606e-05
9 *297:12 *350:12 5.39412e-05
10 *297:20 *350:20 6.33206e-07
11 *297:20 *350:24 0
12 *51:8 *297:33 0
*RES
1 *588:Y *297:4 17.2 
2 *297:4 *297:10 37.779 
3 *297:10 *297:12 37.9726 
4 *297:12 *297:20 46.9277 
5 *297:20 *943:A 17.2 
6 *297:4 *297:33 48.2808 
7 *297:33 *720:B 17.2 
*END

*D_NET *298 8.62874e-05
*CONN
*I *719:A I *D HAxp5_ASAP7_75t_R
*I *908:A I *D BUFx3_ASAP7_75t_R
*I *587:Y O *D INVx1_ASAP7_75t_R
*CAP
1 *719:A 6.22213e-06
2 *908:A 3.67561e-06
3 *587:Y 1.19067e-05
4 *298:10 2.18044e-05
5 *719:A *419:44 4.97342e-06
6 *908:A *401:8 9.30483e-06
7 *298:10 *419:44 4.42421e-06
8 *56:19 *719:A 1.00799e-05
9 *56:19 *298:10 1.00799e-05
10 *211:45 *298:10 3.81627e-06
*RES
1 *587:Y *298:10 44.9585 
2 *298:10 *908:A 37.0741 
3 *298:10 *719:A 42.2843 
*END

*D_NET *299 9.73531e-05
*CONN
*I *945:A I *D BUFx3_ASAP7_75t_R
*I *718:A I *D HAxp5_ASAP7_75t_R
*I *586:Y O *D INVx1_ASAP7_75t_R
*CAP
1 *945:A 0
2 *718:A 0
3 *586:Y 9.81097e-06
4 *299:27 1.44236e-05
5 *299:12 7.60758e-06
6 *299:6 3.18421e-05
7 *586:A *299:6 6.6195e-06
8 *586:A *299:27 3.73144e-06
9 *6:8 *299:27 8.33296e-06
10 *43:21 *299:12 2.22736e-06
11 *43:21 *299:27 5.52807e-07
12 *44:8 *299:12 1.22048e-05
*RES
1 *586:Y *299:6 22.0134 
2 *299:6 *299:12 42.2843 
3 *299:12 *718:A 17.2 
4 *299:6 *299:27 44.8167 
5 *299:27 *945:A 17.2 
*END

*D_NET *300 0.000125774
*CONN
*I *727:A I *D HAxp5_ASAP7_75t_R
*I *610:A1 I *D AO221x1_ASAP7_75t_R
*I *690:C2 I *D OA222x2_ASAP7_75t_R
*I *463:Y O *D INVx2_ASAP7_75t_R
*CAP
1 *727:A 0
2 *610:A1 3.14676e-06
3 *690:C2 3.35498e-06
4 *463:Y 1.15108e-05
5 *300:36 1.95208e-05
6 *300:17 3.18151e-05
7 *300:6 2.40133e-05
8 *690:C2 *302:12 4.49469e-06
9 *300:6 *302:12 5.77612e-06
10 *300:36 *610:B2 7.85184e-06
11 *300:36 *447:227 2.74606e-06
12 *610:C *610:A1 1.52651e-06
13 *610:C *300:36 1.04475e-06
14 *208:212 *610:A1 1.89962e-06
15 *208:212 *300:17 7.07262e-06
16 *211:211 *610:A1 0
17 *211:211 *300:17 0
18 *211:211 *300:36 0
*RES
1 *463:Y *300:6 24.6875 
2 *300:6 *690:C2 20.409 
3 *300:6 *300:17 23.958 
4 *300:17 *610:A1 37.1591 
5 *300:17 *300:36 48.4472 
6 *300:36 *727:A 34.4 
*END

*D_NET *301 0.000245452
*CONN
*I *648:A1 I *D AO221x1_ASAP7_75t_R
*I *711:A I *D FAx1_ASAP7_75t_R
*I *699:C2 I *D OA222x2_ASAP7_75t_R
*I *462:Y O *D INVx1_ASAP7_75t_R
*CAP
1 *648:A1 0
2 *711:A 3.85461e-05
3 *699:C2 0
4 *462:Y 0
5 *301:37 8.82755e-06
6 *301:29 2.51641e-05
7 *301:10 1.37514e-05
8 *301:4 3.5961e-05
9 *711:A *446:25 4.05812e-06
10 *301:10 *446:25 3.29986e-06
11 *301:10 *447:44 2.36256e-05
12 *301:10 *447:50 2.03526e-06
13 *301:29 *648:B2 5.0551e-07
14 *301:37 *344:8 2.98814e-08
15 *648:C *301:29 2.88806e-06
16 *711:B *301:29 0
17 *23:18 *301:29 0
18 *23:18 *301:37 2.20128e-06
19 *208:40 *301:37 1.12894e-06
20 *211:175 *711:A 3.22727e-06
21 *211:183 *301:29 5.37925e-06
22 *211:183 *301:37 0
23 *245:10 *301:37 2.67535e-06
24 *274:40 *301:10 0
25 *274:50 *301:10 5.37866e-07
26 *277:43 *301:10 1.64046e-05
27 *291:29 *711:A 2.09987e-05
28 *291:29 *301:10 3.42061e-05
*RES
1 *462:Y *301:4 17.2 
2 *301:4 *301:10 35.246 
3 *301:10 *699:C2 34.4 
4 *301:4 *711:A 17.3818 
5 *711:A *301:29 43.7188 
6 *301:29 *301:37 41.073 
7 *301:37 *648:A1 17.2 
*END

*D_NET *302 0.000239815
*CONN
*I *690:A2 I *D OA222x2_ASAP7_75t_R
*I *689:Y O *D BUFx2_ASAP7_75t_R
*CAP
1 *690:A2 0
2 *689:Y 0
3 *302:20 4.54279e-06
4 *302:12 3.81168e-05
5 *302:8 8.68786e-05
6 *302:6 5.33046e-05
7 *302:8 *334:246 0
8 *302:12 *436:63 0
9 *302:20 *447:227 2.35211e-06
10 *302:20 *447:242 2.16624e-06
11 *610:C *302:8 1.54378e-05
12 *690:B1 *302:12 1.03895e-05
13 *690:B2 *302:12 5.51397e-07
14 *690:B2 *302:20 3.68287e-06
15 *690:C2 *302:12 4.49469e-06
16 *208:212 *302:8 8.80512e-06
17 *215:14 *302:8 3.31686e-06
18 *274:218 *302:20 0
19 *300:6 *302:12 5.77612e-06
*RES
1 *689:Y *302:6 34.4 
2 *302:6 *302:8 45.6164 
3 *302:8 *302:12 33.7796 
4 *302:12 *302:20 38.2855 
5 *302:20 *690:A2 17.2 
*END

*D_NET *303 0.00017449
*CONN
*I *691:A2 I *D OA222x2_ASAP7_75t_R
*I *686:Y O *D BUFx2_ASAP7_75t_R
*CAP
1 *691:A2 0
2 *686:Y 2.83207e-05
3 *303:22 5.36467e-06
4 *303:14 2.98876e-05
5 *303:8 5.28436e-05
6 *303:8 *339:24 2.18045e-05
7 *691:B1 *303:14 1.04475e-06
8 *691:B2 *303:14 3.89037e-06
9 *691:B2 *303:22 5.85387e-06
10 *147:135 *303:14 0
11 *147:135 *303:22 8.20229e-06
12 *216:25 *303:14 0
13 *216:25 *303:22 5.51397e-07
14 *274:295 *303:14 1.91241e-06
15 *277:253 *303:14 1.4814e-05
*RES
1 *686:Y *303:8 49.9099 
2 *303:8 *303:14 33.8399 
3 *303:14 *303:22 38.8203 
4 *303:22 *691:A2 17.2 
*END

*D_NET *304 0.000517523
*CONN
*I *693:A2 I *D OA222x2_ASAP7_75t_R
*I *684:Y O *D BUFx2_ASAP7_75t_R
*CAP
1 *693:A2 0
2 *684:Y 5.42126e-06
3 *304:20 1.44305e-05
4 *304:12 0.000211761
5 *304:10 0.000197331
6 *304:8 5.42126e-06
7 *304:12 *447:364 6.4129e-06
8 *304:12 *447:383 1.07377e-06
9 *304:20 *693:A1 7.63254e-07
10 *304:20 *334:257 0
11 *304:20 *438:12 1.46623e-05
12 *213:11 *304:8 0
13 *229:12 *304:12 0
14 *274:249 *304:20 1.49407e-08
15 *274:268 *304:12 2.70592e-05
16 *286:20 *304:20 3.31715e-05
*RES
1 *684:Y *304:8 37.779 
2 *304:8 *304:10 17.2 
3 *304:10 *304:12 85.0372 
4 *304:12 *304:20 47.8026 
5 *304:20 *693:A2 17.2 
*END

*D_NET *305 0.000688226
*CONN
*I *694:A2 I *D OA222x2_ASAP7_75t_R
*I *608:Y O *D BUFx2_ASAP7_75t_R
*CAP
1 *694:A2 0
2 *608:Y 1.26499e-05
3 *305:20 7.7647e-05
4 *305:18 8.19911e-05
5 *305:12 0.000138564
6 *305:10 0.00013422
7 *305:8 1.26499e-05
8 *305:20 *447:341 4.23705e-06
9 *694:B1 *305:20 3.68287e-06
10 *694:C2 *305:20 1.03895e-05
11 *37:8 *305:20 9.66933e-06
12 *74:10 *305:12 1.60115e-05
13 *90:12 *305:20 2.69007e-05
14 *91:6 *305:20 1.34561e-05
15 *140:18 *305:20 3.05302e-06
16 *208:210 *305:20 4.52303e-05
17 *211:228 *305:18 1.15587e-05
18 *222:12 *305:12 0
19 *277:194 *305:20 2.66207e-05
20 *277:200 *305:20 5.75695e-05
21 *287:16 *305:20 2.12481e-06
*RES
1 *608:Y *305:8 43.4107 
2 *305:8 *305:10 17.2 
3 *305:10 *305:12 63.6442 
4 *305:12 *305:18 38.3422 
5 *305:18 *305:20 68.4576 
6 *305:20 *694:A2 17.2 
*END

*D_NET *306 0.000766268
*CONN
*I *696:A2 I *D OA222x2_ASAP7_75t_R
*I *607:Y O *D BUFx2_ASAP7_75t_R
*CAP
1 *696:A2 0
2 *607:Y 0
3 *306:28 1.973e-05
4 *306:20 8.79802e-05
5 *306:18 6.82501e-05
6 *306:16 4.3676e-05
7 *306:14 4.91092e-05
8 *306:8 4.67351e-05
9 *306:6 4.13019e-05
10 *306:8 *334:375 7.62754e-06
11 *306:8 *397:33 0
12 *306:8 *397:42 0
13 *306:14 *343:25 5.09299e-06
14 *306:20 *447:458 2.15886e-05
15 *306:28 *696:A1 1.49465e-05
16 *14:10 *306:8 2.35211e-06
17 *14:22 *306:8 5.88243e-05
18 *15:10 *306:16 5.26269e-05
19 *15:16 *306:16 1.45158e-05
20 *147:143 *306:8 3.03529e-05
21 *147:154 *306:8 5.06293e-05
22 *147:165 *306:8 4.692e-05
23 *147:182 *306:8 2.18965e-05
24 *147:194 *306:16 2.26703e-05
25 *234:16 *306:28 0
26 *236:8 *306:8 3.95845e-06
27 *236:25 *306:8 1.12894e-06
28 *238:10 *306:8 2.01457e-05
29 *239:14 *306:8 2.6904e-05
30 *239:14 *306:16 1.37455e-06
31 *280:6 *306:28 5.92989e-06
*RES
1 *607:Y *306:6 34.4 
2 *306:6 *306:8 60.8219 
3 *306:8 *306:14 38.1438 
4 *306:14 *306:16 42.8006 
5 *306:16 *306:18 17.2 
6 *306:18 *306:20 44.3905 
7 *306:20 *306:28 49.2937 
8 *306:28 *696:A2 17.2 
*END

*D_NET *307 0.000556893
*CONN
*I *697:A2 I *D OA222x2_ASAP7_75t_R
*I *604:Y O *D BUFx2_ASAP7_75t_R
*CAP
1 *697:A2 0
2 *604:Y 0
3 *307:28 1.35422e-05
4 *307:20 0.000143796
5 *307:18 0.00014228
6 *307:14 2.38318e-05
7 *307:8 7.57641e-05
8 *307:6 6.39578e-05
9 *307:8 *340:24 0
10 *307:8 *362:19 3.4622e-06
11 *307:8 *383:8 4.84072e-06
12 *307:14 *891:A 1.12839e-05
13 *307:14 *367:13 5.08628e-05
14 *307:18 *338:34 0
15 *307:28 *697:A1 3.89037e-06
16 *307:28 *339:18 3.95007e-06
17 *307:28 *432:64 1.12894e-06
18 *307:28 *447:441 8.51183e-06
19 *93:8 *307:28 3.73144e-06
20 *289:12 *307:28 2.05883e-06
*RES
1 *604:Y *307:6 34.4 
2 *307:6 *307:8 48.9954 
3 *307:8 *307:14 49.9099 
4 *307:14 *307:18 23.958 
5 *307:18 *307:20 51.878 
6 *307:20 *307:28 45.9714 
7 *307:28 *697:A2 17.2 
*END

*D_NET *308 0.000197223
*CONN
*I *698:A2 I *D OA222x2_ASAP7_75t_R
*I *511:Y O *D BUFx2_ASAP7_75t_R
*CAP
1 *698:A2 0
2 *511:Y 6.65725e-05
3 *308:14 6.99605e-06
4 *308:6 7.35685e-05
5 *308:6 *698:A1 3.3921e-06
6 *308:6 *320:6 0
7 *308:14 *698:A1 9.75645e-06
8 *308:14 *320:6 2.88806e-06
9 *308:14 *334:352 1.15587e-05
10 *698:C2 *308:6 2.03608e-06
11 *25:32 *308:14 6.7842e-07
12 *148:13 *308:6 3.16328e-06
13 *211:253 *308:14 1.19507e-05
14 *274:349 *308:6 1.44639e-06
15 *277:257 *308:6 2.20493e-06
16 *290:37 *308:6 1.01102e-06
*RES
1 *511:Y *308:6 46.6154 
2 *308:6 *308:14 42.6208 
3 *308:14 *698:A2 17.2 
*END

*D_NET *309 0.000172309
*CONN
*I *609:A2 I *D AO21x1_ASAP7_75t_R
*I *502:Y O *D BUFx2_ASAP7_75t_R
*CAP
1 *609:A2 0
2 *502:Y 1.76795e-05
3 *309:12 5.73939e-05
4 *309:10 5.73939e-05
5 *309:8 1.76795e-05
6 *147:107 *309:12 3.16509e-06
7 *147:116 *309:12 1.89965e-05
*RES
1 *502:Y *309:8 47.3528 
2 *309:8 *309:10 17.2 
3 *309:10 *309:12 38.5074 
4 *309:12 *609:A2 17.2 
*END

*D_NET *310 0.000103692
*CONN
*I *647:A2 I *D AO21x1_ASAP7_75t_R
*I *488:Y O *D BUFx2_ASAP7_75t_R
*CAP
1 *647:A2 0
2 *488:Y 1.16672e-05
3 *310:14 3.4803e-05
4 *310:8 4.64702e-05
5 *310:14 *647:A1 1.45651e-06
6 *310:14 *334:54 9.66472e-07
7 *647:B *310:14 8.3281e-06
*RES
1 *488:Y *310:8 39.2134 
2 *310:8 *310:14 41.8659 
3 *310:14 *647:A2 17.2 
*END

*D_NET *311 0.000166976
*CONN
*I *652:A2 I *D AO221x2_ASAP7_75t_R
*I *479:Y O *D BUFx2_ASAP7_75t_R
*CAP
1 *652:A2 6.08613e-06
2 *479:Y 0
3 *311:8 6.7827e-05
4 *311:6 6.17409e-05
5 *652:A2 *652:A1 2.88806e-06
6 *652:A2 *334:80 2.88806e-06
7 *311:8 *324:8 1.10019e-05
8 *311:8 *334:80 3.16603e-06
9 *311:8 *436:36 1.70866e-06
10 *3:20 *311:8 9.66909e-06
11 *144:64 *311:8 0
*RES
1 *479:Y *311:6 34.4 
2 *311:6 *311:8 47.8691 
3 *311:8 *652:A2 38.6786 
*END

*D_NET *312 0.000131783
*CONN
*I *655:A2 I *D AO21x1_ASAP7_75t_R
*I *468:Y O *D BUFx2_ASAP7_75t_R
*CAP
1 *655:A2 0
2 *468:Y 5.84487e-05
3 *312:12 6.34432e-06
4 *312:6 6.4793e-05
5 *312:12 *334:166 5.49212e-07
6 *147:53 *312:12 1.64764e-06
*RES
1 *468:Y *312:6 42.3368 
2 *312:6 *312:12 38.9053 
3 *312:12 *655:A2 17.2 
*END

*D_NET *313 5.90511e-05
*CONN
*I *699:A2 I *D OA222x2_ASAP7_75t_R
*I *466:Y O *D BUFx2_ASAP7_75t_R
*CAP
1 *699:A2 6.39201e-06
2 *466:Y 1.16778e-05
3 *313:10 1.80698e-05
4 *313:10 *447:44 0
5 *274:40 *313:10 4.83862e-06
6 *274:50 *699:A2 1.17077e-05
7 *274:50 *313:10 4.83862e-06
8 *291:37 *699:A2 1.52651e-06
*RES
1 *466:Y *313:10 41.6361 
2 *313:10 *699:A2 39.2134 
*END

*D_NET *314 0.000153064
*CONN
*I *659:A2 I *D AO21x1_ASAP7_75t_R
*I *464:Y O *D BUFx2_ASAP7_75t_R
*CAP
1 *659:A2 0
2 *464:Y 4.94602e-05
3 *314:14 9.57554e-06
4 *314:6 5.90358e-05
5 *314:6 *328:12 2.3331e-05
6 *314:14 *334:166 1.09067e-06
7 *314:14 *347:22 2.05883e-06
8 *147:53 *314:14 5.52652e-06
9 *147:62 *314:14 2.98532e-06
*RES
1 *464:Y *314:6 40.1975 
2 *314:6 *314:14 42.2276 
3 *314:14 *659:A2 17.2 
*END

*D_NET *315 0.000118959
*CONN
*I *664:A2 I *D AO21x1_ASAP7_75t_R
*I *867:Y O *D BUFx2_ASAP7_75t_R
*CAP
1 *664:A2 0
2 *867:Y 4.40799e-06
3 *315:12 3.59912e-05
4 *315:8 4.03992e-05
5 *315:12 *901:A 3.19655e-05
6 *315:12 *334:186 6.19506e-06
*RES
1 *867:Y *315:8 37.2158 
2 *315:8 *315:12 40.7323 
3 *315:12 *664:A2 17.2 
*END

*D_NET *316 7.75386e-05
*CONN
*I *668:A2 I *D AO21x1_ASAP7_75t_R
*I *868:Y O *D BUFx2_ASAP7_75t_R
*CAP
1 *668:A2 9.16789e-06
2 *868:Y 2.05666e-05
3 *316:10 2.97345e-05
4 *316:10 *334:190 3.47607e-06
5 *316:10 *334:207 1.89962e-06
6 *316:10 *372:13 3.81627e-06
7 *147:70 *668:A2 8.87763e-06
*RES
1 *868:Y *316:10 48.4472 
2 *316:10 *668:A2 40.2831 
*END

*D_NET *317 0.000122318
*CONN
*I *671:A2 I *D AO21x1_ASAP7_75t_R
*I *869:Y O *D BUFx2_ASAP7_75t_R
*CAP
1 *671:A2 0
2 *869:Y 1.63047e-05
3 *317:14 3.2446e-05
4 *317:8 4.87507e-05
5 *317:8 *868:A 2.93253e-06
6 *317:8 *372:13 1.85304e-06
7 *317:14 *671:A1 2.0895e-06
8 *317:14 *334:190 0
9 *317:14 *334:207 5.51397e-07
10 *317:14 *373:15 1.73899e-05
*RES
1 *869:Y *317:8 41.3527 
2 *317:8 *317:14 41.8906 
3 *317:14 *671:A2 17.2 
*END

*D_NET *318 0.000602706
*CONN
*I *677:A2 I *D AO221x2_ASAP7_75t_R
*I *870:Y O *D BUFx2_ASAP7_75t_R
*CAP
1 *677:A2 0
2 *870:Y 5.43935e-06
3 *318:20 9.32686e-06
4 *318:12 0.000245089
5 *318:10 0.000235762
6 *318:8 5.43935e-06
7 *318:8 *334:190 0
8 *318:12 *677:A1 5.0551e-07
9 *318:12 *677:B1 1.44167e-06
10 *318:20 *677:A1 5.41446e-06
11 *318:20 *677:B1 1.12894e-06
12 *318:20 *401:8 2.90209e-08
13 *318:20 *401:14 2.84286e-06
14 *677:B2 *318:12 2.6409e-06
15 *677:C *318:12 1.44167e-06
16 *677:C *318:20 5.85387e-06
17 *211:49 *318:12 7.23201e-05
18 *211:53 *318:12 3.1923e-06
19 *267:8 *318:20 4.83862e-06
*RES
1 *870:Y *318:8 37.779 
2 *318:8 *318:10 17.2 
3 *318:10 *318:12 111.778 
4 *318:12 *318:20 41.5511 
5 *318:20 *677:A2 17.2 
*END

*D_NET *319 0.00066808
*CONN
*I *682:A2 I *D AO221x2_ASAP7_75t_R
*I *871:Y O *D BUFx2_ASAP7_75t_R
*CAP
1 *682:A2 3.21029e-06
2 *871:Y 0
3 *319:8 0.00025264
4 *319:6 0.00024943
5 *319:8 *569:A 5.09995e-06
6 *319:8 *352:17 0
7 *319:8 *428:14 1.85401e-05
8 *319:8 *439:25 0
9 *319:8 *452:10 2.06182e-05
10 *481:B *319:8 0
11 *486:A2 *319:8 8.71771e-06
12 *565:B *319:8 4.48523e-06
13 *570:B2 *319:8 1.15354e-05
14 *574:B *319:8 0
15 *41:62 *319:8 0
16 *116:54 *319:8 0
17 *119:10 *319:8 2.25787e-06
18 *119:21 *319:8 2.07029e-05
19 *123:18 *319:8 6.48911e-05
20 *190:10 *319:8 0
21 *193:14 *319:8 1.62854e-06
22 *196:18 *319:8 5.52807e-07
23 *271:14 *682:A2 3.77e-06
*RES
1 *871:Y *319:6 34.4 
2 *319:6 *319:8 207.245 
3 *319:8 *682:A2 36.5393 
*END

*D_NET *320 0.000257758
*CONN
*I *613:A2 I *D AO21x1_ASAP7_75t_R
*I *872:Y O *D BUFx2_ASAP7_75t_R
*CAP
1 *613:A2 0
2 *872:Y 0
3 *320:12 9.988e-06
4 *320:6 8.36923e-05
5 *320:4 7.37043e-05
6 *320:6 *872:A 1.21211e-05
7 *320:12 *334:352 2.98697e-05
8 *698:C2 *320:6 1.75355e-05
9 *148:13 *320:6 1.18822e-05
10 *274:295 *320:12 1.2892e-06
11 *290:29 *320:12 1.12894e-06
12 *290:37 *320:6 1.3659e-05
13 *308:6 *320:6 0
14 *308:14 *320:6 2.88806e-06
*RES
1 *872:Y *320:4 17.2 
2 *320:4 *320:6 34.7636 
3 *320:6 *320:12 44.537 
4 *320:12 *613:A2 17.2 
*END

*D_NET *321 8.0556e-05
*CONN
*I *617:B I *D NOR2x1_ASAP7_75t_R
*I *873:Y O *D BUFx2_ASAP7_75t_R
*CAP
1 *617:B 0
2 *873:Y 6.54619e-06
3 *321:12 2.42081e-05
4 *321:8 3.07543e-05
5 *619:B *321:12 1.90474e-05
*RES
1 *873:Y *321:8 38.9053 
2 *321:8 *321:12 33.7796 
3 *321:12 *617:B 17.2 
*END

*D_NET *322 9.04843e-05
*CONN
*I *627:A2 I *D AO21x1_ASAP7_75t_R
*I *874:Y O *D BUFx2_ASAP7_75t_R
*CAP
1 *627:A2 0
2 *874:Y 0
3 *322:12 4.1779e-05
4 *322:6 4.1779e-05
5 *627:B *322:12 6.92634e-06
*RES
1 *874:Y *322:6 34.4 
2 *322:6 *322:12 46.6227 
3 *322:12 *627:A2 17.2 
*END

*D_NET *323 0.000169179
*CONN
*I *630:A I *D INVx1_ASAP7_75t_R
*I *875:Y O *D BUFx2_ASAP7_75t_R
*CAP
1 *630:A 0
2 *875:Y 7.69877e-06
3 *323:12 5.30924e-05
4 *323:10 5.30924e-05
5 *323:8 7.69877e-06
6 *595:A *323:12 2.85598e-05
7 *642:B *323:12 3.89037e-06
8 *14:22 *323:12 1.40724e-05
9 *147:154 *323:8 0
10 *290:10 *323:12 1.07377e-06
*RES
1 *875:Y *323:8 40.0317 
2 *323:8 *323:10 17.2 
3 *323:10 *323:12 33.694 
4 *323:12 *630:A 17.2 
*END

*D_NET *324 0.00034591
*CONN
*I *701:A2 I *D OA222x2_ASAP7_75t_R
*I *876:Y O *D BUFx2_ASAP7_75t_R
*CAP
1 *701:A2 7.33839e-06
2 *876:Y 0
3 *324:16 1.79733e-05
4 *324:8 8.153e-05
5 *324:6 7.08951e-05
6 *701:A2 *701:A1 2.03526e-06
7 *324:8 *334:72 4.98625e-05
8 *324:8 *334:80 6.31056e-06
9 *324:8 *334:91 2.33507e-05
10 *324:8 *366:13 7.35063e-07
11 *324:8 *436:36 1.66448e-05
12 *324:16 *405:8 1.49407e-07
13 *324:16 *446:100 3.88115e-06
14 *324:16 *447:211 7.69609e-06
15 *755:D *324:8 1.79856e-05
16 *211:142 *324:8 0
17 *248:10 *324:8 3.3563e-06
18 *292:20 *324:8 1.98447e-05
19 *292:39 *324:8 2.689e-06
20 *292:39 *324:16 2.63086e-06
21 *311:8 *324:8 1.10019e-05
*RES
1 *876:Y *324:6 34.4 
2 *324:6 *324:8 73.4932 
3 *324:8 *324:16 39.4874 
4 *324:16 *701:A2 37.609 
*END

*D_NET *325 0.000151097
*CONN
*I *638:A2 I *D AO21x1_ASAP7_75t_R
*I *877:Y O *D BUFx2_ASAP7_75t_R
*CAP
1 *638:A2 1.54818e-05
2 *877:Y 2.77749e-05
3 *325:8 4.32566e-05
4 *638:A2 *338:34 4.29278e-06
5 *325:8 *891:A 4.76072e-05
6 *638:B *638:A2 1.35684e-06
7 *238:10 *638:A2 6.28016e-06
8 *243:10 *638:A2 5.04661e-06
*RES
1 *877:Y *325:8 49.9099 
2 *325:8 *638:A2 45.2949 
*END

*D_NET *326 8.23454e-05
*CONN
*I *643:A2 I *D AO21x1_ASAP7_75t_R
*I *878:Y O *D BUFx2_ASAP7_75t_R
*CAP
1 *643:A2 2.02624e-05
2 *878:Y 2.02624e-05
3 *643:A2 *368:13 2.25106e-05
4 *643:B *643:A2 5.85387e-06
5 *14:16 *643:A2 1.34271e-05
6 *242:10 *643:A2 2.90209e-08
*RES
1 *878:Y *643:A2 49.3751 
*END

*D_NET *327 0.000266589
*CONN
*I *702:A2 I *D OA222x2_ASAP7_75t_R
*I *879:Y O *D BUFx2_ASAP7_75t_R
*CAP
1 *702:A2 7.86336e-06
2 *879:Y 0
3 *327:16 5.18148e-05
4 *327:10 8.47133e-05
5 *327:6 4.07619e-05
6 *702:A2 *702:A1 7.35354e-06
7 *327:10 *346:12 0
8 *327:16 *447:71 1.66587e-05
9 *147:38 *702:A2 5.22376e-07
10 *208:61 *327:16 0
11 *208:70 *327:16 0
12 *211:192 *327:16 9.07421e-06
13 *250:14 *327:16 4.78269e-05
*RES
1 *879:Y *327:6 34.4 
2 *327:6 *327:10 46.4846 
3 *327:10 *327:16 43.6898 
4 *327:16 *702:A2 39.2134 
*END

*D_NET *328 0.0001109
*CONN
*I *703:A2 I *D OA222x2_ASAP7_75t_R
*I *880:Y O *D BUFx2_ASAP7_75t_R
*CAP
1 *703:A2 0
2 *880:Y 1.02154e-05
3 *328:12 3.06411e-05
4 *328:8 4.08565e-05
5 *328:12 *447:94 2.20493e-06
6 *328:12 *447:98 3.65131e-06
7 *314:6 *328:12 2.3331e-05
*RES
1 *880:Y *328:8 40.0317 
2 *328:8 *328:12 40.7323 
3 *328:12 *703:A2 17.2 
*END

*D_NET *329 0.00017522
*CONN
*I *704:A2 I *D OA222x2_ASAP7_75t_R
*I *881:Y O *D BUFx2_ASAP7_75t_R
*CAP
1 *704:A2 0
2 *881:Y 6.16892e-05
3 *329:14 1.33064e-05
4 *329:6 7.49957e-05
5 *329:14 *704:A1 9.08513e-06
6 *329:14 *334:164 0
7 *147:62 *329:14 8.0094e-06
8 *295:39 *329:14 8.13414e-06
*RES
1 *881:Y *329:6 44.4761 
2 *329:6 *329:14 43.6337 
3 *329:14 *704:A2 17.2 
*END

*D_NET *330 9.85682e-05
*CONN
*I *705:A2 I *D OA222x2_ASAP7_75t_R
*I *882:Y O *D BUFx2_ASAP7_75t_R
*CAP
1 *705:A2 0
2 *882:Y 4.61031e-06
3 *330:12 3.20555e-05
4 *330:8 3.66658e-05
5 *330:8 *334:190 1.34402e-05
6 *330:12 *705:A1 9.75645e-06
7 *330:12 *705:B2 2.03997e-06
*RES
1 *882:Y *330:8 38.9053 
2 *330:8 *330:12 34.3144 
3 *330:12 *705:A2 17.2 
*END

*D_NET *331 0.000160965
*CONN
*I *706:A2 I *D OA222x2_ASAP7_75t_R
*I *883:Y O *D BUFx2_ASAP7_75t_R
*CAP
1 *706:A2 2.95274e-06
2 *883:Y 1.21102e-05
3 *331:10 3.9694e-05
4 *331:8 4.88514e-05
5 *331:8 *451:6 0
6 *331:10 *349:37 3.79923e-06
7 *331:10 *350:30 5.37569e-06
8 *331:10 *350:38 8.33296e-06
9 *331:10 *447:153 0
10 *211:106 *331:10 1.87953e-05
11 *274:152 *331:10 2.10531e-05
*RES
1 *883:Y *331:8 39.2134 
2 *331:8 *331:10 38.2953 
3 *331:10 *706:A2 36.0045 
*END

*D_NET *332 0.000313488
*CONN
*I *708:A2 I *D OA222x2_ASAP7_75t_R
*I *884:Y O *D BUFx2_ASAP7_75t_R
*CAP
1 *708:A2 5.50367e-06
2 *884:Y 0
3 *332:12 1.56804e-05
4 *332:6 9.05007e-05
5 *332:4 8.03239e-05
6 *708:A2 *437:8 5.23747e-05
7 *708:A2 *447:171 4.67528e-05
8 *332:12 *437:14 0
9 *332:12 *437:38 1.09067e-06
10 *20:136 *332:6 1.06092e-05
11 *20:142 *332:6 9.08513e-06
12 *274:111 *708:A2 1.56713e-06
*RES
1 *884:Y *332:4 17.2 
2 *332:4 *332:6 47.5994 
3 *332:6 *332:12 41.158 
4 *332:12 *708:A2 33.2448 
*END

*D_NET *333 0.000906264
*CONN
*I *710:A2 I *D OA222x2_ASAP7_75t_R
*I *885:Y O *D BUFx2_ASAP7_75t_R
*CAP
1 *710:A2 0
2 *885:Y 7.61036e-06
3 *333:28 2.05755e-05
4 *333:20 0.000159473
5 *333:18 0.000143331
6 *333:12 8.93343e-05
7 *333:10 8.49011e-05
8 *333:8 7.61036e-06
9 *333:8 *334:190 0
10 *333:20 *348:14 0
11 *333:20 *448:59 2.63785e-05
12 *144:159 *333:20 1.25456e-05
13 *265:8 *333:28 0
14 *274:99 *333:28 4.85329e-06
15 *274:107 *333:18 2.07915e-06
16 *277:83 *333:20 0.000160671
17 *277:99 *333:12 7.21252e-05
18 *277:103 *333:12 5.69899e-05
19 *295:23 *333:12 5.77872e-05
*RES
1 *885:Y *333:8 38.9053 
2 *333:8 *333:10 17.2 
3 *333:10 *333:12 61.5049 
4 *333:12 *333:18 37.122 
5 *333:18 *333:20 48.4821 
6 *333:20 *333:28 45.7925 
7 *333:28 *710:A2 17.2 
*END

*D_NET *334 0.00636989
*CONN
*I *632:A1 I *D AO21x1_ASAP7_75t_R
*I *638:A1 I *D AO21x1_ASAP7_75t_R
*I *643:A1 I *D AO21x1_ASAP7_75t_R
*I *613:A1 I *D AO21x1_ASAP7_75t_R
*I *627:A1 I *D AO21x1_ASAP7_75t_R
*I *681:A I *D NOR2x1_ASAP7_75t_R
*I *682:A1 I *D AO221x2_ASAP7_75t_R
*I *628:A1 I *D OA33x2_ASAP7_75t_R
*I *609:A1 I *D AO21x1_ASAP7_75t_R
*I *515:A2 I *D AO221x1_ASAP7_75t_R
*I *677:A1 I *D AO221x2_ASAP7_75t_R
*I *676:A I *D NOR2x1_ASAP7_75t_R
*I *664:A1 I *D AO21x1_ASAP7_75t_R
*I *668:A1 I *D AO21x1_ASAP7_75t_R
*I *671:A1 I *D AO21x1_ASAP7_75t_R
*I *659:A1 I *D AO21x1_ASAP7_75t_R
*I *655:A1 I *D AO21x1_ASAP7_75t_R
*I *651:A I *D NOR2x1_ASAP7_75t_R
*I *652:A1 I *D AO221x2_ASAP7_75t_R
*I *647:A1 I *D AO21x1_ASAP7_75t_R
*I *889:A I *D BUFx2_ASAP7_75t_R
*I *465:Y O *D INVx1_ASAP7_75t_R
*CAP
1 *632:A1 2.52571e-05
2 *638:A1 0
3 *643:A1 0
4 *613:A1 0
5 *627:A1 5.70908e-05
6 *681:A 0
7 *682:A1 0
8 *628:A1 8.99925e-06
9 *609:A1 5.8157e-06
10 *515:A2 0
11 *677:A1 1.22172e-05
12 *676:A 4.07885e-06
13 *664:A1 0
14 *668:A1 0
15 *671:A1 5.63484e-06
16 *659:A1 4.44988e-06
17 *655:A1 0
18 *651:A 7.11546e-06
19 *652:A1 5.28086e-06
20 *647:A1 8.81024e-06
21 *889:A 0
22 *465:Y 0
23 *334:386 3.38996e-05
24 *334:375 1.90327e-05
25 *334:364 4.75545e-05
26 *334:362 5.04077e-05
27 *334:358 3.3989e-05
28 *334:352 3.24865e-05
29 *334:341 3.26761e-05
30 *334:337 7.61647e-05
31 *334:328 6.23818e-05
32 *334:324 6.78276e-05
33 *334:315 4.93702e-06
34 *334:304 3.03478e-05
35 *334:298 4.82961e-05
36 *334:294 0.000104799
37 *334:292 8.19134e-05
38 *334:290 3.50583e-05
39 *334:279 4.40575e-05
40 *334:277 3.43181e-05
41 *334:273 8.86145e-05
42 *334:267 5.90183e-05
43 *334:259 1.20288e-05
44 *334:257 0.000108311
45 *334:246 0.000157061
46 *334:244 0.000110283
47 *334:228 5.2462e-05
48 *334:207 1.44035e-05
49 *334:192 2.00384e-05
50 *334:190 8.11096e-05
51 *334:188 8.11096e-05
52 *334:186 2.69612e-06
53 *334:166 7.39946e-05
54 *334:164 0.000143105
55 *334:162 0.000103912
56 *334:156 4.29219e-05
57 *334:150 8.37375e-05
58 *334:148 8.1168e-05
59 *334:142 2.28394e-05
60 *334:138 4.08131e-05
61 *334:132 2.58497e-05
62 *334:130 5.20633e-05
63 *334:126 6.63277e-05
64 *334:120 6.45069e-05
65 *334:114 4.15082e-05
66 *334:106 9.37734e-05
67 *334:104 6.22629e-05
68 *334:95 2.38379e-05
69 *334:91 6.94114e-05
70 *334:80 7.45411e-05
71 *334:72 5.64231e-05
72 *334:70 3.98518e-05
73 *334:54 5.13062e-05
74 *334:48 6.01165e-05
75 *334:46 5.35713e-05
76 *334:44 0.000117486
77 *334:42 6.39145e-05
78 *334:40 3.33092e-05
79 *334:34 3.88073e-05
80 *334:28 1.28157e-05
81 *334:26 1.69582e-05
82 *334:20 9.23087e-05
83 *334:18 8.26682e-05
84 *334:16 3.29249e-05
85 *334:10 3.92925e-05
86 *334:4 7.37164e-05
87 *659:A1 *900:A 3.56648e-06
88 *334:10 *337:8 9.97906e-07
89 *334:16 *447:6 1.42637e-05
90 *334:26 *354:10 3.61003e-05
91 *334:28 *353:12 7.68501e-06
92 *334:34 *336:23 2.26186e-05
93 *334:40 *728:CLK 4.1065e-06
94 *334:44 *447:32 0.000135514
95 *334:46 *447:32 0.000192682
96 *334:91 *443:8 1.82602e-05
97 *334:106 *443:8 0
98 *334:114 *448:23 0
99 *334:126 *348:14 2.45347e-06
100 *334:126 *448:23 0
101 *334:142 *440:23 4.05482e-05
102 *334:148 *440:31 5.63702e-07
103 *334:156 *437:14 1.49407e-08
104 *334:156 *437:22 4.46363e-06
105 *334:162 *348:14 1.36991e-05
106 *334:162 *348:22 1.33583e-05
107 *334:164 *348:22 2.8836e-06
108 *334:166 *347:22 3.15947e-06
109 *334:190 *391:8 0
110 *334:207 *373:15 0
111 *334:228 *434:8 0
112 *334:228 *437:97 0
113 *334:257 *409:10 0
114 *334:267 *447:364 1.4311e-05
115 *334:290 *411:10 2.67122e-06
116 *334:304 *679:A 1.79012e-05
117 *334:304 *439:25 1.93716e-05
118 *334:315 *448:13 7.84772e-07
119 *334:324 *447:364 4.02965e-05
120 *334:328 *398:10 1.2903e-05
121 *334:337 *339:18 5.42039e-05
122 *334:337 *339:22 2.36791e-05
123 *334:337 *397:8 9.97906e-07
124 *334:337 *398:10 0.000124154
125 *334:337 *447:430 3.14726e-06
126 *334:362 *453:8 2.37568e-05
127 *334:375 *397:42 9.94685e-06
128 *334:386 *339:18 3.21857e-05
129 *334:386 *447:430 4.83141e-06
130 *334:386 *447:441 1.64764e-06
131 *610:C *334:246 0
132 *627:B *627:A1 2.31613e-05
133 *632:A2 *632:A1 7.91388e-05
134 *651:B *651:A 2.20493e-06
135 *651:B *334:95 5.17782e-06
136 *652:A2 *652:A1 2.88806e-06
137 *652:A2 *334:80 2.88806e-06
138 *664:B *334:164 1.05893e-06
139 *664:B *334:190 2.59962e-07
140 *671:B *334:207 7.14604e-06
141 *677:B2 *677:A1 1.40602e-05
142 *677:C *677:A1 7.63254e-07
143 *755:D *334:91 2.69121e-05
144 *915:A *334:257 0
145 *957:A *334:20 1.46238e-06
146 *14:22 *334:375 5.19498e-06
147 *20:30 *334:46 3.19306e-05
148 *20:104 *334:114 1.82714e-06
149 *20:112 *334:120 5.70574e-05
150 *25:30 *334:352 6.01533e-06
151 *25:30 *334:358 5.58297e-06
152 *25:32 *632:A1 7.09203e-05
153 *25:38 *632:A1 3.67905e-05
154 *64:10 *334:91 5.52807e-07
155 *67:42 *334:130 9.26249e-06
156 *67:46 *676:A 8.11416e-06
157 *67:46 *334:138 4.45897e-05
158 *86:8 *334:228 9.08543e-06
159 *106:23 *334:44 3.02951e-05
160 *113:8 *334:126 1.49407e-08
161 *113:24 *334:304 2.01929e-06
162 *135:22 *334:277 8.84156e-05
163 *139:49 *334:290 1.63973e-05
164 *139:83 *334:106 1.182e-05
165 *144:64 *334:91 0
166 *144:115 *334:294 5.98161e-05
167 *144:115 *334:298 1.45018e-05
168 *144:165 *334:228 0
169 *144:171 *334:228 0
170 *145:12 *334:106 8.47306e-05
171 *145:19 *334:106 7.46845e-05
172 *145:23 *334:120 5.6886e-05
173 *145:29 *334:126 2.43869e-07
174 *145:38 *334:106 4.33802e-06
175 *145:57 *334:315 0
176 *147:53 *334:166 0
177 *147:62 *334:164 0
178 *147:62 *334:190 0
179 *147:62 *334:207 5.49212e-07
180 *147:70 *334:207 9.67723e-06
181 *147:131 *627:A1 5.09299e-06
182 *158:10 *334:114 0
183 *208:109 *334:156 7.21451e-07
184 *208:191 *334:337 4.90056e-06
185 *208:212 *334:257 0
186 *211:45 *334:228 2.00151e-05
187 *211:49 *677:A1 5.85387e-06
188 *211:142 *334:72 0
189 *211:245 *334:337 0
190 *211:253 *334:352 1.51232e-05
191 *215:14 *334:257 0
192 *227:12 *334:290 5.91095e-06
193 *229:12 *334:267 1.46661e-05
194 *229:12 *334:324 3.83452e-05
195 *229:24 *334:273 5.90945e-06
196 *230:56 *334:304 0
197 *231:8 *334:362 1.63125e-05
198 *247:8 *334:106 2.25787e-06
199 *248:8 *334:95 5.25794e-06
200 *248:10 *334:91 0
201 *267:8 *334:228 0
202 *271:14 *334:304 6.02341e-06
203 *274:12 *334:91 4.1233e-05
204 *274:18 *334:91 2.25911e-05
205 *274:83 *334:106 0
206 *274:103 *334:142 0.000103143
207 *274:103 *334:150 1.26391e-06
208 *274:199 *628:A1 2.68365e-06
209 *274:249 *334:257 4.67671e-07
210 *274:262 *334:257 1.87645e-05
211 *274:303 *334:352 3.51712e-06
212 *274:303 *334:362 7.30601e-06
213 *277:231 *334:257 1.71384e-06
214 *277:240 *627:A1 6.32656e-06
215 *279:10 *334:257 0
216 *284:18 *334:304 6.42615e-06
217 *286:14 *334:257 2.86184e-05
218 *286:20 *334:273 4.61286e-07
219 *287:35 *628:A1 1.66659e-05
220 *287:35 *334:290 0.000102763
221 *290:29 *334:352 2.98814e-07
222 *290:29 *334:362 1.2131e-06
223 *292:18 *334:91 0
224 *292:39 *334:91 3.58577e-07
225 *295:21 *334:148 2.81851e-06
226 *295:23 *334:150 6.31682e-05
227 *295:31 *334:162 6.07479e-06
228 *302:8 *334:246 0
229 *304:20 *334:257 0
230 *306:8 *334:375 7.62754e-06
231 *308:14 *334:352 1.15587e-05
232 *310:14 *647:A1 1.45651e-06
233 *310:14 *334:54 9.66472e-07
234 *311:8 *334:80 3.16603e-06
235 *312:12 *334:166 5.49212e-07
236 *314:14 *334:166 1.09067e-06
237 *315:12 *334:186 6.19506e-06
238 *316:10 *334:190 3.47607e-06
239 *316:10 *334:207 1.89962e-06
240 *317:14 *671:A1 2.0895e-06
241 *317:14 *334:190 0
242 *317:14 *334:207 5.51397e-07
243 *318:8 *334:190 0
244 *318:12 *677:A1 5.0551e-07
245 *318:20 *677:A1 5.41446e-06
246 *320:12 *334:352 2.98697e-05
247 *324:8 *334:72 4.98625e-05
248 *324:8 *334:80 6.31056e-06
249 *324:8 *334:91 2.33507e-05
250 *329:14 *334:164 0
251 *330:8 *334:190 1.34402e-05
252 *333:8 *334:190 0
*RES
1 *465:Y *334:4 17.2 
2 *334:4 *334:10 38.3422 
3 *334:10 *334:16 37.6651 
4 *334:16 *334:18 17.2 
5 *334:18 *334:20 40.1119 
6 *334:20 *334:26 46.7897 
7 *334:26 *334:28 4.81343 
8 *334:28 *334:34 42.2843 
9 *334:34 *334:40 32.9933 
10 *334:40 *334:42 17.2 
11 *334:42 *334:44 49.7387 
12 *334:44 *334:46 48.6691 
13 *334:46 *334:48 17.2 
14 *334:48 *334:54 44.8728 
15 *334:54 *889:A 17.2 
16 *334:48 *647:A1 41.158 
17 *334:44 *334:70 17.2 
18 *334:70 *334:72 39.4216 
19 *334:72 *334:80 44.2819 
20 *334:80 *652:A1 38.1438 
21 *334:80 *334:91 57.4429 
22 *334:91 *334:95 29.501 
23 *334:95 *651:A 22.0134 
24 *334:95 *334:104 17.2 
25 *334:104 *334:106 62.9807 
26 *334:106 *334:114 43.3987 
27 *334:114 *334:120 48.8403 
28 *334:120 *334:126 37.6832 
29 *334:126 *334:130 26.68 
30 *334:130 *334:132 17.2 
31 *334:132 *334:138 35.1893 
32 *334:138 *334:142 43.4064 
33 *334:142 *334:148 37.2158 
34 *334:148 *334:150 39.0422 
35 *334:150 *334:156 38.8115 
36 *334:156 *334:162 31.9255 
37 *334:162 *334:164 51.2481 
38 *334:164 *334:166 58.5693 
39 *334:166 *655:A1 34.4 
40 *334:164 *659:A1 37.0741 
41 *334:162 *334:186 18.8045 
42 *334:186 *334:188 17.2 
43 *334:188 *334:190 63.6378 
44 *334:190 *334:192 17.2 
45 *334:192 *671:A1 19.8741 
46 *334:192 *334:207 44.8451 
47 *334:207 *668:A1 17.2 
48 *334:186 *664:A1 17.2 
49 *334:132 *676:A 19.8741 
50 *334:130 *334:228 48.1741 
51 *334:228 *677:A1 26.292 
52 *334:28 *515:A2 17.2 
53 *334:4 *334:244 40.1975 
54 *334:244 *334:246 29.8478 
55 *334:246 *609:A1 37.0741 
56 *334:246 *334:257 76.5906 
57 *334:257 *334:259 17.2 
58 *334:259 *334:267 38.8008 
59 *334:267 *334:273 35.8214 
60 *334:273 *334:277 43.4064 
61 *334:277 *334:279 17.2 
62 *334:279 *628:A1 42.2843 
63 *334:279 *334:290 38.8585 
64 *334:290 *334:292 17.2 
65 *334:292 *334:294 43.3208 
66 *334:294 *334:298 27.3617 
67 *334:298 *334:304 42.4574 
68 *334:304 *682:A1 17.2 
69 *334:294 *334:315 38.9053 
70 *334:315 *681:A 17.2 
71 *334:259 *334:324 28.4313 
72 *334:324 *334:328 21.7053 
73 *334:328 *627:A1 45.5457 
74 *334:324 *334:337 60.8219 
75 *334:337 *334:341 23.0831 
76 *334:341 *613:A1 17.2 
77 *334:341 *334:352 38.3647 
78 *334:352 *334:358 38.7288 
79 *334:358 *334:362 40.9468 
80 *334:362 *334:364 16.0448 
81 *334:364 *643:A1 17.2 
82 *334:364 *334:375 35.6711 
83 *334:375 *638:A1 34.4 
84 *334:337 *334:386 28.4633 
85 *334:386 *632:A1 47.685 
*END

*D_NET *335 4.50684e-05
*CONN
*I *467:A I *D INVx1_ASAP7_75t_R
*I *886:Y O *D BUFx2_ASAP7_75t_R
*CAP
1 *467:A 2.25342e-05
2 *886:Y 2.25342e-05
*RES
1 *886:Y *467:A 43.492 
*END

*D_NET *336 0.000249263
*CONN
*I *513:A I *D INVx1_ASAP7_75t_R
*I *505:A I *D NOR2x1_ASAP7_75t_R
*I *515:C I *D AO221x1_ASAP7_75t_R
*I *887:Y O *D BUFx2_ASAP7_75t_R
*CAP
1 *513:A 0
2 *505:A 3.207e-05
3 *515:C 0
4 *887:Y 0
5 *336:27 4.97583e-05
6 *336:23 4.24748e-05
7 *336:14 9.05355e-06
8 *336:4 3.38401e-05
9 *505:A *447:14 8.23084e-06
10 *336:14 *354:20 6.39911e-06
11 *336:23 *354:10 0
12 *336:27 *447:14 1.4417e-05
13 *505:B *505:A 6.45454e-06
14 *515:A1 *336:14 5.85387e-06
15 *106:8 *336:14 1.26923e-05
16 *106:8 *336:23 1.1274e-06
17 *106:23 *336:23 4.27283e-06
18 *334:34 *336:23 2.26186e-05
*RES
1 *887:Y *336:4 17.2 
2 *336:4 *336:14 42.1143 
3 *336:14 *515:C 17.2 
4 *336:4 *336:23 37.474 
5 *336:23 *336:27 27.3617 
6 *336:27 *505:A 32.7099 
7 *336:27 *513:A 17.2 
*END

*D_NET *337 0.000133006
*CONN
*I *610:B2 I *D AO221x1_ASAP7_75t_R
*I *890:A I *D BUFx2_ASAP7_75t_R
*I *727:SN O *D HAxp5_ASAP7_75t_R
*CAP
1 *610:B2 8.66197e-06
2 *890:A 0
3 *727:SN 0
4 *337:8 4.95047e-05
5 *337:6 5.81666e-05
6 *610:B2 *447:227 0
7 *337:8 *447:10 0
8 *337:8 *447:227 0
9 *610:B1 *610:B2 5.62196e-06
10 *211:211 *610:B2 2.20128e-06
11 *300:36 *610:B2 7.85184e-06
12 *334:10 *337:8 9.97906e-07
*RES
1 *727:SN *337:6 34.4 
2 *337:6 *337:8 38.2953 
3 *337:8 *890:A 34.4 
4 *337:6 *610:B2 42.5641 
*END

*D_NET *338 0.000726349
*CONN
*I *966:A I *D BUFx3_ASAP7_75t_R
*I *891:A I *D BUFx3_ASAP7_75t_R
*I *553:Y O *D XOR2x2_ASAP7_75t_R
*CAP
1 *966:A 4.93101e-06
2 *891:A 1.60417e-05
3 *553:Y 5.42602e-06
4 *338:34 1.84849e-05
5 *338:28 3.11704e-05
6 *338:20 7.61299e-05
7 *338:14 5.23337e-05
8 *338:12 0.000117982
9 *338:10 0.000117982
10 *338:8 5.42602e-06
11 *338:8 *400:27 2.1664e-06
12 *338:8 *415:40 2.06684e-05
13 *338:12 *339:6 3.59865e-05
14 *338:20 *453:8 0
15 *338:28 *397:42 1.88168e-06
16 *638:A2 *338:34 4.29278e-06
17 *697:C2 *338:20 4.05812e-06
18 *28:6 *338:12 6.59939e-05
19 *93:8 *338:20 0
20 *274:303 *338:20 8.58704e-06
21 *274:318 *966:A 1.81409e-05
22 *274:318 *338:20 3.03529e-05
23 *277:265 *338:20 6.6195e-06
24 *277:269 *338:20 1.52651e-06
25 *277:271 *966:A 8.05934e-06
26 *277:271 *338:20 1.32161e-05
27 *307:14 *891:A 1.12839e-05
28 *307:18 *338:34 0
29 *325:8 *891:A 4.76072e-05
*RES
1 *553:Y *338:8 41.158 
2 *338:8 *338:10 17.2 
3 *338:10 *338:12 82.8979 
4 *338:12 *338:14 17.2 
5 *338:14 *338:20 48.3085 
6 *338:20 *338:28 43.2817 
7 *338:28 *338:34 35.9956 
8 *338:34 *891:A 35.9189 
9 *338:14 *966:A 41.158 
*END

*D_NET *339 0.00081589
*CONN
*I *961:A I *D BUFx3_ASAP7_75t_R
*I *892:A I *D BUFx3_ASAP7_75t_R
*I *560:Y O *D XNOR2x2_ASAP7_75t_R
*CAP
1 *961:A 0
2 *892:A 0
3 *560:Y 0
4 *339:24 4.51554e-05
5 *339:22 5.00268e-05
6 *339:18 8.76669e-05
7 *339:16 8.27955e-05
8 *339:14 1.82883e-05
9 *339:6 0.000121724
10 *339:4 0.000103436
11 *339:14 *432:64 1.13547e-05
12 *339:18 *432:64 6.79341e-05
13 *339:18 *447:441 1.32674e-05
14 *208:191 *339:18 3.55144e-06
15 *208:191 *339:22 6.3013e-06
16 *218:16 *339:24 1.54439e-05
17 *275:13 *339:24 1.22121e-05
18 *289:16 *339:14 4.92332e-06
19 *303:8 *339:24 2.18045e-05
20 *307:28 *339:18 3.95007e-06
21 *334:337 *339:18 5.42039e-05
22 *334:337 *339:22 2.36791e-05
23 *334:386 *339:18 3.21857e-05
24 *338:12 *339:6 3.59865e-05
*RES
1 *560:Y *339:4 17.2 
2 *339:4 *339:6 45.4601 
3 *339:6 *339:14 47.1544 
4 *339:14 *339:16 17.2 
5 *339:16 *339:18 75.4642 
6 *339:18 *339:22 25.0843 
7 *339:22 *339:24 37.4378 
8 *339:24 *892:A 17.2 
9 *339:18 *961:A 34.4 
*END

*D_NET *340 0.000744732
*CONN
*I *893:A I *D BUFx2_ASAP7_75t_R
*I *562:Y O *D XNOR2x2_ASAP7_75t_R
*CAP
1 *893:A 0
2 *562:Y 5.14841e-06
3 *340:24 4.31247e-05
4 *340:20 0.000203852
5 *340:18 0.000174215
6 *340:12 8.50198e-05
7 *340:8 7.66807e-05
8 *340:20 *397:14 1.71412e-05
9 *340:20 *398:8 1.59615e-06
10 *340:20 *421:8 1.51636e-05
11 *340:20 *447:411 1.84236e-05
12 *340:24 *362:19 0
13 *35:10 *340:8 4.90042e-07
14 *41:16 *340:18 8.23388e-06
15 *139:10 *340:18 9.97906e-07
16 *147:139 *340:20 9.46454e-05
17 *209:9 *340:24 0
18 *307:8 *340:24 0
*RES
1 *562:Y *340:8 37.779 
2 *340:8 *340:12 42.3368 
3 *340:12 *340:18 45.6633 
4 *340:18 *340:20 94.664 
5 *340:20 *340:24 49.3005 
6 *340:24 *893:A 34.4 
*END

*D_NET *341 0.00016039
*CONN
*I *894:A I *D BUFx3_ASAP7_75t_R
*I *963:A I *D BUFx3_ASAP7_75t_R
*I *574:Y O *D AO211x2_ASAP7_75t_R
*CAP
1 *894:A 4.61858e-06
2 *963:A 0
3 *574:Y 1.29075e-05
4 *341:19 6.72877e-05
5 *341:10 7.55766e-05
6 *341:10 *428:8 0
*RES
1 *574:Y *341:10 41.5795 
2 *341:10 *963:A 34.4 
3 *341:10 *341:19 51.2481 
4 *341:19 *894:A 37.0741 
*END

*D_NET *342 0.000411584
*CONN
*I *895:A I *D BUFx3_ASAP7_75t_R
*I *640:A1 I *D AO21x1_ASAP7_75t_R
*I *579:Y O *D XOR2x2_ASAP7_75t_R
*CAP
1 *895:A 7.07164e-06
2 *640:A1 0
3 *579:Y 0
4 *342:23 6.73113e-05
5 *342:19 7.01497e-05
6 *342:6 7.85492e-05
7 *342:4 6.86392e-05
8 *342:23 *343:25 5.95224e-05
9 *640:A2 *342:6 1.19623e-05
10 *640:A2 *342:19 3.73144e-06
11 *15:16 *342:6 2.29378e-05
12 *15:16 *342:19 7.14604e-06
13 *147:188 *895:A 0
14 *211:267 *342:6 5.25794e-06
15 *274:318 *342:6 9.30483e-06
*RES
1 *579:Y *342:4 17.2 
2 *342:4 *342:6 44.3905 
3 *342:6 *640:A1 17.2 
4 *342:6 *342:19 41.5795 
5 *342:19 *342:23 45.5457 
6 *342:23 *895:A 38.9053 
*END

*D_NET *343 0.000481542
*CONN
*I *896:A I *D BUFx3_ASAP7_75t_R
*I *645:A1 I *D AO21x1_ASAP7_75t_R
*I *585:Y O *D XNOR2x2_ASAP7_75t_R
*CAP
1 *896:A 0
2 *645:A1 0
3 *585:Y 4.69186e-05
4 *343:29 3.37187e-05
5 *343:25 5.72876e-05
6 *343:14 3.56499e-05
7 *343:12 1.62272e-05
8 *343:6 5.10647e-05
9 *343:12 *447:452 1.09842e-06
10 *645:A2 *343:14 3.03035e-05
11 *645:A2 *343:25 8.65792e-06
12 *645:B *343:25 2.0895e-06
13 *15:24 *343:14 2.76948e-05
14 *28:38 *343:25 1.01102e-06
15 *78:10 *343:25 3.89037e-06
16 *147:188 *343:25 2.68586e-05
17 *211:253 *343:12 1.15587e-05
18 *211:257 *343:14 2.01215e-05
19 *237:12 *343:25 4.26184e-06
20 *239:8 *343:29 2.20493e-06
21 *243:10 *343:25 1.71113e-05
22 *289:12 *343:6 1.08644e-05
23 *289:27 *343:12 8.33296e-06
24 *306:14 *343:25 5.09299e-06
25 *342:23 *343:25 5.95224e-05
*RES
1 *585:Y *343:6 36.9885 
2 *343:6 *343:12 39.4685 
3 *343:12 *343:14 14.4403 
4 *343:14 *645:A1 17.2 
5 *343:14 *343:25 45.9992 
6 *343:25 *343:29 36.9885 
7 *343:29 *896:A 17.2 
*END

*D_NET *344 0.000130663
*CONN
*I *648:B2 I *D AO221x1_ASAP7_75t_R
*I *897:A I *D BUFx2_ASAP7_75t_R
*I *711:SN O *D FAx1_ASAP7_75t_R
*CAP
1 *648:B2 4.30129e-06
2 *897:A 1.7311e-05
3 *711:SN 8.94258e-06
4 *344:25 2.04559e-05
5 *344:8 4.24082e-05
6 *344:25 *446:16 0
7 *648:C *648:B2 6.7842e-07
8 *20:26 *897:A 2.69523e-06
9 *23:12 *344:8 0
10 *23:26 *344:25 4.71559e-06
11 *79:10 *897:A 3.82116e-06
12 *208:40 *344:8 2.01603e-05
13 *211:183 *648:B2 3.89037e-06
14 *245:10 *897:A 0
15 *245:10 *344:25 7.47402e-07
16 *301:29 *648:B2 5.0551e-07
17 *301:37 *344:8 2.98814e-08
*RES
1 *711:SN *344:8 42.9414 
2 *344:8 *897:A 47.8221 
3 *344:8 *344:25 41.2476 
4 *344:25 *648:B2 37.0741 
*END

*D_NET *345 0.000195048
*CONN
*I *652:B1 I *D AO221x2_ASAP7_75t_R
*I *898:A I *D BUFx2_ASAP7_75t_R
*I *516:Y O *D XNOR2x2_ASAP7_75t_R
*CAP
1 *652:B1 0
2 *898:A 8.09875e-06
3 *516:Y 0
4 *345:27 1.50537e-05
5 *345:10 6.79973e-05
6 *345:8 6.39922e-05
7 *345:4 1.91473e-05
8 *345:10 *408:14 9.94583e-06
9 *345:27 *408:14 2.83449e-06
10 *652:B2 *345:27 4.41457e-06
11 *20:20 *345:10 3.56395e-06
12 *211:142 *345:10 0
*RES
1 *516:Y *345:4 17.2 
2 *345:4 *345:8 18.8045 
3 *345:8 *345:10 46.7428 
4 *345:10 *898:A 38.1438 
5 *345:4 *345:27 44.7034 
6 *345:27 *652:B1 17.2 
*END

*D_NET *346 0.000529749
*CONN
*I *656:B2 I *D AO221x1_ASAP7_75t_R
*I *899:A I *D BUFx2_ASAP7_75t_R
*I *520:Y O *D XOR2x2_ASAP7_75t_R
*CAP
1 *656:B2 0
2 *899:A 0
3 *520:Y 0
4 *346:31 1.19655e-05
5 *346:23 3.26814e-05
6 *346:12 5.9805e-05
7 *346:10 0.000112028
8 *346:6 0.00010214
9 *346:4 7.06326e-05
10 *346:10 *447:71 0
11 *346:10 *447:82 0
12 *346:12 *369:13 1.54798e-05
13 *346:23 *447:67 1.4252e-05
14 *520:B *346:6 2.61188e-06
15 *702:C2 *346:10 2.22736e-06
16 *97:8 *346:10 0
17 *147:38 *346:31 2.52755e-07
18 *211:192 *346:23 7.94226e-05
19 *211:200 *346:31 2.80709e-06
20 *250:14 *346:10 5.79724e-07
21 *250:22 *346:31 6.95214e-06
22 *293:19 *346:10 1.5911e-05
23 *327:10 *346:12 0
*RES
1 *520:Y *346:4 17.2 
2 *346:4 *346:6 33.694 
3 *346:6 *346:10 40.853 
4 *346:10 *346:12 48.9954 
5 *346:12 *899:A 34.4 
6 *346:10 *346:23 41.2671 
7 *346:23 *346:31 43.354 
8 *346:31 *656:B2 17.2 
*END

*D_NET *347 0.000583233
*CONN
*I *660:B2 I *D AO221x1_ASAP7_75t_R
*I *900:A I *D BUFx2_ASAP7_75t_R
*I *522:Y O *D XOR2x2_ASAP7_75t_R
*CAP
1 *660:B2 0
2 *900:A 4.67765e-05
3 *522:Y 0
4 *347:37 4.78824e-06
5 *347:22 7.42546e-05
6 *347:14 6.87591e-05
7 *347:6 0.000150494
8 *347:4 0.000114001
9 *900:A *880:A 3.31818e-05
10 *347:6 *496:D 0
11 *347:14 *447:86 0
12 *347:22 *447:86 0
13 *496:B *347:6 0
14 *659:A1 *900:A 3.56648e-06
15 *660:C *347:37 7.57325e-06
16 *55:29 *347:6 1.5804e-05
17 *135:6 *347:6 2.51874e-05
18 *144:38 *347:6 2.61478e-05
19 *147:62 *347:22 8.96443e-08
20 *208:88 *347:37 1.18898e-06
21 *255:10 *347:14 2.32105e-06
22 *274:119 *347:37 3.88115e-06
23 *314:14 *347:22 2.05883e-06
24 *334:166 *347:22 3.15947e-06
*RES
1 *522:Y *347:4 17.2 
2 *347:4 *347:6 59.3656 
3 *347:6 *347:14 48.4916 
4 *347:14 *347:22 45.8082 
5 *347:22 *900:A 45.5457 
6 *347:14 *347:37 37.9472 
7 *347:37 *660:B2 17.2 
*END

*D_NET *348 0.000576226
*CONN
*I *665:B2 I *D AO221x1_ASAP7_75t_R
*I *901:A I *D BUFx3_ASAP7_75t_R
*I *527:Y O *D XOR2x2_ASAP7_75t_R
*CAP
1 *665:B2 0
2 *901:A 2.77878e-05
3 *527:Y 1.33508e-05
4 *348:37 3.3637e-06
5 *348:22 4.7946e-05
6 *348:14 0.000187481
7 *348:12 0.000175772
8 *348:8 2.51637e-05
9 *348:12 *419:19 9.80068e-06
10 *348:12 *419:27 4.92208e-06
11 *348:12 *419:42 1.82763e-06
12 *348:14 *448:59 0
13 *664:B *348:22 3.88042e-07
14 *665:C *348:37 1.35684e-06
15 *20:112 *348:8 9.59239e-06
16 *67:34 *348:12 0
17 *67:42 *348:12 0
18 *211:57 *348:37 3.08218e-06
19 *274:117 *348:37 3.05118e-08
20 *315:12 *901:A 3.19655e-05
21 *333:20 *348:14 0
22 *334:126 *348:14 2.45347e-06
23 *334:162 *348:14 1.36991e-05
24 *334:162 *348:22 1.33583e-05
25 *334:164 *348:22 2.8836e-06
*RES
1 *527:Y *348:8 41.3527 
2 *348:8 *348:12 27.8063 
3 *348:12 *348:14 58.2218 
4 *348:14 *348:22 42.3585 
5 *348:22 *901:A 35.9189 
6 *348:14 *348:37 36.5021 
7 *348:37 *665:B2 17.2 
*END

*D_NET *349 0.00072989
*CONN
*I *669:B2 I *D AO221x1_ASAP7_75t_R
*I *902:A I *D BUFx3_ASAP7_75t_R
*I *529:Y O *D XNOR2x2_ASAP7_75t_R
*CAP
1 *669:B2 0
2 *902:A 0
3 *529:Y 0
4 *349:45 8.31878e-06
5 *349:37 2.53843e-05
6 *349:24 5.82998e-05
7 *349:20 0.000101316
8 *349:14 0.00015934
9 *349:12 0.00010357
10 *349:6 7.44235e-05
11 *349:4 7.01112e-05
12 *349:6 *402:12 1.29755e-05
13 *349:6 *420:40 3.05302e-06
14 *349:12 *441:15 1.15587e-05
15 *349:20 *447:153 0
16 *669:C *349:45 2.20493e-06
17 *116:12 *349:6 2.3365e-05
18 *208:117 *349:37 0
19 *208:125 *349:45 5.62196e-06
20 *211:95 *349:45 5.49212e-07
21 *211:106 *349:37 0
22 *263:10 *349:20 3.07377e-05
23 *274:152 *349:37 3.52301e-05
24 *274:152 *349:45 3.05118e-08
25 *331:10 *349:37 3.79923e-06
*RES
1 *529:Y *349:4 17.2 
2 *349:4 *349:6 44.3905 
3 *349:6 *349:12 38.3422 
4 *349:12 *349:14 46.5298 
5 *349:14 *349:20 41.7773 
6 *349:20 *349:24 49.8243 
7 *349:24 *902:A 17.2 
8 *349:14 *349:37 48.0518 
9 *349:37 *349:45 39.8528 
10 *349:45 *669:B2 17.2 
*END

*D_NET *350 0.000518736
*CONN
*I *903:A I *D BUFx3_ASAP7_75t_R
*I *672:B2 I *D AO221x1_ASAP7_75t_R
*I *533:Y O *D XNOR2x2_ASAP7_75t_R
*CAP
1 *903:A 1.06428e-05
2 *672:B2 0
3 *533:Y 7.72643e-06
4 *350:38 4.15753e-06
5 *350:30 2.69874e-05
6 *350:24 4.42314e-05
7 *350:20 3.51307e-05
8 *350:12 0.000153627
9 *350:10 0.000129255
10 *350:8 7.72643e-06
11 *903:A *393:6 2.27479e-06
12 *350:30 *433:8 0
13 *350:30 *433:27 0
14 *350:30 *433:35 8.06436e-06
15 *350:30 *447:153 0
16 *350:38 *447:153 0
17 *672:B1 *350:38 1.73158e-06
18 *672:C *350:30 7.58265e-07
19 *672:C *350:38 2.12481e-06
20 *274:152 *350:30 1.31716e-05
21 *277:113 *350:30 2.84286e-06
22 *297:12 *350:12 5.39412e-05
23 *297:20 *350:20 6.33206e-07
24 *297:20 *350:24 0
25 *331:10 *350:30 5.37569e-06
26 *331:10 *350:38 8.33296e-06
*RES
1 *533:Y *350:8 40.0317 
2 *350:8 *350:10 17.2 
3 *350:10 *350:12 97.873 
4 *350:12 *350:20 46.3079 
5 *350:20 *350:24 25.0843 
6 *350:24 *350:30 33.8966 
7 *350:30 *350:38 39.3551 
8 *350:38 *672:B2 17.2 
9 *350:24 *903:A 41.3527 
*END

*D_NET *351 0.000247524
*CONN
*I *904:A I *D BUFx3_ASAP7_75t_R
*I *969:A I *D BUFx3_ASAP7_75t_R
*I *542:Y O *D OR3x1_ASAP7_75t_R
*CAP
1 *904:A 5.05126e-06
2 *969:A 0
3 *542:Y 0
4 *351:19 8.81306e-05
5 *351:12 2.0328e-05
6 *351:6 0.000103407
7 *351:12 *456:8 5.74614e-06
8 *351:19 *423:27 0
9 *542:B *351:12 3.47607e-06
10 *542:B *351:19 7.84037e-07
11 *116:23 *351:12 0
12 *117:20 *351:19 0
13 *157:33 *351:19 0
14 *157:46 *351:19 0
15 *161:16 *351:19 0
16 *162:8 *351:12 0
17 *163:10 *351:12 9.027e-06
18 *165:10 *351:19 0
19 *167:10 *351:19 1.12901e-05
20 *168:8 *351:19 0
21 *169:8 *351:19 2.83874e-07
*RES
1 *542:Y *351:6 34.4 
2 *351:6 *351:12 34.3464 
3 *351:12 *969:A 17.2 
4 *351:6 *351:19 63.6378 
5 *351:19 *904:A 37.0741 
*END

*D_NET *352 0.000421071
*CONN
*I *905:A I *D BUFx3_ASAP7_75t_R
*I *965:A I *D BUFx3_ASAP7_75t_R
*I *549:Y O *D XNOR2x2_ASAP7_75t_R
*CAP
1 *905:A 1.12819e-05
2 *965:A 0
3 *549:Y 1.58847e-05
4 *352:17 0.000161161
5 *352:8 0.000165764
6 *352:8 *452:10 1.1053e-05
7 *352:17 *571:A1 1.70866e-06
8 *352:17 *361:15 2.48278e-06
9 *352:17 *428:38 2.25787e-06
10 *565:B *352:17 3.93602e-06
11 *119:21 *352:8 3.04004e-06
12 *119:21 *352:17 1.9188e-05
13 *175:16 *352:8 4.48222e-07
14 *175:16 *352:17 7.76918e-06
15 *181:10 *352:8 0
16 *184:10 *352:8 8.33296e-06
17 *191:8 *352:17 0
18 *193:14 *352:17 6.76305e-06
19 *196:8 *352:17 0
20 *319:8 *352:17 0
*RES
1 *549:Y *352:8 47.916 
2 *352:8 *965:A 34.4 
3 *352:8 *352:17 123.897 
4 *352:17 *905:A 41.3527 
*END

*D_NET *353 0.000265622
*CONN
*I *512:A1 I *D AOI21x1_ASAP7_75t_R
*I *515:B2 I *D AO221x1_ASAP7_75t_R
*I *888:Y O *D BUFx2_ASAP7_75t_R
*CAP
1 *512:A1 6.8827e-06
2 *515:B2 0
3 *888:Y 9.37578e-06
4 *353:19 6.52384e-05
5 *353:12 3.68978e-05
6 *353:8 0.000104629
7 *512:A1 *436:24 4.70139e-06
8 *353:19 *354:10 0
9 *515:A1 *353:12 8.13414e-06
10 *106:23 *353:12 3.49596e-06
11 *144:74 *512:A1 6.7842e-07
12 *144:89 *512:A1 1.27255e-05
13 *149:6 *512:A1 5.17782e-06
14 *334:28 *353:12 7.68501e-06
*RES
1 *888:Y *353:8 41.158 
2 *353:8 *353:12 37.5233 
3 *353:12 *515:B2 17.2 
4 *353:8 *353:19 41.6743 
5 *353:19 *512:A1 43.492 
*END

*D_NET *354 0.000356229
*CONN
*I *906:A I *D BUFx2_ASAP7_75t_R
*I *515:B1 I *D AO221x1_ASAP7_75t_R
*I *507:Y O *D NOR2x1_ASAP7_75t_R
*CAP
1 *906:A 0
2 *515:B1 3.4694e-06
3 *507:Y 8.43084e-06
4 *354:20 3.42425e-05
5 *354:14 3.56863e-05
6 *354:10 6.97036e-05
7 *354:8 7.32212e-05
8 *1:8 *354:10 9.83885e-06
9 *106:8 *354:20 4.7643e-07
10 *106:23 *515:B1 3.06518e-07
11 *144:74 *354:10 0
12 *144:82 *354:8 2.03526e-06
13 *144:82 *354:10 2.98302e-05
14 *147:85 *354:10 2.66045e-05
15 *147:89 *354:10 1.98844e-05
16 *334:26 *354:10 3.61003e-05
17 *336:14 *354:20 6.39911e-06
18 *336:23 *354:10 0
19 *353:19 *354:10 0
*RES
1 *507:Y *354:8 39.2134 
2 *354:8 *354:10 58.5693 
3 *354:10 *354:14 19.8741 
4 *354:14 *354:20 34.063 
5 *354:20 *515:B1 36.0045 
6 *354:14 *906:A 17.2 
*END

*D_NET *357 0.000154179
*CONN
*P req_msg[21] I
*I *867:A I *D BUFx2_ASAP7_75t_R
*CAP
1 req_msg[21] 1.6303e-05
2 *867:A 0
3 *357:13 2.68081e-05
4 *357:9 4.31111e-05
5 *357:9 resp_msg[5] 2.46074e-05
6 *357:9 *371:9 4.33492e-05
*RES
1 req_msg[21] *357:9 35.904 
2 *357:9 *357:13 38.0582 
3 *357:13 *867:A 17.2 
*END

*D_NET *358 0.000223244
*CONN
*P req_msg[22] I
*I *868:A I *D BUFx2_ASAP7_75t_R
*CAP
1 req_msg[22] 1.10596e-05
2 *868:A 3.20007e-05
3 *358:11 4.30603e-05
4 *868:A *869:A 2.83617e-05
5 *868:A *372:13 5.03668e-05
6 *358:11 *360:9 3.1064e-05
7 *358:11 *372:9 2.43981e-05
8 *317:8 *868:A 2.93253e-06
*RES
1 req_msg[22] *358:11 46.1583 
2 *358:11 *868:A 48.7547 
*END

*D_NET *359 0.000207988
*CONN
*P req_msg[23] I
*I *869:A I *D BUFx2_ASAP7_75t_R
*CAP
1 req_msg[23] 1.81699e-05
2 *869:A 2.07282e-05
3 *359:11 5.91519e-05
4 *359:7 5.65936e-05
5 *359:7 resp_msg[5] 0
6 *359:7 *375:9 2.28166e-05
7 *359:11 *360:9 0
8 *359:11 *374:9 2.1664e-06
9 *868:A *869:A 2.83617e-05
*RES
1 req_msg[23] *359:7 28.8335 
2 *359:7 *359:11 49.3943 
3 *359:11 *869:A 36.9885 
*END

*D_NET *360 0.000226943
*CONN
*P req_msg[24] I
*I *870:A I *D BUFx2_ASAP7_75t_R
*CAP
1 req_msg[24] 3.95225e-05
2 *870:A 0
3 *360:13 5.84172e-05
4 *360:11 5.84172e-05
5 *360:9 3.95225e-05
6 *358:11 *360:9 3.1064e-05
7 *359:11 *360:9 0
*RES
1 req_msg[24] *360:9 48.2075 
2 *360:9 *360:11 17.2 
3 *360:11 *360:13 35.8333 
4 *360:13 *870:A 17.2 
*END

*D_NET *361 0.000164968
*CONN
*P req_msg[25] I
*I *871:A I *D BUFx2_ASAP7_75t_R
*CAP
1 req_msg[25] 6.26087e-05
2 *871:A 0
3 *361:15 1.55434e-06
4 *361:9 6.41631e-05
5 *361:9 resp_msg[9] 3.41594e-05
6 *352:17 *361:15 2.48278e-06
*RES
1 req_msg[25] *361:9 48.4712 
2 *361:9 *361:15 36.1834 
3 *361:15 *871:A 17.2 
*END

*D_NET *362 0.000395507
*CONN
*P req_msg[26] I
*I *872:A I *D BUFx2_ASAP7_75t_R
*CAP
1 req_msg[26] 1.36146e-05
2 *872:A 2.47069e-05
3 *362:19 3.14678e-05
4 *362:13 4.0177e-05
5 *362:9 7.55552e-05
6 *362:7 5.57536e-05
7 *362:7 *367:9 1.84185e-05
8 *362:7 *368:11 1.84185e-05
9 *362:9 *365:9 1.38542e-05
10 *362:9 *368:11 4.30517e-07
11 *148:13 *872:A 8.52748e-05
12 *148:13 *362:13 0
13 *275:9 *362:9 2.25196e-06
14 *307:8 *362:19 3.4622e-06
15 *320:6 *872:A 1.21211e-05
16 *340:24 *362:19 0
*RES
1 req_msg[26] *362:7 29.8075 
2 *362:7 *362:9 36.8874 
3 *362:9 *362:13 35.9189 
4 *362:13 *362:19 38.9053 
5 *362:19 *872:A 43.4064 
*END

*D_NET *363 0.000210991
*CONN
*P req_msg[27] I
*I *873:A I *D BUFx2_ASAP7_75t_R
*CAP
1 req_msg[27] 5.44368e-05
2 *873:A 0
3 *363:13 5.10586e-05
4 *363:9 0.000105495
5 *213:7 *363:9 0
*RES
1 req_msg[27] *363:9 46.9777 
2 *363:9 *363:13 46.6154 
3 *363:13 *873:A 17.2 
*END

*D_NET *364 0.00024282
*CONN
*P req_msg[28] I
*I *874:A I *D BUFx2_ASAP7_75t_R
*CAP
1 req_msg[28] 2.51406e-05
2 *874:A 0
3 *364:13 7.76116e-05
4 *364:11 7.76116e-05
5 *364:9 2.51406e-05
6 *213:7 *364:9 0
7 *273:7 *364:9 3.73155e-05
*RES
1 req_msg[28] *364:9 35.5176 
2 *364:9 *364:11 17.2 
3 *364:11 *364:13 47.5994 
4 *364:13 *874:A 17.2 
*END

*D_NET *365 0.000217033
*CONN
*P req_msg[29] I
*I *875:A I *D BUFx2_ASAP7_75t_R
*CAP
1 req_msg[29] 2.2691e-05
2 *875:A 0
3 *365:13 7.02298e-05
4 *365:11 7.02298e-05
5 *365:9 2.2691e-05
6 *365:9 *368:11 1.73367e-05
7 *365:13 *368:13 0
8 *362:9 *365:9 1.38542e-05
*RES
1 req_msg[29] *365:9 33.7574 
2 *365:9 *365:11 17.2 
3 *365:11 *365:13 44.3905 
4 *365:13 *875:A 17.2 
*END

*D_NET *366 0.000200991
*CONN
*P req_msg[2] I
*I *876:A I *D BUFx2_ASAP7_75t_R
*CAP
1 req_msg[2] 4.44957e-05
2 *876:A 0
3 *366:13 2.06688e-05
4 *366:9 6.51645e-05
5 *366:13 *388:8 0
6 *118:9 *366:9 6.99266e-05
7 *118:15 *366:13 0
8 *324:8 *366:13 7.35063e-07
*RES
1 req_msg[2] *366:9 41.7242 
2 *366:9 *366:13 33.0625 
3 *366:13 *876:A 34.4 
*END

*D_NET *367 0.000256143
*CONN
*P req_msg[30] I
*I *877:A I *D BUFx2_ASAP7_75t_R
*CAP
1 req_msg[30] 1.79105e-05
2 *877:A 0
3 *367:13 2.90684e-05
4 *367:9 4.69789e-05
5 *367:9 resp_msg[10] 3.89215e-05
6 *367:9 resp_msg[15] 8.32162e-08
7 *367:13 *381:6 5.38988e-05
8 *307:14 *367:13 5.08628e-05
9 *362:7 *367:9 1.84185e-05
*RES
1 req_msg[30] *367:9 34.7821 
2 *367:9 *367:13 48.7547 
3 *367:13 *877:A 17.2 
*END

*D_NET *368 0.000220913
*CONN
*P req_msg[31] I
*I *878:A I *D BUFx2_ASAP7_75t_R
*CAP
1 req_msg[31] 2.02699e-05
2 *878:A 0
3 *368:13 6.08383e-05
4 *368:11 8.11082e-05
5 *643:A2 *368:13 2.25106e-05
6 *362:7 *368:11 1.84185e-05
7 *362:9 *368:11 4.30517e-07
8 *365:9 *368:11 1.73367e-05
9 *365:13 *368:13 0
*RES
1 req_msg[31] *368:11 49.3386 
2 *368:11 *368:13 41.1815 
3 *368:13 *878:A 17.2 
*END

*D_NET *369 0.000212822
*CONN
*P req_msg[3] I
*I *879:A I *D BUFx2_ASAP7_75t_R
*CAP
1 req_msg[3] 3.45878e-05
2 *879:A 0
3 *369:13 5.88069e-05
4 *369:11 9.33947e-05
5 *369:11 resp_msg[3] 0
6 *369:13 *389:8 1.05526e-05
7 *346:12 *369:13 1.54798e-05
*RES
1 req_msg[3] *369:11 46.1606 
2 *369:11 *369:13 53.7824 
3 *369:13 *879:A 34.4 
*END

*D_NET *370 0.000210604
*CONN
*P req_msg[4] I
*I *880:A I *D BUFx2_ASAP7_75t_R
*CAP
1 req_msg[4] 1.74742e-05
2 *880:A 3.94994e-05
3 *370:11 7.12368e-05
4 *370:7 4.92116e-05
5 *900:A *880:A 3.31818e-05
*RES
1 req_msg[4] *370:7 26.2363 
2 *370:7 *370:11 45.6399 
3 *370:11 *880:A 47.1502 
*END

*D_NET *371 0.000156828
*CONN
*P req_msg[5] I
*I *881:A I *D BUFx2_ASAP7_75t_R
*CAP
1 req_msg[5] 2.98156e-05
2 *881:A 0
3 *371:13 2.6924e-05
4 *371:9 5.67396e-05
5 *357:9 *371:9 4.33492e-05
*RES
1 req_msg[5] *371:9 44.0776 
2 *371:9 *371:13 39.1278 
3 *371:13 *881:A 17.2 
*END

*D_NET *372 0.000268467
*CONN
*P req_msg[6] I
*I *882:A I *D BUFx2_ASAP7_75t_R
*CAP
1 req_msg[6] 3.17537e-05
2 *882:A 0
3 *372:13 3.2703e-05
4 *372:9 6.44567e-05
5 *372:9 *373:7 5.2213e-05
6 *372:9 *373:11 6.9066e-06
7 *868:A *372:13 5.03668e-05
8 *316:10 *372:13 3.81627e-06
9 *317:8 *372:13 1.85304e-06
10 *358:11 *372:9 2.43981e-05
*RES
1 req_msg[6] *372:9 39.8089 
2 *372:9 *372:13 39.1278 
3 *372:13 *882:A 17.2 
*END

*D_NET *373 0.000362918
*CONN
*P req_msg[7] I
*I *883:A I *D BUFx2_ASAP7_75t_R
*CAP
1 req_msg[7] 3.02255e-05
2 *883:A 1.07729e-05
3 *373:15 8.90151e-05
4 *373:11 9.9897e-05
5 *373:7 5.18803e-05
6 *883:A *447:153 0
7 *671:B *883:A 3.73144e-06
8 *671:B *373:15 2.52755e-07
9 *263:10 *883:A 6.33206e-07
10 *317:14 *373:15 1.73899e-05
11 *334:207 *373:15 0
12 *372:9 *373:7 5.2213e-05
13 *372:9 *373:11 6.9066e-06
*RES
1 req_msg[7] *373:7 36.6253 
2 *373:7 *373:11 32.3116 
3 *373:11 *373:15 49.8243 
4 *373:15 *883:A 42.0293 
*END

*D_NET *374 0.00017418
*CONN
*P req_msg[8] I
*I *884:A I *D BUFx2_ASAP7_75t_R
*CAP
1 req_msg[8] 2.07958e-05
2 *884:A 0
3 *374:13 4.6844e-05
4 *374:9 6.76398e-05
5 *374:9 *375:9 3.6734e-05
6 *374:13 *375:13 0
7 *359:11 *374:9 2.1664e-06
*RES
1 req_msg[8] *374:9 33.839 
2 *374:9 *374:13 48.7547 
3 *374:13 *884:A 17.2 
*END

*D_NET *375 0.000212437
*CONN
*P req_msg[9] I
*I *885:A I *D BUFx2_ASAP7_75t_R
*CAP
1 req_msg[9] 1.79059e-05
2 *885:A 0
3 *375:13 5.85372e-05
4 *375:11 5.85372e-05
5 *375:9 1.79059e-05
6 *359:7 *375:9 2.28166e-05
7 *374:9 *375:9 3.6734e-05
8 *374:13 *375:13 0
*RES
1 req_msg[9] *375:9 36.381 
2 *375:9 *375:11 17.2 
3 *375:11 *375:13 35.8333 
4 *375:13 *885:A 17.2 
*END

*D_NET *376 0.00013547
*CONN
*P req_val I
*I *886:A I *D BUFx2_ASAP7_75t_R
*CAP
1 req_val 3.22619e-05
2 *886:A 0
3 *376:15 1.18706e-06
4 *376:9 3.3449e-05
5 *376:9 *377:9 6.85725e-05
*RES
1 req_val *376:9 35.618 
2 *376:9 *376:15 35.057 
3 *376:15 *886:A 17.2 
*END

*D_NET *377 0.000202753
*CONN
*P reset I
*I *887:A I *D BUFx2_ASAP7_75t_R
*CAP
1 reset 3.38128e-05
2 *887:A 0
3 *377:15 8.13196e-06
4 *377:9 4.19448e-05
5 *377:9 resp_val 3.34146e-05
6 *377:9 *378:9 0
7 *106:8 *377:15 1.68764e-05
8 *376:9 *377:9 6.85725e-05
*RES
1 reset *377:9 40.2091 
2 *377:9 *377:15 41.815 
3 *377:15 *887:A 17.2 
*END

*D_NET *378 0.000147531
*CONN
*P resp_rdy I
*I *888:A I *D BUFx2_ASAP7_75t_R
*CAP
1 resp_rdy 3.32266e-05
2 *888:A 0
3 *378:15 7.24415e-06
4 *378:9 4.04707e-05
5 *378:9 resp_val 5.81274e-05
6 *378:15 *396:8 8.46179e-06
7 *377:9 *378:9 0
*RES
1 resp_rdy *378:9 35.6639 
2 *378:9 *378:15 41.815 
3 *378:15 *888:A 17.2 
*END

*D_NET *379 0.000104829
*CONN
*P req_rdy O
*I *889:Y O *D BUFx2_ASAP7_75t_R
*CAP
1 req_rdy 3.97058e-05
2 *889:Y 1.00184e-05
3 *379:14 4.23963e-05
4 *379:8 1.27088e-05
5 *105:9 req_rdy 0
*RES
1 *889:Y *379:8 42.1905 
2 *379:8 *379:14 29.7034 
3 *379:14 req_rdy 22.0323 
*END

*D_NET *380 0.000111087
*CONN
*P resp_msg[0] O
*I *890:Y O *D BUFx2_ASAP7_75t_R
*CAP
1 resp_msg[0] 3.53697e-05
2 *890:Y 1.03928e-05
3 *380:14 3.73608e-05
4 *380:8 1.23839e-05
5 *278:11 resp_msg[0] 1.55793e-05
6 *278:17 *380:8 0
*RES
1 *890:Y *380:8 42.1905 
2 *380:8 *380:14 29.487 
3 *380:14 resp_msg[0] 22.0323 
*END

*D_NET *381 0.000188933
*CONN
*P resp_msg[10] O
*I *891:Y O *D BUFx3_ASAP7_75t_R
*CAP
1 resp_msg[10] 1.24589e-05
2 *891:Y 1.93917e-05
3 *381:6 3.18506e-05
4 resp_msg[10] resp_msg[15] 3.24116e-05
5 *367:9 resp_msg[10] 3.89215e-05
6 *367:13 *381:6 5.38988e-05
*RES
1 *891:Y *381:6 34.8492 
2 *381:6 resp_msg[10] 49.4556 
*END

*D_NET *382 0.000219939
*CONN
*P resp_msg[11] O
*I *892:Y O *D BUFx3_ASAP7_75t_R
*CAP
1 resp_msg[11] 2.32798e-05
2 *892:Y 0
3 *382:6 9.07812e-05
4 *382:4 6.75015e-05
5 *273:7 resp_msg[11] 2.03325e-05
6 *275:13 *382:6 1.77048e-05
7 *284:14 resp_msg[11] 3.39601e-07
*RES
1 *892:Y *382:4 17.2 
2 *382:4 *382:6 37.9726 
3 *382:6 resp_msg[11] 49.3386 
*END

*D_NET *383 0.000132099
*CONN
*P resp_msg[12] O
*I *893:Y O *D BUFx2_ASAP7_75t_R
*CAP
1 resp_msg[12] 3.7479e-05
2 *893:Y 1.42401e-06
3 *383:8 3.8903e-05
4 *212:5 resp_msg[12] 1.39526e-05
5 *275:7 resp_msg[12] 3.54999e-05
6 *307:8 *383:8 4.84072e-06
*RES
1 *893:Y *383:8 35.9956 
2 *383:8 resp_msg[12] 40.1965 
*END

*D_NET *384 0.000177387
*CONN
*P resp_msg[13] O
*I *894:Y O *D BUFx3_ASAP7_75t_R
*CAP
1 resp_msg[13] 6.5295e-05
2 *894:Y 0
3 *384:14 8.86934e-05
4 *384:6 2.33984e-05
*RES
1 *894:Y *384:6 34.4 
2 *384:6 *384:14 47.039 
3 *384:14 resp_msg[13] 35.8595 
*END

*D_NET *385 0.000123615
*CONN
*P resp_msg[14] O
*I *895:Y O *D BUFx3_ASAP7_75t_R
*CAP
1 resp_msg[14] 5.34701e-05
2 *895:Y 8.3372e-06
3 *385:8 6.18073e-05
*RES
1 *895:Y *385:8 40.1255 
2 *385:8 resp_msg[14] 45.391 
*END

*D_NET *386 0.000141655
*CONN
*P resp_msg[15] O
*I *896:Y O *D BUFx3_ASAP7_75t_R
*CAP
1 resp_msg[15] 5.00228e-05
2 *896:Y 4.55744e-06
3 *386:8 5.45802e-05
4 resp_msg[10] resp_msg[15] 3.24116e-05
5 *367:9 resp_msg[15] 8.32162e-08
*RES
1 *896:Y *386:8 37.3097 
2 *386:8 resp_msg[15] 40.1965 
*END

*D_NET *387 0.000127492
*CONN
*P resp_msg[1] O
*I *897:Y O *D BUFx2_ASAP7_75t_R
*CAP
1 resp_msg[1] 4.02538e-05
2 *897:Y 0
3 *387:14 6.37458e-05
4 *387:6 2.3492e-05
5 *127:9 resp_msg[1] 0
*RES
1 *897:Y *387:6 34.4 
2 *387:6 *387:14 45.9414 
3 *387:14 resp_msg[1] 22.0323 
*END

*D_NET *388 0.000104978
*CONN
*P resp_msg[2] O
*I *898:Y O *D BUFx2_ASAP7_75t_R
*CAP
1 resp_msg[2] 3.94079e-05
2 *898:Y 1.00184e-05
3 *388:14 4.24707e-05
4 *388:8 1.30811e-05
5 *366:13 *388:8 0
*RES
1 *898:Y *388:8 42.1905 
2 *388:8 *388:14 29.8116 
3 *388:14 resp_msg[2] 22.0323 
*END

*D_NET *389 0.000110395
*CONN
*P resp_msg[3] O
*I *899:Y O *D BUFx2_ASAP7_75t_R
*CAP
1 resp_msg[3] 4.08523e-05
2 *899:Y 7.07769e-06
3 *389:14 4.28434e-05
4 *389:8 9.06879e-06
5 *369:11 resp_msg[3] 0
6 *369:13 *389:8 1.05526e-05
*RES
1 *899:Y *389:8 42.1905 
2 *389:8 *389:14 29.487 
3 *389:14 resp_msg[3] 22.0323 
*END

*D_NET *390 0.000126295
*CONN
*P resp_msg[4] O
*I *900:Y O *D BUFx2_ASAP7_75t_R
*CAP
1 resp_msg[4] 4.23495e-05
2 *900:Y 3.65553e-06
3 *390:8 4.6005e-05
4 *104:9 resp_msg[4] 3.42851e-05
*RES
1 *900:Y *390:8 36.5588 
2 *390:8 resp_msg[4] 41.8198 
*END

*D_NET *391 0.000197233
*CONN
*P resp_msg[5] O
*I *901:Y O *D BUFx3_ASAP7_75t_R
*CAP
1 resp_msg[5] 3.80302e-05
2 *901:Y 9.06617e-06
3 *391:16 7.72468e-05
4 *391:8 4.82828e-05
5 *334:190 *391:8 0
6 *357:9 resp_msg[5] 2.46074e-05
7 *359:7 resp_msg[5] 0
*RES
1 *901:Y *391:8 41.4396 
2 *391:8 *391:16 48.9918 
3 *391:16 resp_msg[5] 38.5733 
*END

*D_NET *392 0.000114972
*CONN
*P resp_msg[6] O
*I *902:Y O *D BUFx3_ASAP7_75t_R
*CAP
1 resp_msg[6] 4.51329e-05
2 *902:Y 1.23533e-05
3 *392:8 5.74862e-05
*RES
1 *902:Y *392:8 42.5659 
2 *392:8 resp_msg[6] 40.5212 
*END

*D_NET *393 0.000335571
*CONN
*P resp_msg[7] O
*I *903:Y O *D BUFx3_ASAP7_75t_R
*CAP
1 resp_msg[7] 4.18645e-05
2 *903:Y 0
3 *393:12 5.58719e-05
4 *393:6 0.000124783
5 *393:4 0.000110776
6 *903:A *393:6 2.27479e-06
*RES
1 *903:Y *393:4 17.2 
2 *393:4 *393:6 44.3905 
3 *393:6 *393:12 44.8186 
4 *393:12 resp_msg[7] 21.3733 
*END

*D_NET *394 0.0003306
*CONN
*P resp_msg[8] O
*I *904:Y O *D BUFx3_ASAP7_75t_R
*CAP
1 resp_msg[8] 3.45082e-05
2 *904:Y 1.32183e-05
3 *394:10 0.000152082
4 *394:8 0.000130792
*RES
1 *904:Y *394:8 39.2134 
2 *394:8 *394:10 97.3339 
3 *394:10 resp_msg[8] 46.6668 
*END

*D_NET *395 0.000144942
*CONN
*P resp_msg[9] O
*I *905:Y O *D BUFx3_ASAP7_75t_R
*CAP
1 resp_msg[9] 1.72064e-05
2 *905:Y 0
3 *395:12 5.53914e-05
4 *395:6 3.8185e-05
5 *361:9 resp_msg[9] 3.41594e-05
*RES
1 *905:Y *395:6 34.4 
2 *395:6 *395:12 47.5491 
3 *395:12 resp_msg[9] 24.8675 
*END

*D_NET *396 0.000156874
*CONN
*P resp_val O
*I *906:Y O *D BUFx2_ASAP7_75t_R
*CAP
1 resp_val 1.83825e-05
2 *906:Y 8.0615e-06
3 *396:14 2.03737e-05
4 *396:8 1.00526e-05
5 *377:9 resp_val 3.34146e-05
6 *378:9 resp_val 5.81274e-05
7 *378:15 *396:8 8.46179e-06
*RES
1 *906:Y *396:8 42.1905 
2 *396:8 *396:14 29.487 
3 *396:14 resp_val 22.0323 
*END

*D_NET *397 0.000433994
*CONN
*I *639:A2 I *D AO22x1_ASAP7_75t_R
*I *644:A2 I *D AO22x1_ASAP7_75t_R
*I *614:A2 I *D AO221x1_ASAP7_75t_R
*I *907:Y O *D BUFx3_ASAP7_75t_R
*CAP
1 *639:A2 6.90976e-06
2 *644:A2 0
3 *614:A2 0
4 *907:Y 5.73496e-06
5 *397:42 4.79066e-05
6 *397:33 9.69636e-05
7 *397:31 8.13602e-05
8 *397:18 3.30229e-05
9 *397:14 3.56186e-05
10 *397:8 3.37241e-05
11 *397:18 *453:8 1.75741e-06
12 *397:31 *614:B2 1.20367e-05
13 *397:31 *432:34 6.21907e-06
14 *639:A1 *639:A2 1.02506e-06
15 *644:A1 *397:33 5.58366e-06
16 *698:C2 *397:33 3.32579e-06
17 *14:22 *397:33 0
18 *14:22 *397:42 0
19 *25:14 *397:33 4.86296e-06
20 *94:8 *397:33 6.10236e-07
21 *147:143 *397:33 0
22 *211:245 *397:8 5.13209e-07
23 *218:8 *397:31 3.09538e-06
24 *236:25 *397:42 2.25787e-06
25 *241:8 *397:33 2.1664e-06
26 *241:8 *397:42 2.68933e-07
27 *274:295 *397:18 1.9063e-05
28 *277:253 *397:33 0
29 *277:261 *397:33 0
30 *277:261 *397:42 0
31 *306:8 *397:33 0
32 *306:8 *397:42 0
33 *334:337 *397:8 9.97906e-07
34 *334:375 *397:42 9.94685e-06
35 *338:28 *397:42 1.88168e-06
36 *340:20 *397:14 1.71412e-05
*RES
1 *907:Y *397:8 37.779 
2 *397:8 *397:14 45.6313 
3 *397:14 *397:18 23.958 
4 *397:18 *614:A2 17.2 
5 *397:18 *397:31 32.1751 
6 *397:31 *397:33 41.6743 
7 *397:33 *644:A2 34.4 
8 *397:33 *397:42 33.2268 
9 *397:42 *639:A2 38.1438 
*END

*D_NET *398 0.000302055
*CONN
*I *616:A I *D NAND2x1_ASAP7_75t_R
*I *961:Y O *D BUFx3_ASAP7_75t_R
*CAP
1 *616:A 7.07742e-06
2 *961:Y 6.15725e-06
3 *398:10 6.82126e-05
4 *398:8 6.72924e-05
5 *398:10 *620:A1 8.2174e-07
6 *599:A *616:A 1.07377e-06
7 *90:8 *398:10 8.2174e-07
8 *211:230 *616:A 3.48165e-06
9 *211:245 *398:10 0
10 *219:8 *398:10 8.46363e-06
11 *334:328 *398:10 1.2903e-05
12 *334:337 *398:10 0.000124154
13 *340:20 *398:8 1.59615e-06
*RES
1 *961:Y *398:8 37.0741 
2 *398:8 *398:10 56.3166 
3 *398:10 *616:A 38.6786 
*END

*D_NET *399 0.000214164
*CONN
*I *534:B I *D AND3x1_ASAP7_75t_R
*I *537:B I *D OR3x1_ASAP7_75t_R
*I *960:Y O *D BUFx3_ASAP7_75t_R
*CAP
1 *534:B 0
2 *537:B 0
3 *960:Y 1.52029e-05
4 *399:22 1.4577e-05
5 *399:12 1.4577e-05
6 *399:10 5.02431e-05
7 *399:8 6.5446e-05
8 *399:10 *535:A2 0
9 *399:10 *402:20 0
10 *399:10 *420:40 0
11 *399:10 *455:8 0
12 *399:22 *537:C 8.06799e-07
13 *399:22 *407:24 3.26763e-05
14 *399:22 *418:10 2.68933e-07
15 *534:A *399:10 2.83874e-07
16 *534:A *399:22 3.09458e-06
17 *50:12 *399:10 0
18 *50:48 *399:22 2.03526e-06
19 *53:10 *399:8 1.11189e-05
20 *53:25 *399:10 0
21 *54:12 *399:10 1.12894e-06
22 *144:171 *399:10 0
23 *162:8 *399:10 2.70427e-06
*RES
1 *960:Y *399:8 42.4224 
2 *399:8 *399:10 37.7321 
3 *399:10 *399:12 17.2 
4 *399:12 *399:22 47.6893 
5 *399:22 *537:B 17.2 
6 *399:12 *534:B 17.2 
*END

*D_NET *400 0.000575195
*CONN
*I *566:A2 I *D OA21x2_ASAP7_75t_R
*I *563:A2 I *D AO21x1_ASAP7_75t_R
*I *487:A2 I *D AOI221x1_ASAP7_75t_R
*I *959:Y O *D BUFx3_ASAP7_75t_R
*CAP
1 *566:A2 0
2 *563:A2 4.41394e-06
3 *487:A2 0
4 *959:Y 3.2846e-06
5 *400:46 8.31005e-06
6 *400:31 1.76947e-05
7 *400:27 5.85965e-05
8 *400:20 1.24733e-05
9 *400:12 3.30344e-05
10 *400:8 7.74715e-05
11 *563:A2 *563:B 5.19475e-06
12 *400:8 *413:29 1.19435e-05
13 *400:8 *415:40 0
14 *400:20 *425:23 0
15 *400:27 *563:B 1.89962e-06
16 *400:27 *412:42 0
17 *400:27 *413:29 0.000179654
18 *400:27 *415:40 0
19 *400:31 *563:B 3.68287e-06
20 *400:31 *413:35 2.12009e-06
21 *400:46 *563:B 8.46363e-06
22 *400:46 *566:A1 1.16894e-05
23 *400:46 *412:42 0
24 *486:C *400:20 5.62196e-06
25 *577:B *400:12 6.2119e-05
26 *959:A *400:8 8.06799e-07
27 *120:8 *400:20 2.60818e-05
28 *125:6 *400:20 2.03526e-06
29 *184:20 *400:27 2.22736e-06
30 *186:8 *400:31 3.67067e-06
31 *189:6 *400:46 1.35684e-06
32 *199:14 *400:12 2.91825e-05
33 *338:8 *400:27 2.1664e-06
*RES
1 *959:Y *400:8 38.3422 
2 *400:8 *400:12 42.3368 
3 *400:12 *400:20 45.0151 
4 *400:20 *487:A2 17.2 
5 *400:8 *400:27 59.6956 
6 *400:27 *400:31 20.9438 
7 *400:31 *563:A2 20.409 
8 *400:31 *400:46 42.2276 
9 *400:46 *566:A2 17.2 
*END

*D_NET *401 0.000178842
*CONN
*I *944:A I *D BUFx3_ASAP7_75t_R
*I *908:Y O *D BUFx3_ASAP7_75t_R
*CAP
1 *944:A 0
2 *908:Y 3.61451e-05
3 *401:14 1.86437e-05
4 *401:8 5.47888e-05
5 *719:B *401:14 1.07215e-05
6 *908:A *401:8 9.30483e-06
7 *950:A *401:14 5.69885e-06
8 *211:45 *401:14 8.14129e-06
9 *267:8 *401:14 3.2526e-05
10 *268:8 *401:8 0
11 *318:20 *401:8 2.90209e-08
12 *318:20 *401:14 2.84286e-06
*RES
1 *908:Y *401:8 48.8403 
2 *401:8 *401:14 36.5991 
3 *401:14 *944:A 17.2 
*END

*D_NET *402 0.000687679
*CONN
*I *552:A1 I *D OA21x2_ASAP7_75t_R
*I *535:A2 I *D OA21x2_ASAP7_75t_R
*I *968:A I *D BUFx6f_ASAP7_75t_R
*I *912:Y O *D BUFx6f_ASAP7_75t_R
*CAP
1 *552:A1 0
2 *535:A2 6.53659e-06
3 *968:A 0
4 *912:Y 0
5 *402:44 6.81891e-05
6 *402:40 8.74505e-05
7 *402:20 1.80079e-05
8 *402:14 2.45445e-05
9 *402:12 7.04751e-05
10 *402:10 7.04751e-05
11 *402:8 2.33717e-05
12 *402:4 4.26331e-05
13 *535:A2 *420:40 5.37569e-06
14 *535:A2 *456:10 5.22486e-06
15 *402:8 *419:67 0
16 *402:12 *545:A1 4.19869e-05
17 *402:12 *420:40 3.0511e-05
18 *402:20 *455:8 1.02072e-05
19 *402:20 *456:10 1.26211e-05
20 *402:40 *423:77 6.79089e-06
21 *402:40 *423:92 1.13547e-05
22 *545:A2 *402:12 1.78854e-06
23 *550:B *402:44 1.07377e-06
24 *552:A2 *402:44 6.7842e-07
25 *47:25 *402:12 2.39712e-06
26 *50:16 *402:20 1.22121e-05
27 *50:24 *402:12 2.6409e-06
28 *116:12 *402:12 1.04358e-05
29 *116:23 *535:A2 0
30 *123:14 *402:12 7.09118e-06
31 *170:25 *402:8 0
32 *171:10 *402:8 1.09067e-06
33 *171:10 *402:40 6.33206e-07
34 *172:6 *402:12 6.92944e-05
35 *176:6 *402:44 2.96111e-05
36 *349:6 *402:12 1.29755e-05
37 *399:10 *535:A2 0
38 *399:10 *402:20 0
*RES
1 *912:Y *402:4 17.2 
2 *402:4 *402:8 33.5318 
3 *402:8 *402:10 17.2 
4 *402:10 *402:12 59.3656 
5 *402:12 *402:14 17.2 
6 *402:14 *402:20 35.8942 
7 *402:20 *968:A 17.2 
8 *402:14 *535:A2 41.158 
9 *402:4 *402:40 33.1634 
10 *402:40 *402:44 48.7547 
11 *402:44 *552:A1 17.2 
*END

*D_NET *403 0.00034398
*CONN
*I *474:A1 I *D OAI21x1_ASAP7_75t_R
*I *521:A2 I *D OA21x2_ASAP7_75t_R
*I *913:Y O *D BUFx3_ASAP7_75t_R
*CAP
1 *474:A1 0
2 *521:A2 5.01127e-05
3 *913:Y 0
4 *403:31 2.18263e-05
5 *403:18 6.2796e-05
6 *403:12 5.26363e-05
7 *403:6 6.17792e-05
8 *521:A2 *933:A 8.38704e-06
9 *403:18 *404:29 0
10 *526:B *403:18 9.48496e-06
11 *109:8 *403:12 1.34402e-05
12 *109:8 *403:31 1.31643e-05
13 *109:23 *403:31 4.34242e-05
14 *110:25 *403:31 0
15 *111:6 *403:12 3.56648e-06
16 *111:23 *403:18 2.84286e-06
17 *155:8 *403:12 5.19552e-07
*RES
1 *913:Y *403:6 34.4 
2 *403:6 *403:12 41.4939 
3 *403:12 *403:18 44.537 
4 *403:18 *521:A2 47.685 
5 *403:6 *403:31 37.389 
6 *403:31 *474:A1 17.2 
*END

*D_NET *404 0.000302963
*CONN
*I *524:B I *D OR2x2_ASAP7_75t_R
*I *471:C I *D OR3x1_ASAP7_75t_R
*I *926:A I *D BUFx3_ASAP7_75t_R
*I *909:Y O *D BUFx3_ASAP7_75t_R
*CAP
1 *524:B 0
2 *471:C 2.4793e-06
3 *926:A 0
4 *909:Y 6.62264e-06
5 *404:29 2.4664e-05
6 *404:25 6.68293e-05
7 *404:14 2.67999e-05
8 *404:8 7.80671e-05
9 *404:14 *520:A 0
10 *404:14 *521:A1 0
11 *404:14 *416:8 6.86929e-06
12 *404:14 *448:43 0
13 *404:29 *471:B 1.31716e-05
14 *404:29 *524:A 2.98302e-05
15 *472:A2 *404:25 0
16 *57:16 *404:29 7.84037e-07
17 *62:10 *404:14 0
18 *62:10 *404:25 0
19 *67:34 *404:14 0
20 *67:34 *404:25 0
21 *67:34 *404:29 3.93602e-06
22 *111:6 *404:25 1.76978e-05
23 *111:23 *404:29 0
24 *135:6 *471:C 5.62196e-06
25 *144:28 *404:29 9.64417e-06
26 *153:12 *404:25 9.94583e-06
27 *403:18 *404:29 0
*RES
1 *909:Y *404:8 37.0741 
2 *404:8 *404:14 36.4857 
3 *404:14 *926:A 17.2 
4 *404:8 *404:25 43.4668 
5 *404:25 *404:29 39.1635 
6 *404:29 *471:C 36.0045 
7 *404:25 *524:B 17.2 
*END

*D_NET *405 0.000350458
*CONN
*I *911:A I *D BUFx3_ASAP7_75t_R
*I *525:A2 I *D AO21x1_ASAP7_75t_R
*I *470:A2 I *D OA21x2_ASAP7_75t_R
*I *910:Y O *D BUFx3_ASAP7_75t_R
*CAP
1 *911:A 0
2 *525:A2 7.19551e-06
3 *470:A2 0
4 *910:Y 1.50115e-05
5 *405:38 1.84888e-05
6 *405:32 5.58188e-05
7 *405:28 4.96564e-05
8 *405:20 3.41242e-05
9 *405:12 2.93664e-05
10 *405:8 2.97757e-05
11 *525:A2 *446:86 0
12 *405:8 *446:94 0
13 *405:8 *446:100 0
14 *405:12 *519:A1 2.92897e-06
15 *405:12 *406:6 3.68565e-06
16 *405:20 *519:A1 2.80427e-06
17 *725:A *405:8 5.22486e-06
18 *65:6 *405:28 4.31538e-05
19 *65:6 *405:32 1.07377e-06
20 *65:31 *525:A2 3.32524e-06
21 *65:31 *405:38 7.05633e-06
22 *108:14 *405:32 5.25794e-06
23 *108:14 *405:38 5.25794e-06
24 *109:8 *405:28 6.33206e-07
25 *154:12 *525:A2 1.31716e-05
26 *154:12 *405:38 1.50458e-05
27 *292:39 *405:8 2.25196e-06
28 *292:39 *405:20 0
29 *324:16 *405:8 1.49407e-07
*RES
1 *910:Y *405:8 47.3528 
2 *405:8 *405:12 26.292 
3 *405:12 *405:20 44.9585 
4 *405:20 *405:28 49.5168 
5 *405:28 *405:32 32.7099 
6 *405:32 *405:38 33.4998 
7 *405:38 *470:A2 17.2 
8 *405:32 *525:A2 40.5098 
9 *405:12 *911:A 17.2 
*END

*D_NET *406 0.000242749
*CONN
*I *516:A I *D XNOR2x2_ASAP7_75t_R
*I *519:A1 I *D OA21x2_ASAP7_75t_R
*I *911:Y O *D BUFx3_ASAP7_75t_R
*CAP
1 *516:A 6.26397e-06
2 *519:A1 4.21015e-05
3 *911:Y 7.04631e-06
4 *406:25 1.94899e-05
5 *406:17 4.82588e-05
6 *406:6 8.41807e-05
7 *516:A *408:14 4.05232e-06
8 *406:17 *446:100 0
9 *406:25 *408:14 5.68629e-06
10 *519:A2 *519:A1 9.30483e-06
11 *65:23 *519:A1 2.6409e-06
12 *152:6 *519:A1 2.02204e-06
13 *211:163 *406:25 6.33206e-07
14 *211:169 *516:A 1.64907e-06
15 *277:22 *406:17 0
16 *405:12 *519:A1 2.92897e-06
17 *405:12 *406:6 3.68565e-06
18 *405:20 *519:A1 2.80427e-06
*RES
1 *911:Y *406:6 22.0134 
2 *406:6 *519:A1 42.3368 
3 *406:6 *406:17 39.7266 
4 *406:17 *406:25 42.0859 
5 *406:25 *516:A 38.1438 
*END

*D_NET *407 0.000237263
*CONN
*I *538:A I *D INVx1_ASAP7_75t_R
*I *540:A2 I *D OA211x2_ASAP7_75t_R
*I *534:C I *D AND3x1_ASAP7_75t_R
*I *914:Y O *D BUFx3_ASAP7_75t_R
*CAP
1 *538:A 0
2 *540:A2 0
3 *534:C 0
4 *914:Y 0
5 *407:44 2.26881e-05
6 *407:24 1.78356e-05
7 *407:18 2.09123e-05
8 *407:14 2.32108e-05
9 *407:4 4.28222e-05
10 *407:14 *418:10 1.2903e-05
11 *407:24 *418:10 0
12 *407:44 *418:10 0
13 *534:A *407:24 1.78341e-05
14 *914:A *407:14 5.79724e-07
15 *914:A *407:18 1.19435e-05
16 *914:A *407:24 1.31492e-05
17 *50:10 *407:24 5.37569e-06
18 *50:12 *407:24 3.16603e-07
19 *115:28 *407:24 1.4277e-05
20 *115:54 *407:24 1.89667e-07
21 *167:10 *407:44 5.49212e-07
22 *399:22 *407:24 3.26763e-05
*RES
1 *914:Y *407:4 17.2 
2 *407:4 *407:14 45.3232 
3 *407:14 *407:18 21.1422 
4 *407:18 *407:24 36.6274 
5 *407:24 *534:C 17.2 
6 *407:18 *540:A2 34.4 
7 *407:4 *407:44 45.8014 
8 *407:44 *538:A 17.2 
*END

*D_NET *408 0.000146639
*CONN
*I *516:B I *D XNOR2x2_ASAP7_75t_R
*I *918:Y O *D BUFx3_ASAP7_75t_R
*CAP
1 *516:B 0
2 *918:Y 4.03365e-05
3 *408:14 1.31029e-05
4 *408:6 5.34394e-05
5 *516:A *408:14 4.05232e-06
6 *22:20 *408:6 1.72416e-05
7 *345:10 *408:14 9.94583e-06
8 *345:27 *408:14 2.83449e-06
9 *406:25 *408:14 5.68629e-06
*RES
1 *918:Y *408:6 34.8492 
2 *408:6 *408:14 44.3103 
3 *408:14 *516:B 17.2 
*END

*D_NET *409 0.000304283
*CONN
*I *494:D I *D AND4x1_ASAP7_75t_R
*I *915:Y O *D BUFx3_ASAP7_75t_R
*CAP
1 *494:D 5.07184e-06
2 *915:Y 1.99205e-05
3 *409:10 5.37452e-05
4 *409:8 6.85939e-05
5 *494:D *693:A1 2.03526e-06
6 *494:D *438:20 5.62196e-06
7 *409:10 *447:349 1.96231e-05
8 *409:10 *447:362 8.06436e-06
9 *915:A *409:8 2.66797e-07
10 *37:14 *409:10 1.18996e-06
11 *133:10 *494:D 2.96818e-06
12 *145:125 *494:D 3.13426e-06
13 *145:125 *409:10 6.94376e-06
14 *208:212 *409:10 9.97692e-05
15 *274:243 *409:10 2.22736e-06
16 *286:20 *409:10 5.10743e-06
17 *334:257 *409:10 0
*RES
1 *915:Y *409:8 41.3527 
2 *409:8 *409:10 48.9954 
3 *409:10 *494:D 39.2134 
*END

*D_NET *410 0.000200019
*CONN
*I *654:A I *D INVx1_ASAP7_75t_R
*I *916:Y O *D BUFx3_ASAP7_75t_R
*CAP
1 *654:A 0
2 *916:Y 2.00592e-05
3 *410:12 1.32085e-05
4 *410:8 3.32677e-05
5 *61:40 *410:8 5.79724e-07
6 *67:23 *410:8 0
7 *67:34 *410:8 0
8 *147:22 *410:12 4.49472e-05
9 *274:61 *410:12 7.46778e-05
10 *277:32 *410:8 6.33206e-07
11 *277:32 *410:12 5.17782e-06
12 *277:34 *410:12 7.46759e-06
*RES
1 *916:Y *410:8 48.4791 
2 *410:8 *410:12 48.7547 
3 *410:12 *654:A 17.2 
*END

*D_NET *411 0.00056367
*CONN
*I *919:A I *D BUFx6f_ASAP7_75t_R
*I *575:A2 I *D OA211x2_ASAP7_75t_R
*I *936:A I *D BUFx3_ASAP7_75t_R
*I *917:Y O *D BUFx3_ASAP7_75t_R
*CAP
1 *919:A 1.65795e-05
2 *575:A2 3.35312e-06
3 *936:A 0
4 *917:Y 3.8594e-05
5 *411:19 2.88151e-05
6 *411:10 6.93676e-05
7 *411:8 6.04851e-05
8 *411:6 3.8594e-05
9 *919:A *412:14 2.6409e-06
10 *919:A *413:29 2.16279e-05
11 *411:10 *413:10 2.32374e-05
12 *411:10 *413:27 2.40331e-05
13 *411:10 *413:29 9.27529e-05
14 *411:10 *415:10 1.26923e-05
15 *411:10 *415:20 0
16 *411:10 *439:57 6.65157e-06
17 *411:19 *413:29 2.5115e-05
18 *411:19 *426:29 0
19 *35:10 *411:10 0
20 *35:10 *411:19 0
21 *36:8 *411:10 0
22 *41:34 *575:A2 2.88806e-06
23 *139:41 *411:6 1.52651e-06
24 *144:121 *411:10 1.99961e-05
25 *144:123 *411:6 6.63716e-05
26 *197:10 *919:A 0
27 *197:10 *411:19 0
28 *227:12 *411:10 0
29 *287:35 *411:10 5.67735e-06
30 *334:290 *411:10 2.67122e-06
*RES
1 *917:Y *411:6 38.0582 
2 *411:6 *411:8 17.2 
3 *411:8 *411:10 63.6378 
4 *411:10 *936:A 34.4 
5 *411:10 *411:19 9.01066 
6 *411:19 *575:A2 36.5393 
7 *411:19 *919:A 46.0281 
*END

*D_NET *412 0.000414526
*CONN
*I *563:A1 I *D AO21x1_ASAP7_75t_R
*I *475:A I *D INVx1_ASAP7_75t_R
*I *576:A I *D OR2x2_ASAP7_75t_R
*I *919:Y O *D BUFx6f_ASAP7_75t_R
*CAP
1 *563:A1 0
2 *475:A 7.22283e-06
3 *576:A 6.45528e-06
4 *919:Y 2.09988e-06
5 *412:42 1.89334e-05
6 *412:31 5.41049e-05
7 *412:27 6.10445e-05
8 *412:16 4.66268e-05
9 *412:14 2.31936e-05
10 *412:8 1.82178e-05
11 *412:8 *426:29 5.1866e-06
12 *412:16 *413:29 2.00151e-05
13 *412:27 *413:29 0.000115991
14 *412:27 *426:29 0
15 *412:42 *563:B 0
16 *412:42 *415:40 6.62106e-06
17 *919:A *412:14 2.6409e-06
18 *35:10 *412:8 1.19435e-05
19 *35:10 *412:27 0
20 *184:14 *475:A 3.65663e-06
21 *184:14 *412:31 3.68565e-06
22 *184:26 *412:27 0
23 *199:14 *412:14 5.17782e-06
24 *199:22 *412:16 1.12894e-06
25 *199:22 *412:27 5.79724e-07
26 *400:27 *412:42 0
27 *400:46 *412:42 0
*RES
1 *919:Y *412:8 38.3422 
2 *412:8 *412:14 44.5617 
3 *412:14 *412:16 6.75799 
4 *412:16 *576:A 37.0741 
5 *412:16 *412:27 38.8585 
6 *412:27 *412:31 28.4313 
7 *412:31 *475:A 20.9438 
8 *412:31 *412:42 33.5318 
9 *412:42 *563:A1 34.4 
*END

*D_NET *413 0.000948226
*CONN
*I *566:A1 I *D OA21x2_ASAP7_75t_R
*I *563:B I *D AO21x1_ASAP7_75t_R
*I *921:A I *D BUFx3_ASAP7_75t_R
*I *920:Y O *D BUFx3_ASAP7_75t_R
*CAP
1 *566:A1 1.1221e-05
2 *563:B 5.83512e-06
3 *921:A 3.78506e-06
4 *920:Y 3.19511e-05
5 *413:35 2.66799e-05
6 *413:29 9.10276e-05
7 *413:27 9.61631e-05
8 *413:10 2.61507e-05
9 *413:8 3.95574e-05
10 *921:A *415:10 9.31704e-06
11 *413:27 *439:57 1.849e-06
12 *413:29 *415:40 0
13 *413:29 *415:48 5.52652e-06
14 *413:29 *415:56 0
15 *413:29 *427:27 1.09842e-06
16 *562:B *413:27 2.55346e-06
17 *563:A2 *563:B 5.19475e-06
18 *578:B1 *413:29 0
19 *919:A *413:29 2.16279e-05
20 *920:A *413:8 2.66797e-07
21 *959:A *413:29 0
22 *35:10 *413:10 0
23 *35:10 *413:27 0
24 *35:20 *413:29 0
25 *38:18 *413:29 0
26 *186:8 *413:35 3.90258e-06
27 *186:12 *563:B 5.09995e-06
28 *186:12 *566:A1 2.28488e-05
29 *186:12 *413:29 1.89962e-06
30 *189:6 *566:A1 1.40724e-05
31 *400:8 *413:29 1.19435e-05
32 *400:27 *563:B 1.89962e-06
33 *400:27 *413:29 0.000179654
34 *400:31 *563:B 3.68287e-06
35 *400:31 *413:35 2.12009e-06
36 *400:46 *563:B 8.46363e-06
37 *400:46 *566:A1 1.16894e-05
38 *411:10 *413:10 2.32374e-05
39 *411:10 *413:27 2.40331e-05
40 *411:10 *413:29 9.27529e-05
41 *411:19 *413:29 2.5115e-05
42 *412:16 *413:29 2.00151e-05
43 *412:27 *413:29 0.000115991
44 *412:42 *563:B 0
*RES
1 *920:Y *413:8 45.6313 
2 *413:8 *413:10 7.88432 
3 *413:10 *921:A 37.0741 
4 *413:10 *413:27 46.0848 
5 *413:27 *413:29 111.507 
6 *413:29 *413:35 38.1438 
7 *413:35 *563:B 41.0163 
8 *413:35 *566:A1 46.5629 
*END

*D_NET *415 0.000650743
*CONN
*I *562:A I *D XNOR2x2_ASAP7_75t_R
*I *498:A2 I *D AO21x1_ASAP7_75t_R
*I *625:A I *D NOR3x1_ASAP7_75t_R
*I *623:A I *D AND2x2_ASAP7_75t_R
*I *921:Y O *D BUFx3_ASAP7_75t_R
*CAP
1 *562:A 0
2 *498:A2 1.99963e-06
3 *625:A 0
4 *623:A 1.37865e-05
5 *921:Y 1.32386e-05
6 *415:56 1.09169e-05
7 *415:48 3.81973e-05
8 *415:40 0.000147797
9 *415:20 2.02745e-05
10 *415:18 0.000127531
11 *415:14 9.95649e-06
12 *415:10 2.06695e-05
13 *415:40 *421:20 1.12894e-06
14 *561:B *415:40 0
15 *562:B *415:14 2.32593e-05
16 *562:B *415:18 6.02341e-06
17 *921:A *415:10 9.31704e-06
18 *959:A *415:40 1.51765e-05
19 *35:20 *415:48 5.52807e-07
20 *35:20 *415:56 8.33296e-06
21 *38:18 *415:40 7.40081e-05
22 *41:34 *415:40 2.65972e-05
23 *114:8 *415:40 8.3668e-07
24 *125:12 *415:40 0
25 *126:8 *415:40 0
26 *131:14 *415:20 0
27 *131:14 *415:40 0
28 *131:18 *623:A 0
29 *184:20 *415:40 7.09459e-06
30 *197:20 *415:40 1.66587e-05
31 *225:8 *623:A 2.52755e-07
32 *227:12 *623:A 9.27956e-06
33 *227:12 *415:20 2.34878e-06
34 *338:8 *415:40 2.06684e-05
35 *400:8 *415:40 0
36 *400:27 *415:40 0
37 *411:10 *415:10 1.26923e-05
38 *411:10 *415:20 0
39 *412:42 *415:40 6.62106e-06
40 *413:29 *415:40 0
41 *413:29 *415:48 5.52652e-06
42 *413:29 *415:56 0
*RES
1 *921:Y *415:10 42.6491 
2 *415:10 *415:14 23.0831 
3 *415:14 *415:18 18.8045 
4 *415:18 *415:20 6.75799 
5 *415:20 *623:A 44.9585 
6 *415:20 *625:A 34.4 
7 *415:18 *415:40 106.438 
8 *415:40 *415:48 47.9974 
9 *415:48 *415:56 40.9596 
10 *415:56 *498:A2 35.4697 
11 *415:14 *562:A 17.2 
*END

*D_NET *416 0.000110942
*CONN
*I *521:A1 I *D OA21x2_ASAP7_75t_R
*I *520:A I *D XOR2x2_ASAP7_75t_R
*I *926:Y O *D BUFx3_ASAP7_75t_R
*CAP
1 *521:A1 1.36592e-05
2 *520:A 9.56195e-06
3 *926:Y 1.63982e-05
4 *416:8 3.96193e-05
5 *61:10 *520:A 1.53875e-05
6 *61:10 *521:A1 9.4467e-06
7 *61:18 *521:A1 0
8 *62:10 *521:A1 0
9 *404:14 *520:A 0
10 *404:14 *521:A1 0
11 *404:14 *416:8 6.86929e-06
*RES
1 *926:Y *416:8 42.4224 
2 *416:8 *520:A 45.6633 
3 *416:8 *521:A1 46.2265 
*END

*D_NET *417 0.000278151
*CONN
*I *471:B I *D OR3x1_ASAP7_75t_R
*I *524:A I *D OR2x2_ASAP7_75t_R
*I *522:B I *D XOR2x2_ASAP7_75t_R
*I *472:A1 I *D OA21x2_ASAP7_75t_R
*I *927:Y O *D BUFx3_ASAP7_75t_R
*CAP
1 *471:B 4.9831e-06
2 *524:A 1.23853e-05
3 *522:B 0
4 *472:A1 0
5 *927:Y 4.4334e-06
6 *417:36 5.31282e-05
7 *417:27 5.65667e-06
8 *417:21 4.51295e-05
9 *417:14 1.51341e-05
10 *417:6 2.32804e-05
11 *417:14 *443:28 1.12901e-05
12 *417:27 *443:28 3.16603e-06
13 *472:B *417:14 2.28976e-06
14 *60:10 *417:14 0
15 *67:34 *471:B 4.89331e-06
16 *67:34 *524:A 1.26127e-05
17 *111:6 *524:A 5.17782e-06
18 *135:6 *471:B 1.35684e-06
19 *144:30 *417:6 2.03526e-06
20 *144:30 *417:21 1.44639e-06
21 *144:30 *417:36 2.59286e-05
22 *153:12 *417:14 0
23 *153:12 *417:27 8.2174e-07
24 *404:29 *471:B 1.31716e-05
25 *404:29 *524:A 2.98302e-05
*RES
1 *927:Y *417:6 18.8045 
2 *417:6 *417:14 45.0151 
3 *417:14 *472:A1 17.2 
4 *417:6 *417:21 1.60448 
5 *417:21 *417:27 38.9053 
6 *417:27 *522:B 17.2 
7 *417:21 *417:36 35.9189 
8 *417:36 *524:A 48.2808 
9 *417:36 *471:B 39.975 
*END

*D_NET *418 0.000955969
*CONN
*I *478:A I *D INVx1_ASAP7_75t_R
*I *546:B I *D OR3x1_ASAP7_75t_R
*I *554:D I *D OR4x1_ASAP7_75t_R
*I *484:A2 I *D OA21x2_ASAP7_75t_R
*I *543:C I *D OR3x1_ASAP7_75t_R
*I *537:C I *D OR3x1_ASAP7_75t_R
*I *922:Y O *D BUFx3_ASAP7_75t_R
*CAP
1 *478:A 2.78301e-06
2 *546:B 0
3 *554:D 1.1797e-05
4 *484:A2 1.77057e-06
5 *543:C 0
6 *537:C 9.05925e-06
7 *922:Y 2.76599e-05
8 *418:94 2.62731e-05
9 *418:79 5.36878e-05
10 *418:59 1.8954e-05
11 *418:53 4.94412e-05
12 *418:47 8.25191e-05
13 *418:43 3.81848e-05
14 *418:41 2.79556e-05
15 *418:33 4.03175e-05
16 *418:25 4.69638e-05
17 *418:10 6.22088e-05
18 *418:8 4.89906e-05
19 *484:A2 *419:67 3.90258e-06
20 *418:41 *423:19 6.33206e-07
21 *418:41 *423:38 2.84286e-06
22 *418:53 *419:61 5.49212e-07
23 *418:59 *419:61 2.80709e-06
24 *418:59 *423:62 2.20493e-06
25 *418:94 *422:6 1.04206e-05
26 *418:94 *422:14 2.68933e-07
27 *546:A *418:94 2.92897e-06
28 *914:A *418:8 2.66797e-07
29 *914:A *418:10 2.68933e-07
30 *113:56 *418:59 0
31 *115:10 *418:94 1.89116e-05
32 *115:22 *418:33 1.07544e-05
33 *115:54 *418:10 9.23493e-06
34 *116:38 *554:D 4.04733e-05
35 *116:38 *418:79 1.35684e-06
36 *116:46 *554:D 1.36155e-06
37 *117:10 *418:47 0
38 *117:14 *418:53 1.32074e-05
39 *117:14 *418:79 2.23215e-05
40 *117:55 *418:79 4.27977e-05
41 *157:48 *418:94 7.58265e-07
42 *159:10 *418:41 2.84286e-06
43 *159:10 *418:53 0
44 *159:20 *418:25 5.22376e-07
45 *159:20 *418:41 5.27356e-06
46 *159:27 *478:A 2.27522e-06
47 *159:27 *418:41 1.18822e-05
48 *160:8 *418:59 5.41446e-06
49 *160:10 *418:47 1.0743e-05
50 *160:10 *418:53 6.3133e-05
51 *160:10 *418:59 3.68044e-05
52 *160:10 *418:94 4.10928e-06
53 *160:21 *418:94 8.52021e-06
54 *160:29 *418:94 3.0327e-05
55 *165:10 *537:C 1.04475e-06
56 *165:10 *418:10 1.63193e-05
57 *165:10 *418:25 2.12481e-06
58 *167:10 *418:10 0
59 *179:10 *554:D 3.81627e-06
60 *399:22 *537:C 8.06799e-07
61 *399:22 *418:10 2.68933e-07
62 *407:14 *418:10 1.2903e-05
63 *407:24 *418:10 0
64 *407:44 *418:10 0
*RES
1 *922:Y *418:8 45.6313 
2 *418:8 *418:10 20.8371 
3 *418:10 *537:C 40.3681 
4 *418:10 *418:25 36.9885 
5 *418:25 *418:33 40.0351 
6 *418:33 *418:41 48.541 
7 *418:41 *418:43 17.2 
8 *418:43 *418:47 26.2107 
9 *418:47 *418:53 42.3441 
10 *418:53 *418:59 33.8683 
11 *418:59 *543:C 17.2 
12 *418:53 *484:A2 35.4697 
13 *418:47 *418:79 38.7914 
14 *418:79 *554:D 47.2358 
15 *418:43 *418:94 39.638 
16 *418:94 *546:B 17.2 
17 *418:41 *478:A 18.8045 
*END

*D_NET *419 0.000721083
*CONN
*I *544:A I *D OR2x2_ASAP7_75t_R
*I *530:B I *D OR2x2_ASAP7_75t_R
*I *527:B I *D XOR2x2_ASAP7_75t_R
*I *473:A1 I *D OA21x2_ASAP7_75t_R
*I *929:Y O *D BUFx3_ASAP7_75t_R
*CAP
1 *544:A 0
2 *530:B 0
3 *527:B 0
4 *473:A1 2.01843e-05
5 *929:Y 0
6 *419:67 6.99242e-05
7 *419:61 9.77173e-05
8 *419:48 4.56993e-05
9 *419:44 9.38121e-05
10 *419:42 8.46697e-05
11 *419:27 1.6743e-05
12 *419:19 6.53487e-05
13 *419:6 6.00262e-05
14 *419:19 *459:8 0
15 *419:44 *675:A1 1.49407e-08
16 *419:44 *677:B1 0
17 *419:44 *420:10 4.10928e-06
18 *419:44 *420:21 1.04031e-05
19 *419:44 *440:8 4.9137e-07
20 *419:44 *456:10 5.70736e-06
21 *419:48 *530:A 2.52755e-07
22 *484:A2 *419:67 3.90258e-06
23 *587:A *419:44 3.3893e-05
24 *719:A *419:44 4.97342e-06
25 *719:B *419:44 7.17027e-06
26 *972:A *419:42 9.425e-07
27 *50:16 *419:48 2.3365e-05
28 *53:42 *419:48 5.51397e-07
29 *53:42 *419:61 5.25278e-06
30 *53:42 *419:67 1.36155e-06
31 *56:12 *473:A1 0
32 *56:12 *419:19 0
33 *56:19 *419:19 0
34 *56:19 *419:42 0
35 *56:19 *419:44 0
36 *56:27 *419:44 2.19685e-06
37 *57:16 *473:A1 0
38 *67:34 *473:A1 0
39 *67:34 *419:19 0
40 *67:42 *419:27 0
41 *113:56 *419:61 0
42 *123:8 *419:67 0
43 *123:12 *419:67 0
44 *159:10 *419:61 7.84037e-07
45 *170:25 *419:67 0
46 *266:6 *419:27 0
47 *266:6 *419:42 1.2768e-05
48 *266:14 *419:27 5.54065e-06
49 *266:14 *419:42 8.2849e-06
50 *266:14 *419:44 2.50007e-07
51 *268:14 *419:44 1.04115e-05
52 *298:10 *419:44 4.42421e-06
53 *348:12 *419:19 9.80068e-06
54 *348:12 *419:27 4.92208e-06
55 *348:12 *419:42 1.82763e-06
56 *402:8 *419:67 0
57 *418:53 *419:61 5.49212e-07
58 *418:59 *419:61 2.80709e-06
*RES
1 *929:Y *419:6 34.4 
2 *419:6 *473:A1 48.2808 
3 *419:6 *419:19 28.7215 
4 *419:19 *419:27 43.7188 
5 *419:27 *527:B 34.4 
6 *419:19 *419:42 43.2123 
7 *419:42 *419:44 63.6378 
8 *419:44 *419:48 26.292 
9 *419:48 *530:B 17.2 
10 *419:48 *419:61 49.6869 
11 *419:61 *419:67 45.1526 
12 *419:67 *544:A 34.4 
*END

*D_NET *420 0.000293653
*CONN
*I *477:A I *D INVx1_ASAP7_75t_R
*I *535:A1 I *D OA21x2_ASAP7_75t_R
*I *530:A I *D OR2x2_ASAP7_75t_R
*I *531:A1 I *D OA21x2_ASAP7_75t_R
*I *930:Y O *D BUFx3_ASAP7_75t_R
*CAP
1 *477:A 0
2 *535:A1 2.32303e-06
3 *530:A 1.44271e-05
4 *531:A1 2.60032e-06
5 *930:Y 2.30947e-05
6 *420:40 2.9073e-05
7 *420:34 4.00611e-05
8 *420:21 4.32036e-05
9 *420:10 4.11605e-05
10 *420:21 *456:10 0
11 *420:34 *456:10 0
12 *531:B *420:21 0
13 *535:A2 *420:40 5.37569e-06
14 *535:B *535:A1 2.20493e-06
15 *50:16 *530:A 3.16328e-06
16 *50:22 *420:21 1.09067e-06
17 *50:22 *420:34 1.64348e-06
18 *53:42 *530:A 1.32074e-05
19 *54:19 *531:A1 2.52755e-07
20 *56:27 *420:10 9.67723e-06
21 *56:27 *420:21 8.33296e-06
22 *116:12 *420:34 4.43244e-06
23 *349:6 *420:40 3.05302e-06
24 *399:10 *420:40 0
25 *402:12 *420:40 3.0511e-05
26 *419:44 *420:10 4.10928e-06
27 *419:44 *420:21 1.04031e-05
28 *419:48 *530:A 2.52755e-07
*RES
1 *930:Y *420:10 45.8014 
2 *420:10 *531:A1 35.4697 
3 *420:10 *420:21 13.516 
4 *420:21 *530:A 43.492 
5 *420:21 *420:34 27.337 
6 *420:34 *420:40 32.9367 
7 *420:40 *535:A1 36.0045 
8 *420:34 *477:A 17.2 
*END

*D_NET *421 0.00132111
*CONN
*I *935:A I *D BUFx3_ASAP7_75t_R
*I *480:A I *D NOR2x1_ASAP7_75t_R
*I *554:A I *D OR4x1_ASAP7_75t_R
*I *557:C I *D OR3x1_ASAP7_75t_R
*I *556:A1 I *D OA21x2_ASAP7_75t_R
*I *923:Y O *D BUFx3_ASAP7_75t_R
*CAP
1 *935:A 0
2 *480:A 0
3 *554:A 5.63146e-06
4 *557:C 0
5 *556:A1 1.7434e-05
6 *923:Y 2.16916e-05
7 *421:76 1.40325e-05
8 *421:65 7.29865e-06
9 *421:55 3.10084e-05
10 *421:53 1.83218e-05
11 *421:49 3.25816e-05
12 *421:38 5.67112e-05
13 *421:36 2.22661e-05
14 *421:30 8.15965e-05
15 *421:28 6.90391e-05
16 *421:26 2.85999e-05
17 *421:20 3.5081e-05
18 *421:14 0.000120685
19 *421:12 0.000114204
20 *421:10 4.48449e-05
21 *421:8 6.65365e-05
22 *554:A *554:B 1.2768e-05
23 *421:10 *432:12 0
24 *421:10 *444:18 0
25 *421:10 *448:107 4.37274e-06
26 *421:14 *491:A1 2.40241e-05
27 *421:14 *430:6 1.62312e-05
28 *421:26 *425:8 5.0551e-07
29 *421:26 *426:12 3.13426e-06
30 *421:36 *424:8 5.52652e-06
31 *421:36 *452:10 1.45123e-05
32 *421:49 *424:25 0
33 *421:49 *452:10 0
34 *421:53 *480:B 2.03526e-06
35 *421:55 *480:B 9.67251e-06
36 *421:65 *557:B 5.85387e-06
37 *421:65 *423:92 8.58704e-06
38 *421:76 *549:A 6.45875e-06
39 *421:76 *423:92 3.47607e-06
40 *421:76 *424:34 8.46363e-06
41 *421:76 *424:45 3.35641e-06
42 *421:76 *424:56 1.47844e-05
43 *491:A2 *421:14 2.88806e-06
44 *25:51 *421:10 1.34329e-05
45 *26:8 *421:10 8.45637e-06
46 *41:40 *421:26 9.33318e-06
47 *41:54 *421:26 1.15587e-05
48 *41:58 *421:30 6.51427e-05
49 *116:46 *554:A 2.01337e-05
50 *120:8 *421:26 2.74606e-06
51 *121:8 *421:20 1.09067e-06
52 *130:6 *421:14 5.64099e-05
53 *158:27 *556:A1 3.22548e-05
54 *158:27 *421:38 1.96943e-05
55 *181:10 *421:49 6.01759e-05
56 *181:10 *421:76 0
57 *182:10 *421:76 2.28488e-05
58 *230:32 *421:10 1.55169e-05
59 *232:8 *421:10 3.25578e-06
60 *234:8 *421:10 2.85516e-05
61 *340:20 *421:8 1.51636e-05
62 *415:40 *421:20 1.12894e-06
*RES
1 *923:Y *421:8 43.492 
2 *421:8 *421:10 42.8006 
3 *421:10 *421:12 17.2 
4 *421:12 *421:14 58.2959 
5 *421:14 *421:20 38.9053 
6 *421:20 *421:26 36.7088 
7 *421:26 *421:28 17.2 
8 *421:28 *421:30 33.694 
9 *421:30 *421:36 46.2265 
10 *421:36 *421:38 5.88308 
11 *421:38 *556:A1 26.8269 
12 *421:38 *421:49 43.1056 
13 *421:49 *421:53 18.8045 
14 *421:53 *421:55 8.02238 
15 *421:55 *421:65 40.4248 
16 *421:65 *557:C 17.2 
17 *421:55 *421:76 47.916 
18 *421:76 *554:A 23.0831 
19 *421:53 *480:A 17.2 
20 *421:20 *935:A 17.2 
*END

*D_NET *422 9.26125e-05
*CONN
*I *476:A I *D INVx1_ASAP7_75t_R
*I *546:C I *D OR3x1_ASAP7_75t_R
*I *932:Y O *D BUFx3_ASAP7_75t_R
*CAP
1 *476:A 0
2 *546:C 0
3 *932:Y 6.50617e-06
4 *422:22 3.96979e-06
5 *422:14 3.37593e-05
6 *422:6 3.62956e-05
7 *157:48 *422:22 1.36155e-06
8 *160:29 *422:14 3.05118e-08
9 *418:94 *422:6 1.04206e-05
10 *418:94 *422:14 2.68933e-07
*RES
1 *932:Y *422:6 19.8741 
2 *422:6 *422:14 43.5002 
3 *422:14 *422:22 36.5021 
4 *422:22 *546:C 17.2 
5 *422:6 *476:A 17.2 
*END

*D_NET *423 0.00116948
*CONN
*I *554:B I *D OR4x1_ASAP7_75t_R
*I *483:B I *D OR2x2_ASAP7_75t_R
*I *543:B I *D OR3x1_ASAP7_75t_R
*I *932:A I *D BUFx3_ASAP7_75t_R
*I *539:A I *D OR3x1_ASAP7_75t_R
*I *536:A I *D AND4x1_ASAP7_75t_R
*I *545:A1 I *D OA21x2_ASAP7_75t_R
*I *928:Y O *D BUFx3_ASAP7_75t_R
*CAP
1 *554:B 6.50815e-06
2 *483:B 0
3 *543:B 0
4 *932:A 8.66997e-06
5 *539:A 1.16247e-05
6 *536:A 0
7 *545:A1 9.11293e-06
8 *928:Y 0
9 *423:92 4.22195e-05
10 *423:85 2.42848e-05
11 *423:79 5.99962e-05
12 *423:77 3.58699e-05
13 *423:75 5.15555e-05
14 *423:62 9.78012e-06
15 *423:54 5.80646e-05
16 *423:38 3.22575e-05
17 *423:27 1.86942e-05
18 *423:19 4.50911e-05
19 *423:8 3.57517e-05
20 *423:4 4.48035e-05
21 *554:B *554:C 1.59615e-06
22 *423:77 *912:A 3.73144e-06
23 *423:85 *485:A1 1.29755e-05
24 *423:85 *424:14 6.92634e-06
25 *423:92 *424:25 3.90551e-06
26 *423:92 *424:34 7.2313e-06
27 *481:D *554:B 2.03526e-06
28 *539:B *539:A 6.92634e-06
29 *539:C *539:A 4.17901e-06
30 *554:A *554:B 1.2768e-05
31 *556:A2 *423:85 9.15342e-06
32 *556:A2 *423:92 6.33206e-07
33 *44:8 *423:85 4.74248e-06
34 *47:25 *423:75 6.07408e-06
35 *50:24 *545:A1 1.67206e-05
36 *113:56 *423:8 6.93377e-05
37 *113:56 *423:19 4.86244e-05
38 *116:23 *423:27 2.05045e-06
39 *116:36 *423:19 1.09842e-06
40 *116:46 *554:B 2.12009e-06
41 *117:20 *423:27 6.48289e-06
42 *117:20 *423:38 7.8592e-06
43 *117:39 *423:38 1.15587e-05
44 *117:65 *423:92 1.2903e-05
45 *157:25 *423:8 7.03903e-05
46 *157:25 *423:19 6.50145e-05
47 *157:25 *423:38 3.22574e-06
48 *157:33 *423:27 9.31704e-06
49 *157:48 *539:A 1.32074e-05
50 *157:48 *932:A 2.68282e-05
51 *158:27 *423:77 6.12523e-05
52 *159:20 *423:27 0
53 *159:20 *423:38 1.11749e-05
54 *160:10 *423:62 4.74248e-06
55 *161:8 *423:38 4.45472e-06
56 *167:10 *539:A 1.90474e-05
57 *170:8 *423:77 1.86121e-05
58 *171:10 *423:92 1.62854e-06
59 *172:10 *423:92 4.97342e-06
60 *172:21 *423:92 2.19685e-06
61 *182:10 *423:92 1.96158e-05
62 *351:19 *423:27 0
63 *402:12 *545:A1 4.19869e-05
64 *402:40 *423:77 6.79089e-06
65 *402:40 *423:92 1.13547e-05
66 *418:41 *423:19 6.33206e-07
67 *418:41 *423:38 2.84286e-06
68 *418:59 *423:62 2.20493e-06
69 *421:65 *423:92 8.58704e-06
70 *421:76 *423:92 3.47607e-06
*RES
1 *928:Y *423:4 17.2 
2 *423:4 *423:8 40.853 
3 *423:8 *545:A1 46.701 
4 *423:8 *423:19 22.5266 
5 *423:19 *423:27 44.8451 
6 *423:27 *536:A 34.4 
7 *423:19 *423:38 30.716 
8 *423:38 *539:A 28.4313 
9 *423:38 *932:A 25.2224 
10 *423:4 *423:54 13.3706 
11 *423:54 *423:62 42.7625 
12 *423:62 *543:B 17.2 
13 *423:54 *423:75 43.7754 
14 *423:75 *423:77 34.7636 
15 *423:77 *423:79 17.2 
16 *423:79 *423:85 34.3464 
17 *423:85 *483:B 17.2 
18 *423:79 *423:92 35.4795 
19 *423:92 *554:B 39.7482 
*END

*D_NET *424 0.000417983
*CONN
*I *483:A I *D OR2x2_ASAP7_75t_R
*I *549:A I *D XNOR2x2_ASAP7_75t_R
*I *554:C I *D OR4x1_ASAP7_75t_R
*I *557:B I *D OR3x1_ASAP7_75t_R
*I *480:B I *D NOR2x1_ASAP7_75t_R
*I *550:A I *D OR2x2_ASAP7_75t_R
*I *485:A1 I *D OA21x2_ASAP7_75t_R
*I *925:Y O *D BUFx3_ASAP7_75t_R
*CAP
1 *483:A 0
2 *549:A 3.15229e-06
3 *554:C 2.323e-05
4 *557:B 8.94617e-06
5 *480:B 1.29063e-05
6 *550:A 0
7 *485:A1 1.22442e-05
8 *925:Y 5.2272e-06
9 *424:56 3.19036e-05
10 *424:45 1.62259e-05
11 *424:34 3.69544e-05
12 *424:25 4.21465e-05
13 *424:14 3.74442e-05
14 *424:12 1.52025e-05
15 *424:8 1.50864e-05
16 *481:D *554:C 1.75616e-05
17 *485:B *485:A1 5.09299e-06
18 *554:B *554:C 1.59615e-06
19 *556:A2 *424:25 2.31101e-05
20 *44:8 *424:25 8.33296e-06
21 *47:14 *485:A1 5.34278e-06
22 *116:46 *554:C 0
23 *117:59 *557:B 1.52651e-06
24 *122:6 *424:12 1.04475e-06
25 *124:6 *424:12 2.52755e-06
26 *124:6 *424:14 1.78333e-06
27 *181:10 *549:A 0
28 *181:10 *424:25 0
29 *181:10 *424:34 0
30 *181:10 *424:56 0
31 *182:8 *557:B 2.20493e-06
32 *421:36 *424:8 5.52652e-06
33 *421:49 *424:25 0
34 *421:53 *480:B 2.03526e-06
35 *421:55 *480:B 9.67251e-06
36 *421:65 *557:B 5.85387e-06
37 *421:76 *549:A 6.45875e-06
38 *421:76 *424:34 8.46363e-06
39 *421:76 *424:45 3.35641e-06
40 *421:76 *424:56 1.47844e-05
41 *423:85 *485:A1 1.29755e-05
42 *423:85 *424:14 6.92634e-06
43 *423:92 *424:25 3.90551e-06
44 *423:92 *424:34 7.2313e-06
*RES
1 *925:Y *424:8 38.9053 
2 *424:8 *424:12 24.1527 
3 *424:12 *424:14 4.81343 
4 *424:14 *485:A1 27.3617 
5 *424:14 *424:25 34.6581 
6 *424:25 *550:A 34.4 
7 *424:25 *424:34 18.5845 
8 *424:34 *480:B 44.5617 
9 *424:34 *424:45 1.6895 
10 *424:45 *557:B 39.7482 
11 *424:45 *424:56 5.63166 
12 *424:56 *554:C 44.5617 
13 *424:56 *549:A 37.2158 
14 *424:12 *483:A 17.2 
*END

*D_NET *425 0.000256391
*CONN
*I *576:B I *D OR2x2_ASAP7_75t_R
*I *553:A I *D XOR2x2_ASAP7_75t_R
*I *487:B1 I *D AOI221x1_ASAP7_75t_R
*I *935:Y O *D BUFx3_ASAP7_75t_R
*CAP
1 *576:B 1.45345e-05
2 *553:A 0
3 *487:B1 0
4 *935:Y 2.86371e-05
5 *425:23 5.25933e-05
6 *425:10 4.66148e-05
7 *425:8 3.71931e-05
8 *425:8 *426:12 4.52425e-05
9 *425:10 *426:20 9.67723e-06
10 *120:8 *425:10 0
11 *120:8 *425:23 0
12 *121:8 *425:10 0
13 *125:12 *425:10 0
14 *125:12 *425:23 0
15 *178:6 *425:23 3.65131e-06
16 *199:14 *425:23 1.77416e-05
17 *400:20 *425:23 0
18 *421:26 *425:8 5.0551e-07
*RES
1 *935:Y *425:8 48.8403 
2 *425:8 *425:10 6.75799 
3 *425:10 *487:B1 34.4 
4 *425:10 *425:23 43.7502 
5 *425:23 *553:A 17.2 
6 *425:23 *576:B 25.7572 
*END

*D_NET *426 0.000336595
*CONN
*I *560:A I *D XNOR2x2_ASAP7_75t_R
*I *487:A1 I *D AOI221x1_ASAP7_75t_R
*I *936:Y O *D BUFx3_ASAP7_75t_R
*CAP
1 *560:A 0
2 *487:A1 0
3 *936:Y 0
4 *426:29 2.73952e-05
5 *426:20 1.58312e-05
6 *426:12 5.60717e-05
7 *426:6 6.76358e-05
8 *486:C *426:20 6.61478e-06
9 *578:B1 *426:29 3.85552e-05
10 *35:10 *426:29 1.1747e-05
11 *41:40 *426:12 3.09627e-05
12 *197:10 *426:29 1.82715e-05
13 *199:22 *426:29 2.68933e-07
14 *411:19 *426:29 0
15 *412:8 *426:29 5.1866e-06
16 *412:27 *426:29 0
17 *421:26 *426:12 3.13426e-06
18 *425:8 *426:12 4.52425e-05
19 *425:10 *426:20 9.67723e-06
*RES
1 *936:Y *426:6 34.4 
2 *426:6 *426:12 47.2352 
3 *426:12 *426:20 43.7188 
4 *426:20 *487:A1 17.2 
5 *426:6 *426:29 45.9215 
6 *426:29 *560:A 17.2 
*END

*D_NET *427 0.000139625
*CONN
*I *564:B I *D NAND2x1_ASAP7_75t_R
*I *580:A1 I *D AO21x1_ASAP7_75t_R
*I *498:A1 I *D AO21x1_ASAP7_75t_R
*I *566:B I *D OA21x2_ASAP7_75t_R
*I *937:Y O *D BUFx3_ASAP7_75t_R
*CAP
1 *564:B 1.18766e-05
2 *580:A1 0
3 *498:A1 0
4 *566:B 6.46286e-06
5 *937:Y 0
6 *427:27 5.59745e-06
7 *427:14 1.88309e-05
8 *427:8 1.05435e-05
9 *427:6 1.56495e-05
10 *564:A *564:B 5.25794e-06
11 *937:A *564:B 6.78445e-06
12 *35:20 *564:B 2.20128e-06
13 *35:20 *427:8 4.10928e-06
14 *35:20 *427:14 5.04414e-06
15 *35:20 *427:27 4.31886e-06
16 *186:12 *564:B 0
17 *186:12 *427:8 0
18 *186:12 *427:14 0
19 *186:25 *564:B 1.0123e-05
20 *187:6 *564:B 2.28976e-06
21 *189:6 *566:B 1.42921e-05
22 *189:21 *427:14 1.26641e-06
23 *189:21 *427:27 1.3879e-05
24 *413:29 *427:27 1.09842e-06
*RES
1 *937:Y *427:6 34.4 
2 *427:6 *427:8 3.379 
3 *427:8 *427:14 22.7466 
4 *427:14 *566:B 22.0134 
5 *427:14 *427:27 41.158 
6 *427:27 *498:A1 17.2 
7 *427:8 *580:A1 34.4 
8 *427:6 *564:B 48.5038 
*END

*D_NET *428 0.000688421
*CONN
*I *580:B I *D AO21x1_ASAP7_75t_R
*I *582:A1 I *D OA21x2_ASAP7_75t_R
*I *498:B I *D AO21x1_ASAP7_75t_R
*I *570:A1 I *D OAI22x1_ASAP7_75t_R
*I *571:A1 I *D AO21x1_ASAP7_75t_R
*I *565:A I *D AND3x1_ASAP7_75t_R
*I *572:A I *D NOR2x1_ASAP7_75t_R
*I *569:A I *D OR2x4_ASAP7_75t_R
*I *938:Y O *D BUFx3_ASAP7_75t_R
*CAP
1 *580:B 2.11099e-06
2 *582:A1 4.11006e-06
3 *498:B 4.50492e-06
4 *570:A1 0
5 *571:A1 9.6802e-06
6 *565:A 3.90013e-06
7 *572:A 4.15379e-06
8 *569:A 1.17802e-06
9 *938:Y 1.70933e-05
10 *428:75 1.89377e-05
11 *428:71 2.98317e-05
12 *428:62 1.52468e-05
13 *428:38 2.74728e-05
14 *428:27 3.03485e-05
15 *428:14 3.57847e-05
16 *428:8 0.000140461
17 *428:6 0.000137401
18 *569:B *428:27 3.65131e-06
19 *570:A2 *428:62 5.00394e-06
20 *570:B2 *428:14 9.93857e-06
21 *574:A1 *565:A 2.11853e-06
22 *574:B *428:62 2.77657e-06
23 *574:C *428:8 4.4994e-06
24 *938:A *428:6 6.86929e-06
25 *35:20 *428:71 1.64764e-06
26 *35:20 *428:75 7.64465e-06
27 *137:8 *582:A1 3.73615e-06
28 *137:10 *428:75 0
29 *186:25 *428:71 1.30736e-05
30 *187:14 *428:8 1.2768e-05
31 *187:14 *428:14 3.13899e-05
32 *187:20 *565:A 1.2768e-05
33 *189:29 *428:75 7.55688e-06
34 *190:14 *428:27 3.63527e-05
35 *190:20 *571:A1 0
36 *190:20 *572:A 1.23408e-05
37 *190:20 *428:27 1.95129e-06
38 *190:20 *428:38 0
39 *190:40 *428:62 2.83874e-07
40 *195:10 *428:38 0
41 *196:18 *569:A 1.09842e-06
42 *196:18 *428:14 1.12894e-06
43 *201:12 *428:75 0
44 *319:8 *569:A 5.09995e-06
45 *319:8 *428:14 1.85401e-05
46 *341:10 *428:8 0
47 *352:17 *571:A1 1.70866e-06
48 *352:17 *428:38 2.25787e-06
*RES
1 *938:Y *428:6 26.292 
2 *428:6 *428:8 50.8084 
3 *428:8 *428:14 33.05 
4 *428:14 *569:A 36.0895 
5 *428:14 *428:27 28.4313 
6 *428:27 *572:A 20.9438 
7 *428:27 *428:38 26.2107 
8 *428:38 *565:A 38.1438 
9 *428:38 *571:A1 41.158 
10 *428:8 *428:62 45.6633 
11 *428:62 *570:A1 17.2 
12 *428:6 *428:71 32.4055 
13 *428:71 *428:75 27.337 
14 *428:75 *498:B 19.8741 
15 *428:75 *582:A1 20.409 
16 *428:71 *580:B 35.4697 
*END

*D_NET *429 0.000141136
*CONN
*I *583:A1 I *D OAI21x1_ASAP7_75t_R
*I *581:B I *D AOI21x1_ASAP7_75t_R
*I *579:A I *D XOR2x2_ASAP7_75t_R
*I *939:Y O *D BUFx3_ASAP7_75t_R
*CAP
1 *583:A1 0
2 *581:B 1.68106e-05
3 *579:A 9.79449e-06
4 *939:Y 3.78477e-06
5 *429:21 2.4124e-05
6 *429:8 2.08926e-05
7 *581:B *581:A1 4.20803e-06
8 *581:B *431:23 1.07377e-06
9 *429:8 *431:25 2.38942e-05
10 *429:21 *431:12 5.04414e-06
11 *429:21 *431:25 1.63973e-05
12 *429:21 *444:18 0
13 *583:A2 *429:21 2.20128e-06
14 *200:12 *429:8 1.06832e-05
15 *204:8 *429:21 2.22736e-06
*RES
1 *939:Y *429:8 42.2843 
2 *429:8 *579:A 39.2134 
3 *429:8 *429:21 26.2107 
4 *429:21 *581:B 26.292 
5 *429:21 *583:A1 17.2 
*END

*D_NET *430 0.00039999
*CONN
*I *585:B I *D XNOR2x2_ASAP7_75t_R
*I *497:B I *D AO21x1_ASAP7_75t_R
*I *491:A1 I *D OAI21x1_ASAP7_75t_R
*I *940:Y O *D BUFx3_ASAP7_75t_R
*CAP
1 *585:B 0
2 *497:B 2.5525e-06
3 *491:A1 8.47372e-06
4 *940:Y 4.24223e-05
5 *430:38 2.81843e-05
6 *430:34 4.45528e-05
7 *430:17 3.48267e-05
8 *430:6 6.68017e-05
9 *430:17 *444:18 1.75144e-05
10 *430:34 *444:18 2.35211e-06
11 *491:A2 *491:A1 1.95129e-06
12 *491:B *491:A1 5.51397e-07
13 *497:A2 *430:34 8.58704e-06
14 *30:10 *430:34 1.692e-05
15 *30:10 *430:38 0
16 *136:8 *430:17 1.70866e-06
17 *234:8 *430:17 0
18 *234:8 *430:34 0
19 *234:8 *430:38 3.16603e-06
20 *234:14 *430:34 2.20493e-06
21 *234:16 *430:38 7.69652e-05
22 *421:14 *491:A1 2.40241e-05
23 *421:14 *430:6 1.62312e-05
*RES
1 *940:Y *430:6 39.1278 
2 *430:6 *491:A1 24.1527 
3 *430:6 *430:17 31.2792 
4 *430:17 *497:B 35.4697 
5 *430:17 *430:34 49.3504 
6 *430:34 *430:38 45.3583 
7 *430:38 *585:B 17.2 
*END

*D_NET *431 0.000496632
*CONN
*I *582:B I *D OA21x2_ASAP7_75t_R
*I *578:A1 I *D AO221x1_ASAP7_75t_R
*I *499:C I *D AND4x1_ASAP7_75t_R
*I *581:A1 I *D AOI21x1_ASAP7_75t_R
*I *941:Y O *D BUFx3_ASAP7_75t_R
*CAP
1 *582:B 1.8702e-05
2 *578:A1 0
3 *499:C 1.19594e-05
4 *581:A1 1.33222e-05
5 *941:Y 6.21723e-06
6 *431:40 3.12115e-05
7 *431:25 7.8298e-05
8 *431:23 4.23257e-05
9 *431:12 4.00717e-05
10 *431:8 4.44701e-05
11 *578:A2 *431:40 2.28976e-06
12 *581:B *581:A1 4.20803e-06
13 *581:B *431:23 1.07377e-06
14 *583:A2 *431:12 3.79494e-06
15 *713:B *431:40 2.03526e-06
16 *26:48 *499:C 9.70478e-06
17 *28:10 *431:25 3.3056e-05
18 *28:12 *499:C 2.28488e-05
19 *28:12 *431:25 6.72009e-06
20 *29:8 *499:C 5.52807e-07
21 *29:8 *431:25 1.37455e-06
22 *29:39 *431:25 6.26016e-06
23 *30:34 *431:25 4.74248e-06
24 *128:8 *431:8 3.3563e-06
25 *128:8 *431:12 9.39763e-06
26 *137:25 *431:40 1.95948e-05
27 *200:8 *431:40 2.66797e-07
28 *200:12 *431:25 2.25787e-06
29 *202:10 *581:A1 8.65792e-06
30 *203:8 *582:B 7.34229e-06
31 *204:8 *431:12 1.51837e-05
32 *429:8 *431:25 2.38942e-05
33 *429:21 *431:12 5.04414e-06
34 *429:21 *431:25 1.63973e-05
*RES
1 *941:Y *431:8 40.0317 
2 *431:8 *431:12 36.9108 
3 *431:12 *581:A1 26.292 
4 *431:12 *431:23 20.9438 
5 *431:23 *431:25 34.3531 
6 *431:25 *499:C 44.4236 
7 *431:25 *431:40 38.593 
8 *431:40 *578:A1 17.2 
9 *431:8 *582:B 46.701 
*END

*D_NET *432 0.00125765
*CONN
*I *737:CLK I *D DFFHQNx1_ASAP7_75t_R
*I *751:CLK I *D DFFHQNx1_ASAP7_75t_R
*I *735:CLK I *D DFFHQNx1_ASAP7_75t_R
*I *736:CLK I *D DFFHQNx1_ASAP7_75t_R
*I *752:CLK I *D DFFHQNx1_ASAP7_75t_R
*I *931:A I *D BUFx4f_ASAP7_75t_R
*I *753:CLK I *D DFFHQNx1_ASAP7_75t_R
*I *732:CLK I *D DFFHQNx1_ASAP7_75t_R
*I *748:CLK I *D DFFHQNx1_ASAP7_75t_R
*I *942:Y O *D BUFx4_ASAP7_75t_R
*CAP
1 *737:CLK 0
2 *751:CLK 2.91246e-06
3 *735:CLK 0
4 *736:CLK 3.09725e-05
5 *752:CLK 0
6 *931:A 2.41082e-05
7 *753:CLK 0
8 *732:CLK 4.41284e-06
9 *748:CLK 2.07338e-05
10 *942:Y 0
11 *432:100 5.46306e-05
12 *432:94 5.75431e-05
13 *432:92 4.24976e-05
14 *432:81 7.92505e-05
15 *432:77 2.65528e-05
16 *432:75 5.24687e-05
17 *432:64 5.74456e-05
18 *432:60 6.18292e-05
19 *432:40 3.21074e-06
20 *432:34 7.70942e-05
21 *432:12 7.02951e-05
22 *432:10 0.000136063
23 *432:8 6.75534e-05
24 *432:6 6.24943e-05
25 *432:34 *614:B2 1.23489e-06
26 *432:34 *447:428 2.3311e-05
27 *432:40 *453:8 1.30801e-05
28 *432:75 *447:452 0
29 *432:81 *447:452 6.65157e-06
30 *432:92 *447:452 9.94685e-06
31 *614:B1 *432:34 1.40419e-08
32 *614:C *432:34 3.24655e-06
33 *615:B *432:12 0
34 *632:A2 *931:A 7.88079e-06
35 *635:A1 *432:100 2.74027e-05
36 *732:D *732:CLK 0
37 *27:10 *432:8 3.34131e-06
38 *27:10 *432:60 2.25039e-06
39 *40:21 *748:CLK 0
40 *40:21 *432:12 0
41 *42:8 *432:12 2.97815e-06
42 *76:8 *432:100 0
43 *92:12 *432:92 0
44 *208:191 *432:12 0
45 *211:269 *432:92 2.27178e-05
46 *211:281 *432:92 0
47 *230:32 *432:12 0
48 *274:322 *432:81 2.71199e-05
49 *274:322 *432:92 2.68586e-05
50 *277:253 *432:40 5.27966e-06
51 *286:20 *748:CLK 0
52 *288:10 *432:100 1.90624e-06
53 *288:21 *432:92 0
54 *289:12 *432:64 2.39014e-05
55 *289:12 *432:75 2.9823e-05
56 *307:28 *432:64 1.12894e-06
57 *339:14 *432:64 1.13547e-05
58 *339:18 *432:64 6.79341e-05
59 *397:31 *432:34 6.21907e-06
60 *421:10 *432:12 0
*RES
1 *942:Y *432:6 34.4 
2 *432:6 *432:8 17.4581 
3 *432:8 *432:10 11.8265 
4 *432:10 *432:12 31.5373 
5 *432:12 *748:CLK 47.3528 
6 *432:12 *732:CLK 36.0045 
7 *432:10 *432:34 45.5457 
8 *432:34 *432:40 38.9053 
9 *432:40 *753:CLK 17.2 
10 *432:8 *931:A 44.5617 
11 *432:6 *432:60 38.6817 
12 *432:60 *432:64 49.3005 
13 *432:64 *752:CLK 34.4 
14 *432:64 *432:75 41.9793 
15 *432:75 *432:77 9.09202 
16 *432:77 *432:81 26.2107 
17 *432:81 *736:CLK 47.7706 
18 *432:81 *432:92 38.8585 
19 *432:92 *432:94 17.2 
20 *432:94 *432:100 47.9118 
21 *432:100 *735:CLK 34.4 
22 *432:94 *751:CLK 18.8045 
23 *432:77 *737:CLK 17.2 
*END

*D_NET *433 0.000133132
*CONN
*I *706:B2 I *D OA222x2_ASAP7_75t_R
*I *673:A1 I *D OA21x2_ASAP7_75t_R
*I *943:Y O *D BUFx3_ASAP7_75t_R
*CAP
1 *706:B2 1.69946e-06
2 *673:A1 1.0354e-05
3 *943:Y 8.49518e-06
4 *433:35 2.61123e-05
5 *433:27 3.43317e-05
6 *433:8 2.87681e-05
7 *673:A1 *437:58 3.3563e-06
8 *673:A1 *437:68 5.37866e-07
9 *433:8 *437:68 2.83874e-07
10 *673:B *673:A1 1.52651e-06
11 *706:C1 *433:35 4.41457e-06
12 *760:D *433:27 6.7842e-07
13 *262:37 *673:A1 3.32579e-06
14 *262:37 *433:27 6.7842e-07
15 *262:37 *433:35 5.0551e-07
16 *277:113 *673:A1 0
17 *350:30 *433:8 0
18 *350:30 *433:27 0
19 *350:30 *433:35 8.06436e-06
*RES
1 *943:Y *433:8 40.0317 
2 *433:8 *673:A1 43.354 
3 *433:8 *433:27 40.9596 
4 *433:27 *433:35 46.3079 
5 *433:35 *706:B2 35.4697 
*END

*D_NET *434 0.000388494
*CONN
*I *678:A1 I *D OA22x2_ASAP7_75t_R
*I *708:B2 I *D OA222x2_ASAP7_75t_R
*I *944:Y O *D BUFx3_ASAP7_75t_R
*CAP
1 *678:A1 0
2 *708:B2 0
3 *944:Y 5.02284e-06
4 *434:30 7.41186e-06
5 *434:22 5.67019e-05
6 *434:18 7.66158e-05
7 *434:12 2.84877e-05
8 *434:8 6.18471e-06
9 *434:12 *437:104 3.68287e-06
10 *434:18 *437:6 4.04733e-05
11 *434:18 *437:91 3.90258e-06
12 *434:18 *437:104 4.39243e-05
13 *434:18 *448:63 1.56976e-06
14 *434:18 *449:23 0
15 *434:22 *437:8 0
16 *434:30 *437:8 5.51397e-07
17 *678:A2 *434:12 6.7842e-07
18 *144:169 *434:12 6.7842e-07
19 *144:169 *434:18 2.08715e-05
20 *267:8 *434:8 1.31716e-05
21 *274:111 *434:22 1.2768e-05
22 *274:111 *434:30 5.62196e-06
23 *277:89 *434:18 4.55487e-06
24 *277:91 *434:22 5.56198e-05
25 *334:228 *434:8 0
*RES
1 *944:Y *434:8 38.9053 
2 *434:8 *434:12 18.2696 
3 *434:12 *434:18 49.0097 
4 *434:18 *434:22 42.3368 
5 *434:22 *434:30 38.8203 
6 *434:30 *708:B2 17.2 
7 *434:12 *678:A1 17.2 
*END

*D_NET *435 0.000395427
*CONN
*I *683:A1 I *D OA22x2_ASAP7_75t_R
*I *710:B2 I *D OA222x2_ASAP7_75t_R
*I *945:Y O *D BUFx3_ASAP7_75t_R
*CAP
1 *683:A1 2.11233e-06
2 *710:B2 0
3 *945:Y 0
4 *435:22 6.85355e-06
5 *435:14 9.7143e-05
6 *435:12 0.000100473
7 *435:8 3.74903e-05
8 *435:6 2.51947e-05
9 *435:8 *439:10 1.39326e-05
10 *435:12 *439:10 4.31528e-06
11 *435:14 *447:318 3.19504e-06
12 *435:22 *447:318 5.43643e-06
13 *682:B2 *435:8 0
14 *683:A2 *683:A1 1.36155e-06
15 *6:8 *435:8 5.52264e-06
16 *87:8 *435:8 0
17 *139:130 *435:14 1.61768e-05
18 *144:140 *435:14 5.80001e-06
19 *211:31 *435:8 0
20 *274:87 *435:14 5.78609e-05
21 *274:93 *435:22 1.25592e-05
*RES
1 *945:Y *435:6 34.4 
2 *435:6 *435:8 22.5266 
3 *435:8 *435:12 23.958 
4 *435:12 *435:14 37.9726 
5 *435:14 *435:22 40.5098 
6 *435:22 *710:B2 17.2 
7 *435:8 *683:A1 35.4697 
*END

*D_NET *436 0.00167089
*CONN
*I *749:CLK I *D DFFHQNx1_ASAP7_75t_R
*I *733:CLK I *D DFFHQNx1_ASAP7_75t_R
*I *750:CLK I *D DFFHQNx1_ASAP7_75t_R
*I *734:CLK I *D DFFHQNx1_ASAP7_75t_R
*I *934:A I *D BUFx2_ASAP7_75t_R
*I *731:CLK I *D DFFHQNx1_ASAP7_75t_R
*I *747:CLK I *D DFFHQNx1_ASAP7_75t_R
*I *729:CLK I *D DFFHQNx1_ASAP7_75t_R
*I *728:CLK I *D DFFHQNx1_ASAP7_75t_R
*I *730:CLK I *D DFFHQNx1_ASAP7_75t_R
*I *946:Y O *D BUFx4_ASAP7_75t_R
*CAP
1 *749:CLK 1.03086e-05
2 *733:CLK 0
3 *750:CLK 0
4 *734:CLK 0
5 *934:A 0
6 *731:CLK 0
7 *747:CLK 0
8 *729:CLK 1.06745e-05
9 *728:CLK 5.53753e-05
10 *730:CLK 0
11 *946:Y 0
12 *436:124 4.19902e-05
13 *436:120 0.00012087
14 *436:109 2.93625e-05
15 *436:96 3.46583e-05
16 *436:94 8.27895e-05
17 *436:90 0.000153201
18 *436:69 3.86141e-06
19 *436:63 0.00010024
20 *436:36 3.53169e-05
21 *436:30 9.06922e-05
22 *436:28 3.56937e-05
23 *436:26 4.63682e-05
24 *436:24 0.000118878
25 *436:22 0.000222328
26 *436:18 3.4452e-05
27 *436:12 4.3314e-05
28 *436:6 2.30698e-05
29 *728:CLK *447:22 8.70587e-06
30 *728:CLK *447:30 2.90209e-08
31 *749:CLK *447:244 2.45028e-06
32 *749:CLK *447:254 1.64764e-06
33 *436:63 *447:242 1.2768e-05
34 *436:90 *448:87 6.68884e-07
35 *436:120 *447:244 5.52807e-07
36 *512:A1 *436:24 4.70139e-06
37 *514:A1 *436:24 0
38 *601:A *436:63 5.41446e-06
39 *690:B1 *436:63 1.26378e-06
40 *690:B2 *436:63 4.2449e-06
41 *3:14 *728:CLK 3.9754e-05
42 *3:14 *436:36 8.68869e-05
43 *20:12 *436:28 1.26769e-05
44 *20:14 *436:36 1.28786e-05
45 *20:45 *729:CLK 3.79923e-06
46 *20:45 *436:28 4.1233e-05
47 *88:8 *436:69 2.83874e-07
48 *91:12 *436:109 0
49 *106:31 *728:CLK 2.90269e-07
50 *140:30 *436:109 2.66797e-07
51 *142:10 *436:28 0
52 *144:89 *436:24 0
53 *144:89 *436:63 0
54 *149:6 *436:24 7.0986e-05
55 *149:14 *436:24 5.22376e-07
56 *208:22 *729:CLK 3.56648e-06
57 *208:28 *729:CLK 6.33206e-07
58 *211:126 *436:96 5.67735e-06
59 *211:126 *436:109 2.04699e-05
60 *211:207 *436:12 1.51653e-06
61 *211:207 *436:18 1.27782e-06
62 *277:208 *436:69 9.81516e-06
63 *302:12 *436:63 0
64 *311:8 *436:36 1.70866e-06
65 *324:8 *436:36 1.66448e-05
66 *334:40 *728:CLK 4.1065e-06
*RES
1 *946:Y *436:6 34.4 
2 *436:6 *436:12 28.8281 
3 *436:12 *436:18 38.4019 
4 *436:18 *436:22 21.7053 
5 *436:22 *436:24 55.087 
6 *436:24 *436:26 17.2 
7 *436:26 *436:28 35.4795 
8 *436:28 *436:30 17.2 
9 *436:30 *436:36 49.0381 
10 *436:36 *730:CLK 34.4 
11 *436:30 *728:CLK 49.8243 
12 *436:26 *729:CLK 40.4531 
13 *436:22 *436:63 44.3905 
14 *436:63 *436:69 37.779 
15 *436:69 *747:CLK 17.2 
16 *436:18 *731:CLK 34.4 
17 *436:12 *934:A 17.2 
18 *436:6 *436:90 23.3948 
19 *436:90 *436:94 49.8243 
20 *436:94 *436:96 4.50533 
21 *436:96 *734:CLK 34.4 
22 *436:96 *436:109 39.4149 
23 *436:109 *750:CLK 17.2 
24 *436:90 *436:120 47.9118 
25 *436:120 *436:124 40.1975 
26 *436:124 *733:CLK 17.2 
27 *436:120 *749:CLK 43.4107 
*END

*D_NET *437 0.0012656
*CONN
*I *762:CLK I *D DFFHQNx1_ASAP7_75t_R
*I *746:CLK I *D DFFHQNx1_ASAP7_75t_R
*I *745:CLK I *D DFFHQNx1_ASAP7_75t_R
*I *761:CLK I *D DFFHQNx1_ASAP7_75t_R
*I *760:CLK I *D DFFHQNx1_ASAP7_75t_R
*I *744:CLK I *D DFFHQNx1_ASAP7_75t_R
*I *743:CLK I *D DFFHQNx1_ASAP7_75t_R
*I *759:CLK I *D DFFHQNx1_ASAP7_75t_R
*I *742:CLK I *D DFFHQNx1_ASAP7_75t_R
*I *758:CLK I *D DFFHQNx1_ASAP7_75t_R
*I *947:Y O *D BUFx4_ASAP7_75t_R
*CAP
1 *762:CLK 8.54132e-06
2 *746:CLK 0
3 *745:CLK 0
4 *761:CLK 0
5 *760:CLK 0
6 *744:CLK 0
7 *743:CLK 4.11403e-06
8 *759:CLK 0
9 *742:CLK 0
10 *758:CLK 0
11 *947:Y 0
12 *437:112 2.28486e-05
13 *437:104 0.000138816
14 *437:97 1.24672e-05
15 *437:91 0.000123653
16 *437:84 5.31904e-06
17 *437:68 1.3824e-05
18 *437:62 1.75958e-05
19 *437:58 6.70523e-05
20 *437:47 8.586e-05
21 *437:38 5.96361e-05
22 *437:22 3.78274e-05
23 *437:16 3.78274e-05
24 *437:14 4.05037e-05
25 *437:8 0.000136614
26 *437:6 0.000116127
27 *437:4 5.96284e-05
28 *437:8 *447:171 5.34278e-06
29 *437:14 *447:171 9.75735e-06
30 *437:84 *441:15 5.52807e-07
31 *437:97 *448:63 0
32 *673:A1 *437:58 3.3563e-06
33 *673:A1 *437:68 5.37866e-07
34 *708:A2 *437:8 5.23747e-05
35 *708:B1 *437:8 3.68287e-06
36 *708:C2 *437:6 1.06092e-05
37 *743:D *743:CLK 1.01102e-06
38 *950:A *437:104 1.3659e-05
39 *85:10 *437:58 0
40 *85:10 *437:68 1.37455e-06
41 *99:8 *437:22 1.09067e-06
42 *144:171 *437:97 1.15587e-05
43 *208:109 *437:14 0
44 *208:109 *437:22 2.43881e-06
45 *208:125 *437:47 0
46 *208:140 *437:58 0
47 *211:33 *437:112 0
48 *256:14 *437:22 1.5811e-05
49 *259:14 *437:38 0
50 *259:14 *437:47 0
51 *259:24 *437:47 0
52 *262:12 *437:58 0
53 *262:18 *437:58 0
54 *262:37 *437:58 0
55 *265:12 *437:104 1.76536e-05
56 *268:14 *437:104 1.01102e-06
57 *274:111 *437:8 5.0551e-07
58 *277:79 *762:CLK 0
59 *277:79 *437:104 0
60 *277:91 *437:6 4.07216e-06
61 *277:91 *437:8 2.66797e-07
62 *277:105 *437:14 1.94229e-06
63 *277:105 *437:38 0
64 *277:146 *437:22 2.03521e-05
65 *332:12 *437:14 0
66 *332:12 *437:38 1.09067e-06
67 *334:156 *437:14 1.49407e-08
68 *334:156 *437:22 4.46363e-06
69 *334:228 *437:97 0
70 *433:8 *437:68 2.83874e-07
71 *434:12 *437:104 3.68287e-06
72 *434:18 *437:6 4.04733e-05
73 *434:18 *437:91 3.90258e-06
74 *434:18 *437:104 4.39243e-05
75 *434:22 *437:8 0
76 *434:30 *437:8 5.51397e-07
*RES
1 *947:Y *437:4 17.2 
2 *437:4 *437:6 28.3457 
3 *437:6 *437:8 29.4154 
4 *437:8 *437:14 41.6109 
5 *437:14 *437:16 17.2 
6 *437:16 *437:22 41.6676 
7 *437:22 *758:CLK 34.4 
8 *437:16 *742:CLK 17.2 
9 *437:8 *437:38 45.9215 
10 *437:38 *759:CLK 34.4 
11 *437:38 *437:47 13.516 
12 *437:47 *743:CLK 37.0741 
13 *437:47 *437:58 47.8691 
14 *437:58 *437:62 18.8045 
15 *437:62 *437:68 43.4107 
16 *437:68 *744:CLK 17.2 
17 *437:62 *760:CLK 17.2 
18 *437:6 *437:84 37.779 
19 *437:84 *761:CLK 17.2 
20 *437:4 *437:91 1.60448 
21 *437:91 *437:97 43.4107 
22 *437:97 *745:CLK 17.2 
23 *437:91 *437:104 50.8084 
24 *437:104 *437:112 44.1969 
25 *437:112 *746:CLK 17.2 
26 *437:104 *762:CLK 20.409 
*END

*D_NET *438 0.00027823
*CONN
*I *612:A I *D INVx1_ASAP7_75t_R
*I *494:C I *D AND4x1_ASAP7_75t_R
*I *948:Y O *D BUFx3_ASAP7_75t_R
*CAP
1 *612:A 0
2 *494:C 0
3 *948:Y 0
4 *438:31 4.36786e-05
5 *438:20 8.33365e-06
6 *438:12 3.086e-05
7 *438:6 6.62049e-05
8 *438:12 *447:364 1.711e-05
9 *438:20 *447:362 5.70723e-06
10 *438:20 *447:399 9.75964e-07
11 *494:D *438:20 5.62196e-06
12 *133:10 *438:20 1.12561e-05
13 *145:125 *438:20 5.19552e-07
14 *208:189 *438:31 1.98154e-05
15 *229:12 *438:12 2.46228e-05
16 *229:18 *438:20 1.2903e-05
17 *274:262 *438:12 0
18 *285:14 *438:31 1.76928e-06
19 *286:20 *438:12 1.08639e-05
20 *286:20 *438:31 3.32524e-06
21 *304:20 *438:12 1.46623e-05
*RES
1 *948:Y *438:6 34.4 
2 *438:6 *438:12 37.6687 
3 *438:12 *438:20 43.2406 
4 *438:20 *494:C 17.2 
5 *438:6 *438:31 38.2282 
6 *438:31 *612:A 17.2 
*END

*D_NET *439 0.000861408
*CONN
*I *493:A I *D AND4x1_ASAP7_75t_R
*I *680:A1 I *D OA21x2_ASAP7_75t_R
*I *679:A I *D NOR2x1_ASAP7_75t_R
*I *709:A I *D INVx1_ASAP7_75t_R
*I *949:Y O *D BUFx3_ASAP7_75t_R
*CAP
1 *493:A 5.57334e-05
2 *680:A1 3.4875e-06
3 *679:A 2.35786e-05
4 *709:A 3.36234e-05
5 *949:Y 0
6 *439:57 7.3275e-05
7 *439:51 0.000152413
8 *439:49 0.000138122
9 *439:25 4.6595e-05
10 *439:23 4.56662e-05
11 *439:10 5.93029e-05
12 *439:4 4.85666e-05
13 *439:25 *452:10 1.85401e-05
14 *439:25 *452:18 3.05118e-08
15 *439:49 *452:10 9.67723e-06
16 *682:B2 *439:25 0
17 *683:A2 *709:A 5.85387e-06
18 *683:B2 *439:25 1.42652e-05
19 *35:10 *439:57 0
20 *38:16 *439:51 0
21 *87:8 *439:10 3.76965e-06
22 *139:130 *679:A 1.52151e-05
23 *144:144 *439:10 4.71862e-06
24 *144:157 *439:10 2.66776e-05
25 *211:14 *439:23 4.20803e-06
26 *211:31 *439:25 0
27 *211:31 *439:49 0
28 *230:56 *679:A 0
29 *269:8 *679:A 1.60363e-06
30 *269:8 *439:25 4.84697e-07
31 *277:65 *709:A 1.19785e-05
32 *319:8 *439:25 0
33 *334:304 *679:A 1.79012e-05
34 *334:304 *439:25 1.93716e-05
35 *411:10 *439:57 6.65157e-06
36 *413:27 *439:57 1.849e-06
37 *435:8 *439:10 1.39326e-05
38 *435:12 *439:10 4.31528e-06
*RES
1 *949:Y *439:4 17.2 
2 *439:4 *439:10 37.7254 
3 *439:10 *709:A 49.9099 
4 *439:4 *439:23 27.3617 
5 *439:23 *439:25 17.4581 
6 *439:25 *679:A 49.6869 
7 *439:25 *680:A1 35.4697 
8 *439:23 *439:49 20.579 
9 *439:49 *439:51 60.4352 
10 *439:51 *439:57 48.4791 
11 *439:57 *493:A 45.0109 
*END

*D_NET *440 0.000488277
*CONN
*I *674:A I *D NOR2x1_ASAP7_75t_R
*I *707:A I *D INVx1_ASAP7_75t_R
*I *495:A I *D AND4x1_ASAP7_75t_R
*I *675:A1 I *D OA21x2_ASAP7_75t_R
*I *950:Y O *D BUFx3_ASAP7_75t_R
*CAP
1 *674:A 0
2 *707:A 0
3 *495:A 0
4 *675:A1 1.08223e-05
5 *950:Y 0
6 *440:49 1.74621e-05
7 *440:31 1.29535e-05
8 *440:23 0.000127782
9 *440:21 0.000114829
10 *440:8 2.2541e-05
11 *440:4 2.91807e-05
12 *440:31 *441:15 1.02842e-06
13 *972:A *675:A1 9.56006e-06
14 *56:19 *675:A1 1.26613e-05
15 *56:19 *440:8 2.48096e-05
16 *56:19 *440:49 3.05118e-08
17 *157:14 *675:A1 6.7842e-07
18 *157:25 *440:49 9.02214e-06
19 *265:12 *440:49 2.11853e-06
20 *266:6 *675:A1 2.01337e-05
21 *274:103 *440:23 2.97913e-05
22 *295:10 *440:31 7.77573e-07
23 *295:21 *440:31 4.7643e-07
24 *334:142 *440:23 4.05482e-05
25 *334:148 *440:31 5.63702e-07
26 *419:44 *675:A1 1.49407e-08
27 *419:44 *440:8 4.9137e-07
*RES
1 *950:Y *440:4 17.2 
2 *440:4 *440:8 26.2107 
3 *440:8 *675:A1 44.7884 
4 *440:8 *440:21 17.2 
5 *440:21 *440:23 54.0173 
6 *440:23 *440:31 42.1143 
7 *440:31 *495:A 17.2 
8 *440:23 *707:A 17.2 
9 *440:4 *440:49 42.5924 
10 *440:49 *674:A 17.2 
*END

*D_NET *441 0.000427615
*CONN
*I *495:B I *D AND4x1_ASAP7_75t_R
*I *670:A I *D INVx1_ASAP7_75t_R
*I *951:Y O *D BUFx3_ASAP7_75t_R
*CAP
1 *495:B 3.32694e-06
2 *670:A 1.98674e-05
3 *951:Y 0
4 *441:15 0.000116759
5 *441:13 0.000113432
6 *441:4 1.98674e-05
7 *441:15 *449:8 0
8 *441:15 *449:23 4.61435e-05
9 *441:15 *458:8 6.96526e-06
10 *52:12 *441:15 3.08756e-05
11 *102:8 *441:15 1.31643e-05
12 *144:175 *670:A 9.40277e-06
13 *282:8 *441:15 2.27201e-05
14 *295:10 *441:15 0
15 *296:10 *441:15 1.19496e-05
16 *349:12 *441:15 1.15587e-05
17 *437:84 *441:15 5.52807e-07
18 *440:31 *441:15 1.02842e-06
*RES
1 *951:Y *441:4 17.2 
2 *441:4 *670:A 27.3617 
3 *441:4 *441:13 17.2 
4 *441:13 *441:15 99.6804 
5 *441:15 *495:B 36.0045 
*END

*D_NET *442 0.000128939
*CONN
*I *494:B I *D AND4x1_ASAP7_75t_R
*I *692:A I *D INVx1_ASAP7_75t_R
*I *618:B I *D AND3x1_ASAP7_75t_R
*I *952:Y O *D BUFx3_ASAP7_75t_R
*CAP
1 *494:B 4.83105e-06
2 *692:A 9.89029e-06
3 *618:B 0
4 *952:Y 5.17665e-06
5 *442:14 2.42057e-05
6 *442:8 2.43231e-05
7 *494:B *447:399 1.29102e-05
8 *442:14 *447:345 1.96943e-05
9 *442:14 *447:399 4.83862e-06
10 *37:14 *442:8 2.0895e-06
11 *37:14 *442:14 1.52651e-06
12 *37:31 *494:B 0
13 *37:31 *442:14 0
14 *145:102 *494:B 0
15 *221:10 *692:A 3.64631e-06
16 *274:235 *692:A 1.03604e-06
17 *274:235 *442:14 2.66797e-07
18 *274:243 *692:A 1.45042e-05
*RES
1 *952:Y *442:8 37.0741 
2 *442:8 *442:14 27.4467 
3 *442:14 *618:B 17.2 
4 *442:14 *692:A 24.1527 
5 *442:8 *494:B 38.9053 
*END

*D_NET *443 0.000677125
*CONN
*I *700:A I *D INVx1_ASAP7_75t_R
*I *649:A I *D NOR2x1_ASAP7_75t_R
*I *650:A1 I *D OA21x2_ASAP7_75t_R
*I *496:D I *D AND5x1_ASAP7_75t_R
*I *953:Y O *D BUFx3_ASAP7_75t_R
*CAP
1 *700:A 1.63374e-05
2 *649:A 2.18348e-05
3 *650:A1 1.60632e-06
4 *496:D 2.43743e-05
5 *953:Y 0
6 *443:28 3.36399e-05
7 *443:22 0.000106963
8 *443:20 0.000103023
9 *443:16 4.69696e-05
10 *443:10 6.18727e-05
11 *443:8 3.28343e-05
12 *443:4 4.91716e-05
13 *913:A *443:22 5.25794e-06
14 *135:6 *496:D 6.26851e-06
15 *135:6 *649:A 3.16328e-06
16 *144:18 *443:8 9.67723e-06
17 *144:22 *443:16 1.98585e-05
18 *144:30 *443:22 8.15303e-05
19 *247:8 *443:8 0
20 *248:10 *443:8 7.71949e-06
21 *274:6 *649:A 9.58768e-06
22 *274:12 *443:8 2.71921e-06
23 *334:91 *443:8 1.82602e-05
24 *334:106 *443:8 0
25 *347:6 *496:D 0
26 *417:14 *443:28 1.12901e-05
27 *417:27 *443:28 3.16603e-06
*RES
1 *953:Y *443:4 17.2 
2 *443:4 *443:8 45.9215 
3 *443:8 *443:10 17.2 
4 *443:10 *443:16 37.2153 
5 *443:16 *443:20 20.0158 
6 *443:20 *443:22 63.6442 
7 *443:22 *443:28 41.158 
8 *443:28 *496:D 28.9662 
9 *443:16 *650:A1 35.4697 
10 *443:10 *649:A 28.4313 
11 *443:4 *700:A 23.0831 
*END

*D_NET *444 0.000557598
*CONN
*I *695:A I *D INVx1_ASAP7_75t_R
*I *493:D I *D AND4x1_ASAP7_75t_R
*I *633:A1 I *D OA21x2_ASAP7_75t_R
*I *631:A1 I *D OA211x2_ASAP7_75t_R
*I *954:Y O *D BUFx3_ASAP7_75t_R
*CAP
1 *695:A 0
2 *493:D 1.54509e-05
3 *633:A1 0
4 *631:A1 0
5 *954:Y 2.49604e-05
6 *444:34 1.45859e-05
7 *444:24 2.2246e-05
8 *444:18 0.000157074
9 *444:16 0.000143761
10 *444:12 9.79795e-06
11 *444:10 2.49604e-05
12 *444:18 *448:107 1.0578e-06
13 *497:A2 *444:18 8.58704e-06
14 *583:A2 *444:18 0
15 *25:51 *444:18 0
16 *26:16 *444:18 2.28839e-06
17 *26:27 *444:18 7.75e-06
18 *26:42 *444:18 3.875e-06
19 *29:8 *444:18 2.9732e-06
20 *29:12 *444:18 2.71921e-06
21 *29:39 *444:18 7.87376e-06
22 *30:10 *444:18 3.39707e-05
23 *31:25 *444:10 4.96929e-06
24 *41:14 *444:34 1.885e-06
25 *132:8 *444:24 3.18788e-06
26 *132:8 *444:34 1.9657e-05
27 *139:8 *444:18 0
28 *139:8 *444:34 2.02632e-06
29 *139:10 *444:34 2.11884e-06
30 *232:8 *444:18 1.64764e-06
31 *232:8 *444:24 1.53963e-06
32 *233:8 *444:18 3.79307e-06
33 *233:8 *444:24 3.37709e-06
34 *234:16 *444:10 9.59753e-06
35 *234:16 *444:18 0
36 *421:10 *444:18 0
37 *429:21 *444:18 0
38 *430:17 *444:18 1.75144e-05
39 *430:34 *444:18 2.35211e-06
*RES
1 *954:Y *444:10 49.2937 
2 *444:10 *444:12 17.2 
3 *444:12 *444:16 20.9438 
4 *444:16 *444:18 110.381 
5 *444:18 *444:24 24.4645 
6 *444:24 *444:34 45.4366 
7 *444:34 *631:A1 17.2 
8 *444:24 *633:A1 17.2 
9 *444:18 *493:D 40.2831 
10 *444:12 *695:A 17.2 
*END

*D_NET *445 0.000111681
*CONN
*I *494:A I *D AND4x1_ASAP7_75t_R
*I *621:A I *D INVx1_ASAP7_75t_R
*I *955:Y O *D BUFx3_ASAP7_75t_R
*CAP
1 *494:A 2.96468e-05
2 *621:A 0
3 *955:Y 0
4 *445:12 1.50362e-05
5 *445:4 4.46831e-05
6 *133:10 *494:A 1.03895e-05
7 *145:96 *445:12 3.00603e-06
8 *145:98 *494:A 6.83843e-06
9 *145:98 *445:12 2.66797e-07
10 *145:125 *494:A 1.53057e-06
11 *208:175 *445:12 2.83874e-07
*RES
1 *955:Y *445:4 17.2 
2 *445:4 *445:12 43.8888 
3 *445:12 *621:A 17.2 
4 *445:4 *494:A 38.593 
*END

*D_NET *446 0.00163109
*CONN
*I *933:A I *D BUFx4f_ASAP7_75t_R
*I *755:CLK I *D DFFHQNx1_ASAP7_75t_R
*I *739:CLK I *D DFFHQNx1_ASAP7_75t_R
*I *756:CLK I *D DFFHQNx1_ASAP7_75t_R
*I *741:CLK I *D DFFHQNx1_ASAP7_75t_R
*I *757:CLK I *D DFFHQNx1_ASAP7_75t_R
*I *740:CLK I *D DFFHQNx1_ASAP7_75t_R
*I *754:CLK I *D DFFHQNx1_ASAP7_75t_R
*I *738:CLK I *D DFFHQNx1_ASAP7_75t_R
*I *956:Y O *D BUFx4_ASAP7_75t_R
*CAP
1 *933:A 2.63452e-05
2 *755:CLK 0
3 *739:CLK 0
4 *756:CLK 0
5 *741:CLK 0
6 *757:CLK 0
7 *740:CLK 6.44194e-06
8 *754:CLK 0
9 *738:CLK 0
10 *956:Y 0
11 *446:100 3.42718e-05
12 *446:94 4.3782e-05
13 *446:90 0.000131133
14 *446:88 0.000121623
15 *446:86 3.25413e-05
16 *446:74 2.77742e-05
17 *446:61 7.62818e-05
18 *446:59 4.85076e-05
19 *446:50 2.25177e-05
20 *446:46 5.75128e-05
21 *446:40 0.000167381
22 *446:38 0.000125944
23 *446:31 3.57242e-06
24 *446:25 5.13654e-05
25 *446:16 5.9704e-05
26 *446:10 0.000154173
27 *446:8 6.81841e-05
28 *446:6 2.77044e-05
29 *446:10 *461:30 5.79724e-07
30 *446:25 *447:50 5.09299e-06
31 *446:100 *447:211 1.70708e-06
32 *518:A1 *446:8 6.33206e-07
33 *518:A1 *446:10 2.05045e-06
34 *521:A2 *933:A 8.38704e-06
35 *523:A1 *446:8 6.1681e-06
36 *525:A2 *446:86 0
37 *647:B *446:16 1.22525e-05
38 *658:A *446:74 2.79435e-06
39 *711:A *446:25 4.05812e-06
40 *725:A *446:94 0
41 *726:B *446:40 5.62196e-06
42 *740:D *446:50 3.33273e-05
43 *12:10 *446:46 5.62196e-06
44 *23:26 *446:16 1.88468e-06
45 *61:10 *446:40 9.08513e-06
46 *61:40 *446:40 2.96566e-05
47 *64:27 *446:90 6.29754e-06
48 *65:31 *446:8 8.29921e-06
49 *65:31 *446:86 5.49212e-07
50 *67:34 *933:A 0
51 *67:34 *446:8 0
52 *67:34 *446:86 0
53 *68:6 *446:40 4.20803e-06
54 *98:8 *446:74 4.41094e-06
55 *147:14 *446:100 1.07843e-05
56 *152:12 *446:8 8.33296e-06
57 *154:12 *446:8 0
58 *154:12 *446:86 0
59 *155:14 *446:90 5.22376e-07
60 *156:10 *446:90 5.62196e-06
61 *208:70 *446:61 0
62 *208:70 *446:74 0
63 *211:169 *446:10 0
64 *211:175 *446:10 0
65 *211:175 *446:16 0
66 *211:183 *446:16 0
67 *245:10 *446:16 4.06202e-06
68 *248:10 *446:94 3.02222e-05
69 *248:10 *446:100 4.81456e-05
70 *251:6 *740:CLK 2.27479e-06
71 *251:6 *446:50 2.27479e-06
72 *252:12 *446:46 4.83862e-06
73 *253:8 *446:74 2.29378e-05
74 *274:40 *446:31 5.52807e-07
75 *277:43 *446:31 9.81516e-06
76 *291:16 *446:16 2.46349e-07
77 *291:25 *446:16 5.52264e-06
78 *291:44 *446:10 1.44931e-05
79 *291:44 *446:16 2.22736e-06
80 *294:22 *446:74 1.15862e-05
81 *301:10 *446:25 3.29986e-06
82 *324:16 *446:100 3.88115e-06
83 *344:25 *446:16 0
84 *405:8 *446:94 0
85 *405:8 *446:100 0
86 *406:17 *446:100 0
*RES
1 *956:Y *446:6 34.4 
2 *446:6 *446:8 20.274 
3 *446:8 *446:10 34.3531 
4 *446:10 *446:16 49.0984 
5 *446:16 *738:CLK 17.2 
6 *446:10 *446:25 39.1278 
7 *446:25 *446:31 37.779 
8 *446:31 *754:CLK 17.2 
9 *446:8 *446:38 17.2 
10 *446:38 *446:40 57.2263 
11 *446:40 *446:46 34.3994 
12 *446:46 *446:50 31.6403 
13 *446:50 *740:CLK 22.0134 
14 *446:50 *446:59 17.2 
15 *446:59 *446:61 38.2953 
16 *446:61 *757:CLK 34.4 
17 *446:61 *446:74 41.9473 
18 *446:74 *741:CLK 17.2 
19 *446:40 *756:CLK 17.2 
20 *446:6 *446:86 6.19483 
21 *446:86 *446:88 17.2 
22 *446:88 *446:90 48.6691 
23 *446:90 *446:94 27.337 
24 *446:94 *446:100 41.5542 
25 *446:100 *739:CLK 17.2 
26 *446:94 *755:CLK 34.4 
27 *446:86 *933:A 47.9407 
*END

*D_NET *447 0.00661004
*CONN
*I *465:A I *D INVx1_ASAP7_75t_R
*I *696:A1 I *D OA222x2_ASAP7_75t_R
*I *697:A1 I *D OA222x2_ASAP7_75t_R
*I *698:A1 I *D OA222x2_ASAP7_75t_R
*I *631:C I *D OA211x2_ASAP7_75t_R
*I *618:A I *D AND3x1_ASAP7_75t_R
*I *617:A I *D NOR2x1_ASAP7_75t_R
*I *691:A1 I *D OA222x2_ASAP7_75t_R
*I *693:A1 I *D OA222x2_ASAP7_75t_R
*I *602:A I *D NAND2x1_ASAP7_75t_R
*I *506:A I *D NAND2x1_ASAP7_75t_R
*I *710:A1 I *D OA222x2_ASAP7_75t_R
*I *688:A I *D NAND2x2_ASAP7_75t_R
*I *694:A1 I *D OA222x2_ASAP7_75t_R
*I *690:A1 I *D OA222x2_ASAP7_75t_R
*I *510:A I *D AND2x2_ASAP7_75t_R
*I *701:A1 I *D OA222x2_ASAP7_75t_R
*I *504:A2 I *D OA21x2_ASAP7_75t_R
*I *646:A I *D AND3x1_ASAP7_75t_R
*I *703:A1 I *D OA222x2_ASAP7_75t_R
*I *708:A1 I *D OA222x2_ASAP7_75t_R
*I *667:A I *D AND3x1_ASAP7_75t_R
*I *706:A1 I *D OA222x2_ASAP7_75t_R
*I *705:A1 I *D OA222x2_ASAP7_75t_R
*I *663:A I *D AND3x1_ASAP7_75t_R
*I *704:A1 I *D OA222x2_ASAP7_75t_R
*I *702:A1 I *D OA222x2_ASAP7_75t_R
*I *699:A1 I *D OA222x2_ASAP7_75t_R
*I *957:Y O *D BUFx6f_ASAP7_75t_R
*CAP
1 *465:A 0
2 *696:A1 8.799e-06
3 *697:A1 1.06423e-06
4 *698:A1 9.96053e-06
5 *631:C 0
6 *618:A 0
7 *617:A 1.69751e-05
8 *691:A1 1.62175e-06
9 *693:A1 4.43489e-06
10 *602:A 0
11 *506:A 0
12 *710:A1 0
13 *688:A 1.71548e-06
14 *694:A1 6.53413e-06
15 *690:A1 0
16 *510:A 0
17 *701:A1 2.81161e-06
18 *504:A2 0
19 *646:A 0
20 *703:A1 0
21 *708:A1 0
22 *667:A 1.76796e-06
23 *706:A1 7.88857e-06
24 *705:A1 4.1127e-06
25 *663:A 0
26 *704:A1 3.64568e-06
27 *702:A1 1.69971e-06
28 *699:A1 1.1444e-05
29 *957:Y 2.98678e-05
30 *447:458 3.76853e-05
31 *447:452 9.50816e-05
32 *447:441 0.000116102
33 *447:430 7.58607e-05
34 *447:428 6.90336e-05
35 *447:419 5.96905e-05
36 *447:411 3.67483e-05
37 *447:405 3.79589e-05
38 *447:399 3.90716e-05
39 *447:383 4.1584e-05
40 *447:368 1.46499e-05
41 *447:364 6.46546e-05
42 *447:362 3.91063e-05
43 *447:349 2.1284e-05
44 *447:345 8.56047e-06
45 *447:341 6.95502e-05
46 *447:318 2.80752e-05
47 *447:312 5.8781e-05
48 *447:308 5.36793e-05
49 *447:304 3.83422e-05
50 *447:298 6.43765e-05
51 *447:296 6.79984e-05
52 *447:286 2.61985e-05
53 *447:273 2.32736e-05
54 *447:271 2.38328e-05
55 *447:258 6.37242e-05
56 *447:254 6.65664e-05
57 *447:246 5.44625e-05
58 *447:244 5.94871e-05
59 *447:242 6.51543e-05
60 *447:227 3.54592e-05
61 *447:211 2.98717e-05
62 *447:203 6.11067e-05
63 *447:197 4.59774e-05
64 *447:193 7.99129e-05
65 *447:171 3.79517e-05
66 *447:153 7.36847e-05
67 *447:142 7.89855e-05
68 *447:138 1.4519e-05
69 *447:134 2.37442e-05
70 *447:130 7.18872e-05
71 *447:115 2.99376e-05
72 *447:100 5.44772e-05
73 *447:98 3.85248e-05
74 *447:94 7.02341e-06
75 *447:86 5.72697e-05
76 *447:82 0.000124332
77 *447:71 8.93185e-05
78 *447:67 9.08595e-05
79 *447:65 9.38164e-05
80 *447:50 5.03207e-05
81 *447:44 6.01692e-05
82 *447:38 5.43445e-05
83 *447:32 0.000136275
84 *447:30 0.000137189
85 *447:22 4.14698e-05
86 *447:16 9.57409e-05
87 *447:14 0.000113275
88 *447:12 0.000113275
89 *447:10 3.81049e-05
90 *447:6 3.81807e-05
91 *705:A1 *705:B2 1.95129e-06
92 *447:142 *667:B 1.56807e-06
93 *447:153 *451:10 7.12447e-06
94 *494:B *447:399 1.29102e-05
95 *494:D *693:A1 2.03526e-06
96 *505:A *447:14 8.23084e-06
97 *510:B *447:203 5.41446e-06
98 *610:B2 *447:227 0
99 *619:A *617:A 5.74614e-06
100 *619:B *617:A 2.42422e-05
101 *663:B *447:130 3.51726e-06
102 *690:B2 *447:242 1.25483e-05
103 *691:B2 *691:A1 6.7842e-07
104 *701:A2 *701:A1 2.03526e-06
105 *701:C2 *447:203 2.12481e-06
106 *702:A2 *702:A1 7.35354e-06
107 *708:A2 *447:171 4.67528e-05
108 *727:B *447:227 0
109 *728:CLK *447:22 8.70587e-06
110 *728:CLK *447:30 2.90209e-08
111 *749:CLK *447:244 2.45028e-06
112 *749:CLK *447:254 1.64764e-06
113 *752:D *447:452 9.94583e-06
114 *883:A *447:153 0
115 *3:10 *447:193 5.52807e-07
116 *12:10 *447:82 0
117 *20:30 *447:32 6.1962e-06
118 *20:36 *447:38 3.56395e-06
119 *20:58 *447:197 8.65792e-06
120 *20:58 *447:203 7.13384e-06
121 *20:85 *447:308 1.73051e-05
122 *20:157 *447:134 2.43534e-06
123 *22:8 *447:227 0
124 *22:18 *447:193 3.3563e-06
125 *25:32 *698:A1 1.07377e-06
126 *37:14 *447:341 2.3189e-06
127 *37:14 *447:345 1.2768e-05
128 *37:18 *447:341 0
129 *37:18 *447:399 0
130 *40:10 *447:399 2.68933e-07
131 *41:14 *447:428 1.26391e-06
132 *58:12 *447:82 5.52807e-07
133 *70:8 *447:244 0
134 *75:10 *694:A1 2.82122e-05
135 *75:10 *447:271 2.20061e-05
136 *93:8 *697:A1 3.89037e-06
137 *95:8 *447:44 1.96158e-05
138 *96:8 *447:203 3.81627e-06
139 *106:31 *447:30 3.38221e-06
140 *131:57 *447:296 1.27802e-05
141 *132:8 *447:399 5.84933e-05
142 *132:8 *447:411 9.57308e-06
143 *132:8 *447:419 2.26839e-05
144 *139:10 *447:411 3.99495e-05
145 *139:18 *447:411 2.28488e-05
146 *139:24 *447:411 1.66659e-05
147 *139:130 *447:318 3.9221e-05
148 *140:12 *447:254 2.62581e-06
149 *140:22 *447:258 5.99925e-05
150 *142:10 *447:193 0
151 *143:8 *447:22 6.38405e-06
152 *144:12 *447:304 0
153 *144:49 *447:82 0
154 *144:97 *447:227 4.84588e-06
155 *144:97 *447:242 9.54896e-06
156 *144:97 *447:244 5.52807e-07
157 *144:111 *447:304 0
158 *145:67 *447:286 3.27946e-05
159 *145:67 *447:296 5.37569e-06
160 *145:73 *447:286 4.83862e-06
161 *145:82 *688:A 5.85387e-06
162 *145:82 *447:273 0.000100214
163 *145:102 *447:399 0
164 *145:102 *447:411 6.76305e-06
165 *145:114 *447:419 2.6365e-05
166 *145:114 *447:428 3.90258e-06
167 *145:125 *693:A1 1.37072e-05
168 *146:10 *447:193 0
169 *147:10 *447:203 1.20471e-05
170 *147:36 *447:82 7.3874e-07
171 *147:38 *702:A1 2.88806e-06
172 *147:53 *447:94 2.24111e-07
173 *147:53 *447:100 2.68658e-05
174 *147:62 *447:100 0.000130494
175 *147:62 *447:115 4.87576e-05
176 *147:62 *447:130 1.32021e-05
177 *147:62 *447:134 1.60492e-05
178 *147:62 *447:142 3.51107e-06
179 *147:62 *447:153 2.98814e-06
180 *147:70 *447:153 0
181 *147:83 *447:197 1.04358e-05
182 *147:131 *447:383 1.62854e-06
183 *147:135 *447:368 1.76868e-05
184 *147:135 *447:383 2.28488e-05
185 *149:14 *447:193 0
186 *150:10 *447:193 0
187 *208:8 *447:286 3.60204e-05
188 *208:18 *447:193 0
189 *208:61 *447:71 0
190 *208:70 *447:71 0
191 *208:70 *447:82 0
192 *208:162 *694:A1 1.61287e-05
193 *208:189 *447:405 6.28016e-06
194 *208:204 *447:254 1.23829e-05
195 *211:55 *447:130 9.40436e-06
196 *211:55 *447:134 4.90237e-05
197 *211:57 *447:100 3.27855e-05
198 *211:57 *447:115 3.05118e-08
199 *211:74 *447:115 8.15846e-06
200 *211:89 *447:142 0
201 *211:106 *447:153 2.54163e-05
202 *211:192 *447:67 2.51321e-05
203 *211:211 *447:227 0
204 *211:253 *447:430 1.94819e-05
205 *211:253 *447:441 6.92631e-05
206 *211:253 *447:452 1.97456e-05
207 *215:22 *447:244 6.40748e-07
208 *216:6 *691:A1 1.35684e-06
209 *216:10 *447:368 8.33296e-06
210 *229:12 *447:364 1.60648e-05
211 *229:12 *447:383 4.32502e-06
212 *229:18 *447:362 5.0468e-07
213 *229:18 *447:399 8.37026e-06
214 *229:24 *447:258 0
215 *230:20 *447:399 3.68117e-05
216 *230:41 *447:296 6.0212e-06
217 *230:41 *447:298 2.86737e-05
218 *230:68 *447:318 1.84289e-05
219 *230:74 *447:318 0
220 *252:12 *447:71 5.49212e-07
221 *252:12 *447:82 9.39763e-06
222 *254:10 *447:100 0
223 *260:14 *447:142 2.02764e-05
224 *260:14 *447:153 2.33787e-05
225 *263:10 *447:153 0
226 *274:40 *699:A1 1.07573e-06
227 *274:40 *447:65 3.25708e-06
228 *274:50 *447:44 0
229 *274:83 *447:312 9.5726e-05
230 *274:87 *447:318 6.53958e-05
231 *274:93 *447:318 1.002e-06
232 *274:111 *447:171 4.45371e-05
233 *274:117 *447:171 7.81138e-06
234 *274:119 *447:100 0
235 *274:199 *447:271 0
236 *274:214 *447:258 4.55111e-05
237 *274:218 *447:242 0
238 *274:218 *447:244 1.37753e-05
239 *274:218 *447:254 0
240 *274:235 *447:341 3.05118e-08
241 *274:235 *447:345 1.59615e-06
242 *274:268 *447:364 6.51733e-05
243 *274:268 *447:368 2.98302e-05
244 *274:291 *447:368 1.97537e-05
245 *274:318 *447:452 0
246 *274:322 *447:452 1.89747e-06
247 *274:330 *447:452 0
248 *277:10 *447:203 7.84772e-07
249 *277:43 *447:44 2.83449e-06
250 *277:61 *447:304 9.39763e-06
251 *277:61 *447:312 0
252 *277:167 *688:A 2.12481e-06
253 *277:167 *447:273 4.0801e-05
254 *277:175 *447:271 9.67723e-06
255 *277:200 *447:254 3.05118e-08
256 *277:208 *447:341 1.7574e-05
257 *277:242 *447:383 0
258 *280:6 *696:A1 8.13589e-06
259 *285:14 *691:A1 6.7842e-07
260 *286:20 *447:362 6.59506e-06
261 *286:20 *447:399 0
262 *288:21 *447:452 0
263 *289:12 *447:441 5.37866e-07
264 *289:12 *447:452 1.89747e-06
265 *291:16 *447:38 3.37709e-06
266 *291:29 *447:50 5.2818e-06
267 *291:37 *699:A1 5.68573e-06
268 *293:19 *447:82 0
269 *293:30 *447:82 0
270 *295:39 *447:115 1.32809e-05
271 *295:39 *447:130 4.45647e-06
272 *300:36 *447:227 2.74606e-06
273 *301:10 *447:44 2.36256e-05
274 *301:10 *447:50 2.03526e-06
275 *302:20 *447:227 2.35211e-06
276 *302:20 *447:242 2.16624e-06
277 *304:12 *447:364 6.4129e-06
278 *304:12 *447:383 1.07377e-06
279 *304:20 *693:A1 7.63254e-07
280 *305:20 *447:341 4.23705e-06
281 *306:20 *447:458 2.15886e-05
282 *306:28 *696:A1 1.49465e-05
283 *307:28 *697:A1 3.89037e-06
284 *307:28 *447:441 8.51183e-06
285 *308:6 *698:A1 3.3921e-06
286 *308:14 *698:A1 9.75645e-06
287 *313:10 *447:44 0
288 *324:16 *447:211 7.69609e-06
289 *327:16 *447:71 1.66587e-05
290 *328:12 *447:94 2.20493e-06
291 *328:12 *447:98 3.65131e-06
292 *329:14 *704:A1 9.08513e-06
293 *330:12 *705:A1 9.75645e-06
294 *331:10 *447:153 0
295 *334:16 *447:6 1.42637e-05
296 *334:44 *447:32 0.000135514
297 *334:46 *447:32 0.000192682
298 *334:267 *447:364 1.4311e-05
299 *334:324 *447:364 4.02965e-05
300 *334:337 *447:430 3.14726e-06
301 *334:386 *447:430 4.83141e-06
302 *334:386 *447:441 1.64764e-06
303 *336:27 *447:14 1.4417e-05
304 *337:8 *447:10 0
305 *337:8 *447:227 0
306 *339:18 *447:441 1.32674e-05
307 *340:20 *447:411 1.84236e-05
308 *343:12 *447:452 1.09842e-06
309 *346:10 *447:71 0
310 *346:10 *447:82 0
311 *346:23 *447:67 1.4252e-05
312 *347:14 *447:86 0
313 *347:22 *447:86 0
314 *349:20 *447:153 0
315 *350:30 *447:153 0
316 *350:38 *447:153 0
317 *409:10 *447:349 1.96231e-05
318 *409:10 *447:362 8.06436e-06
319 *432:34 *447:428 2.3311e-05
320 *432:75 *447:452 0
321 *432:81 *447:452 6.65157e-06
322 *432:92 *447:452 9.94685e-06
323 *435:14 *447:318 3.19504e-06
324 *435:22 *447:318 5.43643e-06
325 *436:63 *447:242 1.2768e-05
326 *436:120 *447:244 5.52807e-07
327 *437:8 *447:171 5.34278e-06
328 *437:14 *447:171 9.75735e-06
329 *438:12 *447:364 1.711e-05
330 *438:20 *447:362 5.70723e-06
331 *438:20 *447:399 9.75964e-07
332 *442:14 *447:345 1.96943e-05
333 *442:14 *447:399 4.83862e-06
334 *446:25 *447:50 5.09299e-06
335 *446:100 *447:211 1.70708e-06
*RES
1 *957:Y *447:6 29.501 
2 *447:6 *447:10 22.8317 
3 *447:10 *447:12 17.2 
4 *447:12 *447:14 74.3407 
5 *447:14 *447:16 17.2 
6 *447:16 *447:22 35.8942 
7 *447:22 *447:30 43.354 
8 *447:30 *447:32 91.4551 
9 *447:32 *447:38 45.6633 
10 *447:38 *447:44 45.8328 
11 *447:44 *447:50 46.701 
12 *447:50 *699:A1 43.354 
13 *447:50 *447:65 31.2792 
14 *447:65 *447:67 37.9726 
15 *447:67 *447:71 29.5897 
16 *447:71 *702:A1 36.5393 
17 *447:71 *447:82 56.9736 
18 *447:82 *447:86 36.463 
19 *447:86 *447:94 37.0369 
20 *447:94 *447:98 19.8741 
21 *447:98 *447:100 51.2481 
22 *447:100 *704:A1 37.0741 
23 *447:100 *447:115 35.7278 
24 *447:115 *663:A 17.2 
25 *447:115 *447:130 48.3374 
26 *447:130 *447:134 41.9793 
27 *447:134 *447:138 18.8045 
28 *447:138 *447:142 27.337 
29 *447:142 *705:A1 37.0741 
30 *447:142 *447:153 59.6956 
31 *447:153 *706:A1 38.6786 
32 *447:138 *667:A 18.2696 
33 *447:130 *447:171 42.2512 
34 *447:171 *708:A1 17.2 
35 *447:94 *703:A1 17.2 
36 *447:38 *646:A 17.2 
37 *447:22 *504:A2 17.2 
38 *447:16 *447:193 51.2481 
39 *447:193 *447:197 27.3617 
40 *447:197 *447:203 41.9242 
41 *447:203 *447:211 43.2817 
42 *447:211 *701:A1 36.0045 
43 *447:197 *510:A 17.2 
44 *447:10 *447:227 24.7793 
45 *447:227 *690:A1 34.4 
46 *447:227 *447:242 42.0859 
47 *447:242 *447:244 46.7428 
48 *447:244 *447:246 17.2 
49 *447:246 *447:254 46.6108 
50 *447:254 *447:258 40.3589 
51 *447:258 *694:A1 43.88 
52 *447:258 *447:271 26.8677 
53 *447:271 *447:273 30.485 
54 *447:273 *688:A 18.8045 
55 *447:273 *447:286 46.7897 
56 *447:286 *447:296 46.9277 
57 *447:296 *447:298 34.2288 
58 *447:298 *447:304 47.916 
59 *447:304 *447:308 29.501 
60 *447:308 *447:312 49.3005 
61 *447:312 *447:318 47.0688 
62 *447:318 *710:A1 34.4 
63 *447:304 *506:A 17.2 
64 *447:296 *602:A 17.2 
65 *447:246 *447:341 37.612 
66 *447:341 *447:345 23.0831 
67 *447:345 *447:349 23.958 
68 *447:349 *693:A1 38.1438 
69 *447:349 *447:362 27.337 
70 *447:362 *447:364 30.485 
71 *447:364 *447:368 34.6581 
72 *447:368 *691:A1 35.4697 
73 *447:364 *447:383 36.1493 
74 *447:383 *617:A 48.8403 
75 *447:345 *618:A 17.2 
76 *447:341 *447:399 35.4795 
77 *447:399 *447:405 39.2134 
78 *447:405 *447:411 47.9191 
79 *447:411 *447:419 43.354 
80 *447:419 *631:C 17.2 
81 *447:419 *447:428 46.0806 
82 *447:428 *447:430 16.3318 
83 *447:430 *698:A1 40.2831 
84 *447:430 *447:441 53.5008 
85 *447:441 *697:A1 35.4697 
86 *447:441 *447:452 55.1903 
87 *447:452 *447:458 48.8403 
88 *447:458 *696:A1 42.171 
89 *447:6 *465:A 17.2 
*END

*D_NET *448 0.00141448
*CONN
*I *942:A I *D BUFx4_ASAP7_75t_R
*I *946:A I *D BUFx4_ASAP7_75t_R
*I *947:A I *D BUFx4_ASAP7_75t_R
*I *956:A I *D BUFx4_ASAP7_75t_R
*I *958:Y O *D BUFx4_ASAP7_75t_R
*CAP
1 *942:A 0
2 *946:A 0
3 *947:A 0
4 *956:A 0
5 *958:Y 0
6 *448:107 7.83814e-05
7 *448:101 0.000148922
8 *448:87 2.09081e-05
9 *448:79 0.00012288
10 *448:77 0.000232332
11 *448:63 1.16825e-05
12 *448:59 8.73264e-05
13 *448:43 8.63626e-07
14 *448:39 7.32607e-05
15 *448:33 9.1459e-05
16 *448:25 9.47059e-05
17 *448:23 0.000127128
18 *448:21 0.000153455
19 *448:13 8.69938e-05
20 *448:6 8.47938e-07
21 *20:104 *448:23 4.98688e-08
22 *67:34 *448:43 1.30746e-06
23 *75:10 *448:87 1.95425e-06
24 *274:214 *448:87 0
25 *284:14 *448:21 7.93328e-06
26 *284:14 *448:77 3.72531e-05
27 *333:20 *448:59 2.63785e-05
28 *334:114 *448:23 0
29 *334:126 *448:23 0
30 *334:315 *448:13 7.84772e-07
31 *348:14 *448:59 0
32 *404:14 *448:43 0
33 *421:10 *448:107 4.37274e-06
34 *434:18 *448:63 1.56976e-06
35 *436:90 *448:87 6.68884e-07
36 *437:97 *448:63 0
37 *444:18 *448:107 1.0578e-06
*RES
1 *958:Y *448:6 34.4 
2 *448:6 *448:13 17.857 
3 *448:13 *448:21 35.6567 
4 *448:21 *448:23 54.1095 
5 *448:23 *448:25 11.8 
6 *448:25 *448:33 32.602 
7 *448:33 *448:39 48.9641 
8 *448:39 *448:43 18.2325 
9 *448:43 *956:A 34.4 
10 *448:25 *448:59 39.0633 
11 *448:59 *448:63 23.6764 
12 *448:63 *947:A 34.4 
13 *448:13 *448:77 42.8047 
14 *448:77 *448:79 44.2166 
15 *448:79 *448:87 40.9149 
16 *448:87 *946:A 34.4 
17 *448:77 *448:101 35.9596 
18 *448:101 *448:107 47.3996 
19 *448:107 *942:A 34.4 
*END

*D_NET *449 0.00023171
*CONN
*I *495:C I *D AND4x1_ASAP7_75t_R
*I *666:A I *D INVx1_ASAP7_75t_R
*I *962:Y O *D BUFx3_ASAP7_75t_R
*CAP
1 *495:C 2.39282e-06
2 *666:A 7.3373e-06
3 *962:Y 1.50319e-05
4 *449:23 5.29889e-05
5 *449:21 5.05961e-05
6 *449:12 1.65215e-05
7 *449:8 2.4216e-05
8 *449:8 *458:8 2.22736e-06
9 *52:12 *449:8 1.09067e-06
10 *102:8 *449:23 1.31643e-05
11 *259:6 *666:A 0
12 *434:18 *449:23 0
13 *441:15 *449:8 0
14 *441:15 *449:23 4.61435e-05
*RES
1 *962:Y *449:8 46.2265 
2 *449:8 *449:12 20.9438 
3 *449:12 *666:A 19.8741 
4 *449:12 *449:21 17.2 
5 *449:21 *449:23 43.9269 
6 *449:23 *495:C 35.4697 
*END

*D_NET *450 0.000215431
*CONN
*I *634:A I *D NAND2x1_ASAP7_75t_R
*I *963:Y O *D BUFx3_ASAP7_75t_R
*CAP
1 *634:A 0
2 *963:Y 0
3 *450:12 7.09929e-06
4 *450:6 0.000107715
5 *450:4 0.000100616
*RES
1 *963:Y *450:4 17.2 
2 *450:4 *450:6 48.6691 
3 *450:6 *450:12 38.9053 
4 *450:12 *634:A 17.2 
*END

*D_NET *451 0.000410569
*CONN
*I *705:B2 I *D OA222x2_ASAP7_75t_R
*I *667:B I *D AND3x1_ASAP7_75t_R
*I *964:Y O *D BUFx3_ASAP7_75t_R
*CAP
1 *705:B2 5.48109e-06
2 *667:B 5.42687e-06
3 *964:Y 0
4 *451:10 2.02633e-05
5 *451:6 0.000130162
6 *451:4 0.000120807
7 *451:6 *964:A 1.62312e-05
8 *705:A1 *705:B2 1.95129e-06
9 *211:89 *667:B 5.79724e-07
10 *211:95 *667:B 8.58704e-06
11 *211:95 *705:B2 3.56648e-06
12 *211:95 *451:10 3.03529e-05
13 *211:106 *451:10 1.45158e-05
14 *260:14 *667:B 1.67893e-05
15 *260:14 *451:10 2.51223e-05
16 *330:12 *705:B2 2.03997e-06
17 *331:8 *451:6 0
18 *447:142 *667:B 1.56807e-06
19 *447:153 *451:10 7.12447e-06
*RES
1 *964:Y *451:4 17.2 
2 *451:4 *451:6 56.1566 
3 *451:6 *451:10 32.4055 
4 *451:10 *667:B 41.158 
5 *451:10 *705:B2 38.1438 
*END

*D_NET *452 0.00038912
*CONN
*I *682:B1 I *D AO221x2_ASAP7_75t_R
*I *965:Y O *D BUFx3_ASAP7_75t_R
*CAP
1 *682:B1 1.5523e-06
2 *965:Y 6.11892e-06
3 *452:18 2.1076e-05
4 *452:10 0.000119173
5 *452:8 0.000105768
6 *682:B2 *682:B1 3.89037e-06
7 *682:B2 *452:18 6.04788e-06
8 *683:B1 *682:B1 6.7842e-07
9 *683:B2 *452:18 2.81851e-06
10 *119:10 *452:10 2.31174e-05
11 *119:21 *452:10 1.45158e-05
12 *181:10 *452:10 0
13 *184:14 *452:8 3.48165e-06
14 *211:14 *452:18 6.44983e-06
15 *211:31 *452:10 0
16 *319:8 *452:10 2.06182e-05
17 *352:8 *452:10 1.1053e-05
18 *421:36 *452:10 1.45123e-05
19 *421:49 *452:10 0
20 *439:25 *452:10 1.85401e-05
21 *439:25 *452:18 3.05118e-08
22 *439:49 *452:10 9.67723e-06
*RES
1 *965:Y *452:8 37.0741 
2 *452:8 *452:10 85.0381 
3 *452:10 *452:18 45.9714 
4 *452:18 *682:B1 35.4697 
*END

*D_NET *453 0.00037632
*CONN
*I *614:B2 I *D AO221x1_ASAP7_75t_R
*I *966:Y O *D BUFx3_ASAP7_75t_R
*CAP
1 *614:B2 9.68995e-06
2 *966:Y 0
3 *453:8 8.95542e-05
4 *453:6 7.98642e-05
5 *614:A1 *614:B2 5.85387e-06
6 *614:C *614:B2 8.53214e-06
7 *25:22 *453:8 5.0041e-06
8 *28:38 *453:8 0
9 *218:8 *614:B2 7.58115e-06
10 *231:8 *453:8 2.64395e-05
11 *274:295 *453:8 6.84773e-06
12 *274:303 *453:8 0
13 *274:349 *453:8 4.17277e-06
14 *277:253 *453:8 6.35954e-06
15 *277:261 *453:8 6.40246e-05
16 *277:271 *453:8 8.32972e-06
17 *290:37 *453:8 2.20028e-06
18 *334:362 *453:8 2.37568e-05
19 *338:20 *453:8 0
20 *397:18 *453:8 1.75741e-06
21 *397:31 *614:B2 1.20367e-05
22 *432:34 *614:B2 1.23489e-06
23 *432:40 *453:8 1.30801e-05
*RES
1 *966:Y *453:6 34.4 
2 *453:6 *453:8 82.7854 
3 *453:8 *614:B2 42.4224 
*END

*D_NET *454 2.63511e-05
*CONN
*I *912:A I *D BUFx6f_ASAP7_75t_R
*I *967:Y O *D BUFx3_ASAP7_75t_R
*CAP
1 *912:A 5.00668e-06
2 *967:Y 4.2527e-06
3 *454:8 9.25938e-06
4 *158:25 *454:8 4.1009e-06
5 *423:77 *912:A 3.73144e-06
*RES
1 *967:Y *454:8 37.779 
2 *454:8 *912:A 37.0741 
*END

*D_NET *455 1.61236e-05
*CONN
*I *529:A I *D XNOR2x2_ASAP7_75t_R
*I *968:Y O *D BUFx6f_ASAP7_75t_R
*CAP
1 *529:A 0
2 *968:Y 2.95823e-06
3 *455:8 2.95823e-06
4 *399:10 *455:8 0
5 *402:20 *455:8 1.02072e-05
*RES
1 *968:Y *455:8 37.779 
2 *455:8 *529:A 34.4 
*END

*D_NET *456 0.000254277
*CONN
*I *677:B1 I *D AO221x2_ASAP7_75t_R
*I *969:Y O *D BUFx3_ASAP7_75t_R
*CAP
1 *677:B1 1.31788e-05
2 *969:Y 2.61984e-05
3 *456:16 2.57671e-05
4 *456:10 6.36432e-05
5 *456:8 7.72533e-05
6 *535:A2 *456:10 5.22486e-06
7 *677:B2 *677:B1 3.46317e-06
8 *719:B *677:B1 0
9 *53:10 *456:10 4.83862e-06
10 *53:25 *456:10 8.06436e-06
11 *54:12 *456:10 0
12 *163:10 *456:8 0
13 *318:12 *677:B1 1.44167e-06
14 *318:20 *677:B1 1.12894e-06
15 *351:12 *456:8 5.74614e-06
16 *402:20 *456:10 1.26211e-05
17 *419:44 *677:B1 0
18 *419:44 *456:10 5.70736e-06
19 *420:21 *456:10 0
20 *420:34 *456:10 0
*RES
1 *969:Y *456:8 46.701 
2 *456:8 *456:10 39.4216 
3 *456:10 *456:16 41.3527 
4 *456:16 *677:B1 44.4803 
*END

*D_NET *457 8.40485e-05
*CONN
*I *620:A1 I *D AOI22x1_ASAP7_75t_R
*I *970:Y O *D BUFx3_ASAP7_75t_R
*CAP
1 *620:A1 1.30353e-05
2 *970:Y 1.63245e-05
3 *457:8 2.93598e-05
4 *619:A *457:8 7.72307e-07
5 *970:A *620:A1 6.33206e-07
6 *18:10 *620:A1 6.78455e-06
7 *211:234 *620:A1 4.49667e-06
8 *211:245 *620:A1 1.01729e-05
9 *219:8 *620:A1 0
10 *222:18 *620:A1 1.64764e-06
11 *398:10 *620:A1 8.2174e-07
*RES
1 *970:Y *457:8 40.2831 
2 *457:8 *620:A1 45.6633 
*END

*D_NET *458 8.53493e-05
*CONN
*I *964:A I *D BUFx3_ASAP7_75t_R
*I *971:Y O *D BUFx3_ASAP7_75t_R
*CAP
1 *964:A 5.0099e-06
2 *971:Y 1.47493e-05
3 *458:8 1.97592e-05
4 *52:12 *458:8 2.04071e-05
5 *441:15 *458:8 6.96526e-06
6 *449:8 *458:8 2.22736e-06
7 *451:6 *964:A 1.62312e-05
*RES
1 *971:Y *458:8 47.3528 
2 *458:8 *964:A 39.2134 
*END

*D_NET *459 6.91157e-05
*CONN
*I *527:A I *D XOR2x2_ASAP7_75t_R
*I *972:Y O *D BUFx3_ASAP7_75t_R
*CAP
1 *527:A 1.39546e-05
2 *972:Y 6.62144e-06
3 *459:8 2.0576e-05
4 *20:112 *527:A 1.54891e-05
5 *56:19 *459:8 1.24745e-05
6 *419:19 *459:8 0
*RES
1 *972:Y *459:8 38.9053 
2 *459:8 *527:A 43.492 
*END

*D_NET *460 0.000143397
*CONN
*I *573:A1 I *D OA211x2_ASAP7_75t_R
*I *548:A1 I *D OAI21x1_ASAP7_75t_R
*I *973:Y O *D BUFx6f_ASAP7_75t_R
*CAP
1 *573:A1 4.88473e-06
2 *548:A1 0
3 *973:Y 1.31161e-05
4 *460:25 2.32663e-05
5 *460:8 3.14976e-05
6 *573:A2 *460:25 5.37569e-06
7 *171:10 *460:8 4.07882e-06
8 *174:12 *460:25 5.41446e-06
9 *174:20 *573:A1 5.62196e-06
10 *174:20 *460:25 2.49844e-05
11 *175:14 *460:25 1.64764e-06
12 *181:25 *460:8 0
13 *182:10 *460:8 2.35094e-05
*RES
1 *973:Y *460:8 47.3528 
2 *460:8 *548:A1 34.4 
3 *460:8 *460:25 48.9006 
4 *460:25 *573:A1 37.0741 
*END

*D_NET *461 0.000344572
*CONN
*I *518:A2 I *D OA21x2_ASAP7_75t_R
*I *523:A2 I *D OA211x2_ASAP7_75t_R
*I *974:Y O *D BUFx3_ASAP7_75t_R
*CAP
1 *518:A2 0
2 *523:A2 6.8433e-06
3 *974:Y 9.20269e-06
4 *461:30 1.88657e-05
5 *461:22 2.17882e-05
6 *461:20 2.97744e-05
7 *461:16 3.88208e-05
8 *461:10 2.80148e-05
9 *518:A1 *461:30 1.21922e-05
10 *523:A1 *523:A2 5.85387e-06
11 *523:A1 *461:30 1.31716e-05
12 *711:CI *461:10 5.52807e-07
13 *22:20 *461:10 3.65131e-06
14 *22:24 *461:10 1.49407e-08
15 *23:26 *461:16 0
16 *24:6 *461:20 2.9059e-07
17 *24:19 *461:20 7.21486e-05
18 *68:6 *461:22 8.87763e-06
19 *68:6 *461:30 1.73158e-05
20 *68:14 *461:30 0
21 *147:20 *461:20 7.90851e-06
22 *152:6 *523:A2 5.19552e-07
23 *154:12 *461:30 1.09842e-06
24 *208:34 *461:20 2.48609e-05
25 *208:40 *461:20 2.22259e-05
26 *446:10 *461:30 5.79724e-07
*RES
1 *974:Y *461:10 39.2329 
2 *461:10 *461:16 41.326 
3 *461:16 *461:20 44.889 
4 *461:20 *461:22 6.4179 
5 *461:22 *461:30 46.5062 
6 *461:30 *523:A2 20.9438 
7 *461:22 *518:A2 17.2 
*END
