*SPEF "ieee 1481-1999"
*DESIGN "gcd"
*DATE "16:52:14 Monday January 12, 2026"
*VENDOR "The OpenROAD Project"
*PROGRAM "OpenROAD"
*VERSION "v2.0-24458-g96512a37e9"
*DESIGN_FLOW "NAME_SCOPE LOCAL" "PIN_CAP NONE"
*DIVIDER /
*DELIMITER :
*BUS_DELIMITER []
*T_UNIT 1 NS
*C_UNIT 1 PF
*R_UNIT 1 OHM
*L_UNIT 1 HENRY

*NAME_MAP
*1 _000_
*2 _001_
*3 _002_
*4 _003_
*5 _004_
*6 _005_
*7 _006_
*8 _007_
*9 _008_
*10 _009_
*11 _010_
*12 _011_
*13 _012_
*14 _013_
*15 _014_
*16 _015_
*17 _016_
*18 _017_
*19 _018_
*20 _019_
*21 _020_
*22 _021_
*23 _022_
*24 _023_
*25 _024_
*26 _025_
*27 _026_
*28 _027_
*29 _028_
*30 _029_
*31 _030_
*32 _031_
*33 _032_
*34 _033_
*35 _034_
*36 _035_
*37 _036_
*38 _037_
*39 _038_
*40 _039_
*41 _040_
*42 _041_
*43 _042_
*44 _043_
*45 _044_
*46 _045_
*47 _046_
*48 _047_
*49 _048_
*50 _049_
*51 _050_
*52 _051_
*53 _052_
*54 _053_
*55 _054_
*56 _055_
*57 _056_
*58 _057_
*59 _058_
*60 _059_
*61 _060_
*62 _061_
*63 _062_
*64 _063_
*65 _064_
*66 _065_
*67 _066_
*68 _067_
*69 _068_
*70 _069_
*71 _070_
*72 _071_
*73 _072_
*74 _073_
*75 _074_
*76 _075_
*77 _076_
*78 _077_
*79 _078_
*80 _079_
*81 _080_
*82 _081_
*83 _082_
*84 _083_
*85 _084_
*86 _085_
*87 _086_
*88 _087_
*89 _088_
*90 _089_
*91 _090_
*92 _091_
*93 _092_
*94 _093_
*95 _094_
*96 _095_
*97 _096_
*98 _097_
*99 _098_
*100 _099_
*101 _100_
*102 _101_
*103 _102_
*104 net13
*105 net12
*106 _105_
*107 net11
*108 _107_
*109 _108_
*110 _109_
*111 _110_
*112 _111_
*113 _112_
*114 _113_
*115 _114_
*116 _115_
*117 _116_
*118 net10
*119 _118_
*120 _119_
*121 _120_
*122 _121_
*123 _122_
*124 _123_
*125 _124_
*126 _125_
*127 net9
*128 _127_
*129 _128_
*130 _129_
*131 _130_
*132 _131_
*133 _132_
*134 _133_
*135 _134_
*136 _135_
*137 _136_
*138 _137_
*139 _138_
*140 _139_
*141 net8
*142 _141_
*143 _142_
*144 _143_
*145 _144_
*146 _145_
*147 _146_
*148 net7
*149 _148_
*150 _149_
*151 _150_
*152 _151_
*153 _152_
*154 _153_
*155 _154_
*156 _155_
*157 _156_
*158 _157_
*159 _158_
*160 _159_
*161 _160_
*162 _161_
*163 _162_
*164 _163_
*165 _164_
*166 _165_
*167 _166_
*168 _167_
*169 _168_
*170 _169_
*171 _170_
*172 _171_
*173 _172_
*174 _173_
*175 _174_
*176 _175_
*177 _176_
*178 _177_
*179 _178_
*180 _179_
*181 _180_
*182 _181_
*183 _182_
*184 _183_
*185 _184_
*186 _185_
*187 _186_
*188 _187_
*189 _188_
*190 _189_
*191 _190_
*192 _191_
*193 _192_
*194 _193_
*195 _194_
*196 _195_
*197 _196_
*198 _197_
*199 _198_
*200 _199_
*201 _200_
*202 _201_
*203 _202_
*204 _203_
*205 _204_
*206 _205_
*207 _206_
*208 _207_
*209 net6
*210 _209_
*211 _210_
*212 net5
*213 net4
*214 _213_
*215 _214_
*216 _215_
*217 _216_
*218 _217_
*219 _218_
*220 _219_
*221 _220_
*222 _221_
*223 _222_
*224 _223_
*225 _224_
*226 _225_
*227 _226_
*228 _227_
*229 _228_
*230 _229_
*231 _230_
*232 _231_
*233 _232_
*234 _233_
*235 _234_
*236 _235_
*237 _236_
*238 _237_
*239 _238_
*240 _239_
*241 _240_
*242 _241_
*243 _242_
*244 _243_
*245 _244_
*246 _245_
*247 _246_
*248 _247_
*249 _248_
*250 _249_
*251 _250_
*252 _251_
*253 _252_
*254 _253_
*255 _254_
*256 _255_
*257 _256_
*258 _257_
*259 _258_
*260 _259_
*261 _260_
*262 _261_
*263 _262_
*264 _263_
*265 _264_
*266 _265_
*267 _266_
*268 _267_
*269 _268_
*270 _269_
*271 _270_
*272 _271_
*273 net3
*274 _273_
*275 net2
*276 _275_
*277 _276_
*278 net1
*279 _278_
*280 _279_
*281 _280_
*282 _281_
*283 _282_
*284 clk
*285 dpath\.a_lt_b\$in0\[10\]
*286 dpath\.a_lt_b\$in0\[11\]
*287 dpath\.a_lt_b\$in0\[12\]
*288 dpath\.a_lt_b\$in0\[13\]
*289 dpath\.a_lt_b\$in0\[14\]
*290 dpath\.a_lt_b\$in0\[15\]
*291 dpath\.a_lt_b\$in0\[1\]
*292 dpath\.a_lt_b\$in0\[2\]
*293 dpath\.a_lt_b\$in0\[3\]
*294 dpath\.a_lt_b\$in0\[4\]
*295 dpath\.a_lt_b\$in0\[5\]
*296 dpath\.a_lt_b\$in0\[6\]
*297 dpath\.a_lt_b\$in0\[7\]
*298 dpath\.a_lt_b\$in0\[8\]
*299 dpath\.a_lt_b\$in0\[9\]
*300 dpath\.a_lt_b\$in1\[0\]
*301 dpath\.a_lt_b\$in1\[1\]
*302 req_msg[0]
*303 req_msg[10]
*304 req_msg[11]
*305 req_msg[12]
*306 req_msg[13]
*307 req_msg[14]
*308 req_msg[15]
*309 req_msg[16]
*310 req_msg[17]
*311 req_msg[18]
*312 req_msg[19]
*313 req_msg[1]
*314 req_msg[20]
*315 req_msg[21]
*316 req_msg[22]
*317 req_msg[23]
*318 req_msg[24]
*319 req_msg[25]
*320 req_msg[26]
*321 req_msg[27]
*322 req_msg[28]
*323 req_msg[29]
*324 req_msg[2]
*325 req_msg[30]
*326 req_msg[31]
*327 req_msg[3]
*328 req_msg[4]
*329 req_msg[5]
*330 req_msg[6]
*331 req_msg[7]
*332 req_msg[8]
*333 req_msg[9]
*334 net36
*335 req_val
*336 reset
*337 net37
*338 net38
*339 net39
*340 net40
*341 net41
*342 net42
*343 net43
*344 net44
*345 net45
*346 net46
*347 net47
*348 net48
*349 net49
*350 net50
*351 net51
*352 net52
*353 resp_rdy
*354 net53
*357 net14
*358 net15
*359 net16
*360 net17
*361 net18
*362 net19
*363 net20
*364 net21
*365 net22
*366 net23
*367 net24
*368 net25
*369 net26
*370 net27
*371 net28
*372 net29
*373 net30
*374 net31
*375 net32
*376 net33
*377 net34
*378 net35
*379 req_rdy
*380 resp_msg[0]
*381 resp_msg[10]
*382 resp_msg[11]
*383 resp_msg[12]
*384 resp_msg[13]
*385 resp_msg[14]
*386 resp_msg[15]
*387 resp_msg[1]
*388 resp_msg[2]
*389 resp_msg[3]
*390 resp_msg[4]
*391 resp_msg[5]
*392 resp_msg[6]
*393 resp_msg[7]
*394 resp_msg[8]
*395 resp_msg[9]
*396 resp_val
*397 net148
*398 net157
*399 net151
*400 net152
*401 net153
*402 net154
*403 net155
*404 net156
*405 net158
*406 net159
*407 net161
*408 net162
*409 net168
*410 net167
*411 net262
*412 net238
*413 net169
*414 net237
*415 net170
*416 net171
*417 net172
*418 net173
*419 net174
*420 net236
*421 net235
*422 net175
*423 net234
*424 net176
*425 net177
*426 net179
*427 net178
*428 net180
*429 net233
*430 net231
*431 net232
*432 net230
*433 net181
*434 net186
*435 net182
*436 net183
*437 net184
*438 net185
*439 net229
*440 net187
*441 clknet_2_3__leaf_clk
*442 net188
*443 net189
*444 net190
*445 net191
*446 net192
*447 net193
*448 net194
*449 clknet_2_2__leaf_clk
*450 net195
*451 net220
*452 net196
*453 net197
*454 net198
*455 net199
*456 net200
*457 net201
*458 net202
*459 net203
*460 net204
*461 net208
*462 net205
*463 net206
*464 net207
*465 net219
*466 net209
*467 net210
*468 net211
*469 net212
*470 net213
*471 net214
*472 net215
*473 net216
*474 net217
*475 net218
*476 net223
*477 net221
*478 net222
*479 clknet_2_1__leaf_clk
*480 net224
*481 net225
*482 net228
*483 net226
*484 net227
*485 clknet_2_0__leaf_clk
*486 clknet_0_clk
*487 net144
*488 net145
*489 net146
*490 net147
*491 net149
*492 net150
*493 net160
*494 net163
*495 net164
*496 net165
*497 net166
*498 net240
*499 net243
*500 net248
*501 net249
*502 net250
*503 net251
*504 net253
*505 net254
*506 net256
*507 net257
*508 net258
*509 net259
*510 net260
*511 net261
*512 net263
*513 net264
*514 _283_
*515 _284_
*516 input13
*517 _286_
*518 input12
*519 _288_
*520 input11
*521 _290_
*522 _291_
*523 _292_
*524 _293_
*525 _294_
*526 _295_
*527 _296_
*528 _297_
*529 _298_
*530 _299_
*531 input10
*532 _301_
*533 _302_
*534 _303_
*535 _304_
*536 _305_
*537 _306_
*538 _307_
*539 _308_
*540 input9
*541 _310_
*542 _311_
*543 _312_
*544 _313_
*545 _314_
*546 _315_
*547 _316_
*548 _317_
*549 _318_
*550 _319_
*551 _320_
*552 _321_
*553 _322_
*554 input8
*555 _324_
*556 _325_
*557 _326_
*558 _327_
*559 _328_
*560 _329_
*561 _330_
*562 _331_
*563 input7
*564 _333_
*565 _334_
*566 _335_
*567 _336_
*568 _337_
*569 _338_
*570 _339_
*571 _340_
*572 _341_
*573 _342_
*574 _343_
*575 _344_
*576 _345_
*577 _346_
*578 _347_
*579 _348_
*580 _349_
*581 _350_
*582 _351_
*583 _352_
*584 _353_
*585 _354_
*586 _355_
*587 _356_
*588 _357_
*589 _358_
*590 _359_
*591 _360_
*592 _361_
*593 _362_
*594 _363_
*595 _364_
*596 _365_
*597 _366_
*598 _367_
*599 _368_
*600 _369_
*601 _370_
*602 _371_
*603 _372_
*604 _373_
*605 _374_
*606 _375_
*607 _376_
*608 _377_
*609 _378_
*610 _379_
*611 _380_
*612 _381_
*613 _382_
*614 _383_
*615 _384_
*616 _385_
*617 _386_
*618 _387_
*619 _388_
*620 _389_
*621 _390_
*622 _391_
*623 _392_
*624 _393_
*625 _394_
*626 _395_
*627 _396_
*628 _397_
*629 _398_
*630 _399_
*631 _400_
*632 _401_
*633 _402_
*634 _403_
*635 _404_
*636 _405_
*637 _406_
*638 _407_
*639 _408_
*640 _409_
*641 _410_
*642 _411_
*643 _412_
*644 _413_
*645 _414_
*646 _415_
*647 _416_
*648 _417_
*649 _418_
*650 _419_
*651 _420_
*652 _421_
*653 _422_
*654 _423_
*655 _424_
*656 input6
*657 _426_
*658 _427_
*659 input5
*660 input4
*661 _430_
*662 _431_
*663 _432_
*664 _433_
*665 _434_
*666 _435_
*667 _436_
*668 _437_
*669 _438_
*670 _439_
*671 _440_
*672 _441_
*673 _442_
*674 _443_
*675 _444_
*676 _445_
*677 _446_
*678 _447_
*679 _448_
*680 _449_
*681 _450_
*682 _451_
*683 _452_
*684 _453_
*685 _454_
*686 _455_
*687 _456_
*688 _457_
*689 _458_
*690 _459_
*691 _460_
*692 _461_
*693 _462_
*694 _463_
*695 _464_
*696 _465_
*697 _466_
*698 _467_
*699 _468_
*700 _469_
*701 _470_
*702 _471_
*703 _472_
*704 _473_
*705 _474_
*706 _475_
*707 _476_
*708 _477_
*709 _478_
*710 _479_
*711 _480_
*712 _481_
*713 _482_
*714 _483_
*715 _484_
*716 _485_
*717 _486_
*718 _487_
*719 _488_
*720 _489_
*721 _490_
*722 _491_
*723 _492_
*724 _493_
*725 _494_
*726 _495_
*727 _496_
*728 _497_
*729 _498_
*730 _499_
*731 _500_
*732 _501_
*733 _502_
*734 _503_
*735 _504_
*736 input3
*737 _506_
*738 input2
*739 _508_
*740 _509_
*741 input1
*742 _511_
*743 _512_
*744 _513_
*745 _514_
*746 _515_
*747 _516_
*748 _517_
*749 _518_
*750 _519_
*751 _520_
*752 _521_
*753 _522_
*754 _523_
*755 _524_
*756 _525_
*757 _526_
*758 _527_
*759 _528_
*760 _529_
*761 _530_
*762 _531_
*763 _532_
*764 _533_
*765 _534_
*766 _535_
*767 _536_
*768 _537_
*769 _538_
*770 _539_
*771 _540_
*772 _541_
*773 _542_
*774 _543_
*775 _544_
*776 _545_
*777 _546_
*778 _547_
*779 _548_
*780 ctrl\.state\.out\[0\]\$_DFF_P_
*781 ctrl\.state\.out\[1\]\$_DFF_P_
*782 ctrl\.state\.out\[2\]\$_DFF_P_
*783 dpath\.a_reg\.out\[0\]\$_DFFE_PP_
*784 dpath\.a_reg\.out\[10\]\$_DFFE_PP_
*785 dpath\.a_reg\.out\[11\]\$_DFFE_PP_
*786 dpath\.a_reg\.out\[12\]\$_DFFE_PP_
*787 dpath\.a_reg\.out\[13\]\$_DFFE_PP_
*788 dpath\.a_reg\.out\[14\]\$_DFFE_PP_
*789 dpath\.a_reg\.out\[15\]\$_DFFE_PP_
*790 dpath\.a_reg\.out\[1\]\$_DFFE_PP_
*791 dpath\.a_reg\.out\[2\]\$_DFFE_PP_
*792 dpath\.a_reg\.out\[3\]\$_DFFE_PP_
*793 dpath\.a_reg\.out\[4\]\$_DFFE_PP_
*794 dpath\.a_reg\.out\[5\]\$_DFFE_PP_
*795 dpath\.a_reg\.out\[6\]\$_DFFE_PP_
*796 dpath\.a_reg\.out\[7\]\$_DFFE_PP_
*797 dpath\.a_reg\.out\[8\]\$_DFFE_PP_
*798 dpath\.a_reg\.out\[9\]\$_DFFE_PP_
*799 dpath\.b_reg\.out\[0\]\$_DFFE_PP_
*800 dpath\.b_reg\.out\[10\]\$_DFFE_PP_
*801 dpath\.b_reg\.out\[11\]\$_DFFE_PP_
*802 dpath\.b_reg\.out\[12\]\$_DFFE_PP_
*803 dpath\.b_reg\.out\[13\]\$_DFFE_PP_
*804 dpath\.b_reg\.out\[14\]\$_DFFE_PP_
*805 dpath\.b_reg\.out\[15\]\$_DFFE_PP_
*806 dpath\.b_reg\.out\[1\]\$_DFFE_PP_
*807 dpath\.b_reg\.out\[2\]\$_DFFE_PP_
*808 dpath\.b_reg\.out\[3\]\$_DFFE_PP_
*809 dpath\.b_reg\.out\[4\]\$_DFFE_PP_
*810 dpath\.b_reg\.out\[5\]\$_DFFE_PP_
*811 dpath\.b_reg\.out\[6\]\$_DFFE_PP_
*812 dpath\.b_reg\.out\[7\]\$_DFFE_PP_
*813 dpath\.b_reg\.out\[8\]\$_DFFE_PP_
*814 dpath\.b_reg\.out\[9\]\$_DFFE_PP_
*815 PHY_EDGE_ROW_0_Right_0
*816 PHY_EDGE_ROW_1_Right_1
*817 PHY_EDGE_ROW_2_Right_2
*818 PHY_EDGE_ROW_3_Right_3
*819 PHY_EDGE_ROW_4_Right_4
*820 PHY_EDGE_ROW_5_Right_5
*821 PHY_EDGE_ROW_6_Right_6
*822 PHY_EDGE_ROW_7_Right_7
*823 PHY_EDGE_ROW_8_Right_8
*824 PHY_EDGE_ROW_9_Right_9
*825 PHY_EDGE_ROW_10_Right_10
*826 PHY_EDGE_ROW_11_Right_11
*827 PHY_EDGE_ROW_12_Right_12
*828 PHY_EDGE_ROW_13_Right_13
*829 PHY_EDGE_ROW_14_Right_14
*830 PHY_EDGE_ROW_15_Right_15
*831 PHY_EDGE_ROW_16_Right_16
*832 PHY_EDGE_ROW_17_Right_17
*833 PHY_EDGE_ROW_18_Right_18
*834 PHY_EDGE_ROW_19_Right_19
*835 PHY_EDGE_ROW_20_Right_20
*836 PHY_EDGE_ROW_21_Right_21
*837 PHY_EDGE_ROW_22_Right_22
*838 PHY_EDGE_ROW_23_Right_23
*839 PHY_EDGE_ROW_24_Right_24
*840 PHY_EDGE_ROW_25_Right_25
*841 PHY_EDGE_ROW_26_Right_26
*842 PHY_EDGE_ROW_27_Right_27
*843 PHY_EDGE_ROW_28_Right_28
*844 PHY_EDGE_ROW_29_Right_29
*845 PHY_EDGE_ROW_30_Right_30
*846 PHY_EDGE_ROW_31_Right_31
*847 PHY_EDGE_ROW_32_Right_32
*848 PHY_EDGE_ROW_33_Right_33
*849 PHY_EDGE_ROW_34_Right_34
*850 PHY_EDGE_ROW_35_Right_35
*851 PHY_EDGE_ROW_36_Right_36
*852 PHY_EDGE_ROW_37_Right_37
*853 PHY_EDGE_ROW_38_Right_38
*854 PHY_EDGE_ROW_39_Right_39
*855 PHY_EDGE_ROW_40_Right_40
*856 PHY_EDGE_ROW_41_Right_41
*857 PHY_EDGE_ROW_42_Right_42
*858 PHY_EDGE_ROW_43_Right_43
*859 PHY_EDGE_ROW_44_Right_44
*860 PHY_EDGE_ROW_45_Right_45
*861 PHY_EDGE_ROW_46_Right_46
*862 PHY_EDGE_ROW_47_Right_47
*863 PHY_EDGE_ROW_48_Right_48
*864 PHY_EDGE_ROW_49_Right_49
*865 PHY_EDGE_ROW_50_Right_50
*866 PHY_EDGE_ROW_51_Right_51
*867 PHY_EDGE_ROW_0_Left_52
*868 PHY_EDGE_ROW_1_Left_53
*869 PHY_EDGE_ROW_2_Left_54
*870 PHY_EDGE_ROW_3_Left_55
*871 PHY_EDGE_ROW_4_Left_56
*872 PHY_EDGE_ROW_5_Left_57
*873 PHY_EDGE_ROW_6_Left_58
*874 PHY_EDGE_ROW_7_Left_59
*875 PHY_EDGE_ROW_8_Left_60
*876 PHY_EDGE_ROW_9_Left_61
*877 PHY_EDGE_ROW_10_Left_62
*878 PHY_EDGE_ROW_11_Left_63
*879 PHY_EDGE_ROW_12_Left_64
*880 PHY_EDGE_ROW_13_Left_65
*881 PHY_EDGE_ROW_14_Left_66
*882 PHY_EDGE_ROW_15_Left_67
*883 PHY_EDGE_ROW_16_Left_68
*884 PHY_EDGE_ROW_17_Left_69
*885 PHY_EDGE_ROW_18_Left_70
*886 PHY_EDGE_ROW_19_Left_71
*887 PHY_EDGE_ROW_20_Left_72
*888 PHY_EDGE_ROW_21_Left_73
*889 PHY_EDGE_ROW_22_Left_74
*890 PHY_EDGE_ROW_23_Left_75
*891 PHY_EDGE_ROW_24_Left_76
*892 PHY_EDGE_ROW_25_Left_77
*893 PHY_EDGE_ROW_26_Left_78
*894 PHY_EDGE_ROW_27_Left_79
*895 PHY_EDGE_ROW_28_Left_80
*896 PHY_EDGE_ROW_29_Left_81
*897 PHY_EDGE_ROW_30_Left_82
*898 PHY_EDGE_ROW_31_Left_83
*899 PHY_EDGE_ROW_32_Left_84
*900 PHY_EDGE_ROW_33_Left_85
*901 PHY_EDGE_ROW_34_Left_86
*902 PHY_EDGE_ROW_35_Left_87
*903 PHY_EDGE_ROW_36_Left_88
*904 PHY_EDGE_ROW_37_Left_89
*905 PHY_EDGE_ROW_38_Left_90
*906 PHY_EDGE_ROW_39_Left_91
*907 PHY_EDGE_ROW_40_Left_92
*908 PHY_EDGE_ROW_41_Left_93
*909 PHY_EDGE_ROW_42_Left_94
*910 PHY_EDGE_ROW_43_Left_95
*911 PHY_EDGE_ROW_44_Left_96
*912 PHY_EDGE_ROW_45_Left_97
*913 PHY_EDGE_ROW_46_Left_98
*914 PHY_EDGE_ROW_47_Left_99
*915 PHY_EDGE_ROW_48_Left_100
*916 PHY_EDGE_ROW_49_Left_101
*917 PHY_EDGE_ROW_50_Left_102
*918 PHY_EDGE_ROW_51_Left_103
*919 input14
*920 input15
*921 input16
*922 input17
*923 input18
*924 input19
*925 input20
*926 input21
*927 input22
*928 input23
*929 input24
*930 input25
*931 input26
*932 input27
*933 input28
*934 input29
*935 input30
*936 input31
*937 input32
*938 input33
*939 input34
*940 input35
*941 output36
*942 output37
*943 output38
*944 output39
*945 output40
*946 output41
*947 output42
*948 output43
*949 output44
*950 output45
*951 output46
*952 output47
*953 output48
*954 output49
*955 output50
*956 output51
*957 output52
*958 output53
*959 place148
*960 place157
*961 place151
*962 place152
*963 place153
*964 place154
*965 place155
*966 place156
*967 place158
*968 place159
*969 place161
*970 place162
*971 place168
*972 place167
*973 rebuffer236
*974 rebuffer235
*975 place169
*976 rebuffer234
*977 place170
*978 place171
*979 place172
*980 place173
*981 place174
*982 rebuffer233
*983 rebuffer232
*984 place175
*985 rebuffer231
*986 place176
*987 place177
*988 place179
*989 place178
*990 place180
*991 rebuffer230
*992 clkload2
*993 rebuffer229
*994 clkload1
*995 place181
*996 place186
*997 place182
*998 place183
*999 place184
*1000 place185
*1001 clkload0
*1002 place187
*1003 clkbuf_2_3__f_clk
*1004 place188
*1005 place189
*1006 place190
*1007 place191
*1008 place192
*1009 place193
*1010 place194
*1011 clkbuf_2_2__f_clk
*1012 place195
*1013 place220
*1014 place196
*1015 place197
*1016 place198
*1017 place199
*1018 place200
*1019 place201
*1020 place202
*1021 place203
*1022 place204
*1023 place208
*1024 place205
*1025 place206
*1026 place207
*1027 place219
*1028 place209
*1029 place210
*1030 place211
*1031 place212
*1032 place213
*1033 place214
*1034 place215
*1035 place216
*1036 place217
*1037 place218
*1038 place223
*1039 place221
*1040 place222
*1041 clkbuf_2_1__f_clk
*1042 place224
*1043 place225
*1044 place228
*1045 place226
*1046 place227
*1047 clkbuf_2_0__f_clk
*1048 clkbuf_0_clk
*1049 place144
*1050 place145
*1051 place146
*1052 place147
*1053 place149
*1054 place150
*1055 place160
*1056 place163
*1057 place164
*1058 place165
*1059 place166
*1060 rebuffer237
*1061 rebuffer238
*1062 rebuffer262
*1063 rebuffer240
*1064 rebuffer243
*1065 rebuffer248
*1066 rebuffer249
*1067 rebuffer250
*1068 rebuffer251
*1069 rebuffer253
*1070 rebuffer254
*1071 clone256
*1072 rebuffer257
*1073 rebuffer258
*1074 rebuffer259
*1075 rebuffer260
*1076 rebuffer261
*1077 rebuffer263
*1078 rebuffer264
*1079 FILLER_0_2
*1080 FILLER_0_24
*1081 FILLER_0_46
*1082 FILLER_0_68
*1083 FILLER_0_90
*1084 FILLER_0_104
*1085 FILLER_0_110
*1086 FILLER_0_132
*1087 FILLER_0_146
*1088 FILLER_0_155
*1089 FILLER_0_165
*1090 FILLER_0_167
*1091 FILLER_0_173
*1092 FILLER_0_195
*1093 FILLER_0_217
*1094 FILLER_0_239
*1095 FILLER_0_253
*1096 FILLER_0_257
*1097 FILLER_1_2
*1098 FILLER_1_24
*1099 FILLER_1_46
*1100 FILLER_1_68
*1101 FILLER_1_77
*1102 FILLER_1_83
*1103 FILLER_1_85
*1104 FILLER_1_91
*1105 FILLER_1_113
*1106 FILLER_1_135
*1107 FILLER_1_157
*1108 FILLER_1_179
*1109 FILLER_1_201
*1110 FILLER_1_223
*1111 FILLER_1_245
*1112 FILLER_1_255
*1113 FILLER_1_257
*1114 FILLER_2_2
*1115 FILLER_2_24
*1116 FILLER_2_46
*1117 FILLER_2_68
*1118 FILLER_2_90
*1119 FILLER_2_112
*1120 FILLER_2_134
*1121 FILLER_2_156
*1122 FILLER_2_178
*1123 FILLER_2_200
*1124 FILLER_2_222
*1125 FILLER_2_244
*1126 FILLER_3_2
*1127 FILLER_3_24
*1128 FILLER_3_46
*1129 FILLER_3_68
*1130 FILLER_3_90
*1131 FILLER_3_104
*1132 FILLER_3_111
*1133 FILLER_3_133
*1134 FILLER_3_144
*1135 FILLER_3_166
*1136 FILLER_3_188
*1137 FILLER_3_210
*1138 FILLER_3_232
*1139 FILLER_3_254
*1140 FILLER_4_2
*1141 FILLER_4_24
*1142 FILLER_4_46
*1143 FILLER_4_68
*1144 FILLER_4_90
*1145 FILLER_4_100
*1146 FILLER_4_108
*1147 FILLER_4_130
*1148 FILLER_4_152
*1149 FILLER_4_174
*1150 FILLER_4_196
*1151 FILLER_4_218
*1152 FILLER_4_240
*1153 FILLER_4_254
*1154 FILLER_5_2
*1155 FILLER_5_24
*1156 FILLER_5_46
*1157 FILLER_5_68
*1158 FILLER_5_90
*1159 FILLER_5_112
*1160 FILLER_5_134
*1161 FILLER_5_143
*1162 FILLER_5_165
*1163 FILLER_5_187
*1164 FILLER_5_209
*1165 FILLER_5_231
*1166 FILLER_5_253
*1167 FILLER_5_257
*1168 FILLER_6_2
*1169 FILLER_6_24
*1170 FILLER_6_46
*1171 FILLER_6_68
*1172 FILLER_6_90
*1173 FILLER_6_112
*1174 FILLER_6_123
*1175 FILLER_6_145
*1176 FILLER_6_167
*1177 FILLER_6_189
*1178 FILLER_6_211
*1179 FILLER_6_233
*1180 FILLER_6_255
*1181 FILLER_6_257
*1182 FILLER_7_2
*1183 FILLER_7_24
*1184 FILLER_7_46
*1185 FILLER_7_68
*1186 FILLER_7_90
*1187 FILLER_7_112
*1188 FILLER_7_134
*1189 FILLER_7_144
*1190 FILLER_7_151
*1191 FILLER_7_173
*1192 FILLER_7_195
*1193 FILLER_7_217
*1194 FILLER_7_239
*1195 FILLER_7_253
*1196 FILLER_7_257
*1197 FILLER_8_2
*1198 FILLER_8_24
*1199 FILLER_8_46
*1200 FILLER_8_68
*1201 FILLER_8_90
*1202 FILLER_8_104
*1203 FILLER_8_110
*1204 FILLER_8_116
*1205 FILLER_8_138
*1206 FILLER_8_160
*1207 FILLER_8_182
*1208 FILLER_8_204
*1209 FILLER_8_226
*1210 FILLER_8_248
*1211 FILLER_9_2
*1212 FILLER_9_24
*1213 FILLER_9_46
*1214 FILLER_9_68
*1215 FILLER_9_90
*1216 FILLER_9_104
*1217 FILLER_9_127
*1218 FILLER_9_147
*1219 FILLER_9_169
*1220 FILLER_9_191
*1221 FILLER_9_213
*1222 FILLER_9_235
*1223 FILLER_9_257
*1224 FILLER_10_2
*1225 FILLER_10_24
*1226 FILLER_10_46
*1227 FILLER_10_68
*1228 FILLER_10_90
*1229 FILLER_10_97
*1230 FILLER_10_131
*1231 FILLER_10_133
*1232 FILLER_10_145
*1233 FILLER_10_167
*1234 FILLER_10_189
*1235 FILLER_10_211
*1236 FILLER_10_233
*1237 FILLER_10_255
*1238 FILLER_10_257
*1239 FILLER_11_2
*1240 FILLER_11_24
*1241 FILLER_11_46
*1242 FILLER_11_68
*1243 FILLER_11_82
*1244 FILLER_11_103
*1245 FILLER_11_113
*1246 FILLER_11_132
*1247 FILLER_11_155
*1248 FILLER_11_177
*1249 FILLER_11_199
*1250 FILLER_11_221
*1251 FILLER_11_243
*1252 FILLER_11_257
*1253 FILLER_12_2
*1254 FILLER_12_24
*1255 FILLER_12_46
*1256 FILLER_12_68
*1257 FILLER_12_74
*1258 FILLER_12_76
*1259 FILLER_12_101
*1260 FILLER_12_103
*1261 FILLER_12_110
*1262 FILLER_12_114
*1263 FILLER_12_121
*1264 FILLER_12_135
*1265 FILLER_12_148
*1266 FILLER_12_158
*1267 FILLER_12_180
*1268 FILLER_12_202
*1269 FILLER_12_224
*1270 FILLER_12_246
*1271 FILLER_12_256
*1272 FILLER_13_2
*1273 FILLER_13_24
*1274 FILLER_13_46
*1275 FILLER_13_68
*1276 FILLER_13_70
*1277 FILLER_13_101
*1278 FILLER_13_114
*1279 FILLER_13_135
*1280 FILLER_13_166
*1281 FILLER_13_170
*1282 FILLER_13_176
*1283 FILLER_13_198
*1284 FILLER_13_220
*1285 FILLER_13_242
*1286 FILLER_13_256
*1287 FILLER_14_2
*1288 FILLER_14_24
*1289 FILLER_14_46
*1290 FILLER_14_60
*1291 FILLER_14_125
*1292 FILLER_14_161
*1293 FILLER_14_188
*1294 FILLER_14_210
*1295 FILLER_14_232
*1296 FILLER_14_254
*1297 FILLER_15_2
*1298 FILLER_15_24
*1299 FILLER_15_46
*1300 FILLER_15_52
*1301 FILLER_15_59
*1302 FILLER_15_170
*1303 FILLER_15_189
*1304 FILLER_15_196
*1305 FILLER_15_218
*1306 FILLER_15_240
*1307 FILLER_15_254
*1308 FILLER_16_2
*1309 FILLER_16_24
*1310 FILLER_16_46
*1311 FILLER_16_52
*1312 FILLER_16_83
*1313 FILLER_16_102
*1314 FILLER_16_115
*1315 FILLER_16_197
*1316 FILLER_16_203
*1317 FILLER_16_225
*1318 FILLER_16_247
*1319 FILLER_16_257
*1320 FILLER_17_2
*1321 FILLER_17_24
*1322 FILLER_17_46
*1323 FILLER_17_95
*1324 FILLER_17_133
*1325 FILLER_17_137
*1326 FILLER_17_150
*1327 FILLER_17_164
*1328 FILLER_17_168
*1329 FILLER_17_205
*1330 FILLER_17_227
*1331 FILLER_17_249
*1332 FILLER_17_255
*1333 FILLER_17_257
*1334 FILLER_18_2
*1335 FILLER_18_24
*1336 FILLER_18_46
*1337 FILLER_18_56
*1338 FILLER_18_115
*1339 FILLER_18_171
*1340 FILLER_18_190
*1341 FILLER_18_217
*1342 FILLER_18_225
*1343 FILLER_18_232
*1344 FILLER_18_254
*1345 FILLER_19_2
*1346 FILLER_19_6
*1347 FILLER_19_12
*1348 FILLER_19_34
*1349 FILLER_19_48
*1350 FILLER_19_54
*1351 FILLER_19_78
*1352 FILLER_19_103
*1353 FILLER_19_110
*1354 FILLER_19_144
*1355 FILLER_19_151
*1356 FILLER_19_163
*1357 FILLER_19_173
*1358 FILLER_19_186
*1359 FILLER_19_219
*1360 FILLER_19_241
*1361 FILLER_19_255
*1362 FILLER_19_257
*1363 FILLER_20_2
*1364 FILLER_20_24
*1365 FILLER_20_46
*1366 FILLER_20_50
*1367 FILLER_20_92
*1368 FILLER_20_113
*1369 FILLER_20_131
*1370 FILLER_20_157
*1371 FILLER_20_163
*1372 FILLER_20_197
*1373 FILLER_20_230
*1374 FILLER_20_252
*1375 FILLER_21_2
*1376 FILLER_21_24
*1377 FILLER_21_34
*1378 FILLER_21_40
*1379 FILLER_21_50
*1380 FILLER_21_57
*1381 FILLER_21_69
*1382 FILLER_21_127
*1383 FILLER_21_213
*1384 FILLER_21_219
*1385 FILLER_21_227
*1386 FILLER_21_236
*1387 FILLER_21_242
*1388 FILLER_21_248
*1389 FILLER_22_2
*1390 FILLER_22_24
*1391 FILLER_22_38
*1392 FILLER_22_74
*1393 FILLER_22_126
*1394 FILLER_22_150
*1395 FILLER_22_169
*1396 FILLER_22_173
*1397 FILLER_22_200
*1398 FILLER_22_222
*1399 FILLER_22_236
*1400 FILLER_22_251
*1401 FILLER_22_257
*1402 FILLER_23_2
*1403 FILLER_23_24
*1404 FILLER_23_38
*1405 FILLER_23_40
*1406 FILLER_23_102
*1407 FILLER_23_131
*1408 FILLER_23_182
*1409 FILLER_23_211
*1410 FILLER_23_235
*1411 FILLER_23_257
*1412 FILLER_24_2
*1413 FILLER_24_24
*1414 FILLER_24_30
*1415 FILLER_24_37
*1416 FILLER_24_49
*1417 FILLER_24_125
*1418 FILLER_24_132
*1419 FILLER_24_142
*1420 FILLER_24_150
*1421 FILLER_24_159
*1422 FILLER_24_174
*1423 FILLER_24_191
*1424 FILLER_24_224
*1425 FILLER_24_230
*1426 FILLER_24_232
*1427 FILLER_24_238
*1428 FILLER_24_252
*1429 FILLER_25_2
*1430 FILLER_25_6
*1431 FILLER_25_12
*1432 FILLER_25_28
*1433 FILLER_25_42
*1434 FILLER_25_97
*1435 FILLER_25_131
*1436 FILLER_25_153
*1437 FILLER_25_159
*1438 FILLER_25_176
*1439 FILLER_25_190
*1440 FILLER_25_221
*1441 FILLER_25_233
*1442 FILLER_25_247
*1443 FILLER_26_2
*1444 FILLER_26_16
*1445 FILLER_26_22
*1446 FILLER_26_28
*1447 FILLER_26_36
*1448 FILLER_26_46
*1449 FILLER_26_123
*1450 FILLER_26_136
*1451 FILLER_26_144
*1452 FILLER_26_153
*1453 FILLER_26_159
*1454 FILLER_26_167
*1455 FILLER_26_192
*1456 FILLER_26_202
*1457 FILLER_26_229
*1458 FILLER_26_235
*1459 FILLER_26_242
*1460 FILLER_26_256
*1461 FILLER_27_2
*1462 FILLER_27_24
*1463 FILLER_27_40
*1464 FILLER_27_137
*1465 FILLER_27_146
*1466 FILLER_27_185
*1467 FILLER_27_235
*1468 FILLER_27_244
*1469 FILLER_27_251
*1470 FILLER_27_257
*1471 FILLER_28_2
*1472 FILLER_28_24
*1473 FILLER_28_46
*1474 FILLER_28_50
*1475 FILLER_28_103
*1476 FILLER_28_141
*1477 FILLER_28_151
*1478 FILLER_28_163
*1479 FILLER_28_167
*1480 FILLER_28_186
*1481 FILLER_28_207
*1482 FILLER_28_228
*1483 FILLER_28_250
*1484 FILLER_28_256
*1485 FILLER_29_2
*1486 FILLER_29_11
*1487 FILLER_29_13
*1488 FILLER_29_19
*1489 FILLER_29_25
*1490 FILLER_29_37
*1491 FILLER_29_47
*1492 FILLER_29_54
*1493 FILLER_29_56
*1494 FILLER_29_94
*1495 FILLER_29_120
*1496 FILLER_29_122
*1497 FILLER_29_130
*1498 FILLER_29_152
*1499 FILLER_29_160
*1500 FILLER_29_169
*1501 FILLER_29_199
*1502 FILLER_29_213
*1503 FILLER_29_220
*1504 FILLER_29_222
*1505 FILLER_29_240
*1506 FILLER_29_255
*1507 FILLER_29_257
*1508 FILLER_30_2
*1509 FILLER_30_24
*1510 FILLER_30_46
*1511 FILLER_30_60
*1512 FILLER_30_64
*1513 FILLER_30_88
*1514 FILLER_30_109
*1515 FILLER_30_139
*1516 FILLER_30_141
*1517 FILLER_30_170
*1518 FILLER_30_193
*1519 FILLER_30_218
*1520 FILLER_30_222
*1521 FILLER_30_229
*1522 FILLER_30_235
*1523 FILLER_30_241
*1524 FILLER_30_255
*1525 FILLER_30_257
*1526 FILLER_31_2
*1527 FILLER_31_24
*1528 FILLER_31_46
*1529 FILLER_31_68
*1530 FILLER_31_117
*1531 FILLER_31_141
*1532 FILLER_31_151
*1533 FILLER_31_230
*1534 FILLER_31_252
*1535 FILLER_32_2
*1536 FILLER_32_24
*1537 FILLER_32_46
*1538 FILLER_32_68
*1539 FILLER_32_82
*1540 FILLER_32_108
*1541 FILLER_32_118
*1542 FILLER_32_120
*1543 FILLER_32_144
*1544 FILLER_32_151
*1545 FILLER_32_161
*1546 FILLER_32_194
*1547 FILLER_32_198
*1548 FILLER_32_205
*1549 FILLER_32_227
*1550 FILLER_32_249
*1551 FILLER_32_255
*1552 FILLER_32_257
*1553 FILLER_33_2
*1554 FILLER_33_24
*1555 FILLER_33_46
*1556 FILLER_33_68
*1557 FILLER_33_90
*1558 FILLER_33_94
*1559 FILLER_33_116
*1560 FILLER_33_122
*1561 FILLER_33_124
*1562 FILLER_33_140
*1563 FILLER_33_150
*1564 FILLER_33_164
*1565 FILLER_33_175
*1566 FILLER_33_197
*1567 FILLER_33_219
*1568 FILLER_33_241
*1569 FILLER_33_255
*1570 FILLER_33_257
*1571 FILLER_34_2
*1572 FILLER_34_24
*1573 FILLER_34_46
*1574 FILLER_34_68
*1575 FILLER_34_90
*1576 FILLER_34_112
*1577 FILLER_34_126
*1578 FILLER_34_128
*1579 FILLER_34_134
*1580 FILLER_34_140
*1581 FILLER_34_147
*1582 FILLER_34_169
*1583 FILLER_34_191
*1584 FILLER_34_213
*1585 FILLER_34_235
*1586 FILLER_34_257
*1587 FILLER_35_2
*1588 FILLER_35_24
*1589 FILLER_35_46
*1590 FILLER_35_68
*1591 FILLER_35_90
*1592 FILLER_35_112
*1593 FILLER_35_134
*1594 FILLER_35_146
*1595 FILLER_35_168
*1596 FILLER_35_190
*1597 FILLER_35_212
*1598 FILLER_35_234
*1599 FILLER_35_256
*1600 FILLER_36_2
*1601 FILLER_36_24
*1602 FILLER_36_46
*1603 FILLER_36_68
*1604 FILLER_36_90
*1605 FILLER_36_112
*1606 FILLER_36_118
*1607 FILLER_36_125
*1608 FILLER_36_147
*1609 FILLER_36_169
*1610 FILLER_36_191
*1611 FILLER_36_213
*1612 FILLER_36_235
*1613 FILLER_36_257
*1614 FILLER_37_2
*1615 FILLER_37_24
*1616 FILLER_37_46
*1617 FILLER_37_68
*1618 FILLER_37_90
*1619 FILLER_37_112
*1620 FILLER_37_134
*1621 FILLER_37_156
*1622 FILLER_37_178
*1623 FILLER_37_200
*1624 FILLER_37_222
*1625 FILLER_37_244
*1626 FILLER_38_2
*1627 FILLER_38_24
*1628 FILLER_38_46
*1629 FILLER_38_68
*1630 FILLER_38_90
*1631 FILLER_38_112
*1632 FILLER_38_134
*1633 FILLER_38_156
*1634 FILLER_38_178
*1635 FILLER_38_200
*1636 FILLER_38_222
*1637 FILLER_38_244
*1638 FILLER_39_2
*1639 FILLER_39_24
*1640 FILLER_39_46
*1641 FILLER_39_68
*1642 FILLER_39_90
*1643 FILLER_39_112
*1644 FILLER_39_134
*1645 FILLER_39_156
*1646 FILLER_39_178
*1647 FILLER_39_200
*1648 FILLER_39_222
*1649 FILLER_39_244
*1650 FILLER_40_2
*1651 FILLER_40_24
*1652 FILLER_40_46
*1653 FILLER_40_68
*1654 FILLER_40_90
*1655 FILLER_40_94
*1656 FILLER_40_101
*1657 FILLER_40_123
*1658 FILLER_40_145
*1659 FILLER_40_167
*1660 FILLER_40_189
*1661 FILLER_40_211
*1662 FILLER_40_233
*1663 FILLER_40_255
*1664 FILLER_40_257
*1665 FILLER_41_2
*1666 FILLER_41_24
*1667 FILLER_41_46
*1668 FILLER_41_68
*1669 FILLER_41_90
*1670 FILLER_41_96
*1671 FILLER_41_98
*1672 FILLER_41_104
*1673 FILLER_41_126
*1674 FILLER_41_148
*1675 FILLER_41_170
*1676 FILLER_41_192
*1677 FILLER_41_214
*1678 FILLER_41_236
*1679 FILLER_42_2
*1680 FILLER_42_24
*1681 FILLER_42_46
*1682 FILLER_42_68
*1683 FILLER_42_90
*1684 FILLER_42_112
*1685 FILLER_42_134
*1686 FILLER_42_156
*1687 FILLER_42_178
*1688 FILLER_42_200
*1689 FILLER_42_222
*1690 FILLER_42_244
*1691 FILLER_43_2
*1692 FILLER_43_24
*1693 FILLER_43_46
*1694 FILLER_43_68
*1695 FILLER_43_90
*1696 FILLER_43_112
*1697 FILLER_43_134
*1698 FILLER_43_156
*1699 FILLER_43_178
*1700 FILLER_43_200
*1701 FILLER_43_222
*1702 FILLER_43_244
*1703 FILLER_44_2
*1704 FILLER_44_24
*1705 FILLER_44_46
*1706 FILLER_44_68
*1707 FILLER_44_90
*1708 FILLER_44_112
*1709 FILLER_44_134
*1710 FILLER_44_156
*1711 FILLER_44_178
*1712 FILLER_44_200
*1713 FILLER_44_222
*1714 FILLER_44_244
*1715 FILLER_45_2
*1716 FILLER_45_24
*1717 FILLER_45_46
*1718 FILLER_45_68
*1719 FILLER_45_90
*1720 FILLER_45_112
*1721 FILLER_45_134
*1722 FILLER_45_156
*1723 FILLER_45_158
*1724 FILLER_45_165
*1725 FILLER_45_187
*1726 FILLER_45_209
*1727 FILLER_45_231
*1728 FILLER_45_253
*1729 FILLER_45_257
*1730 FILLER_46_2
*1731 FILLER_46_24
*1732 FILLER_46_46
*1733 FILLER_46_68
*1734 FILLER_46_90
*1735 FILLER_46_112
*1736 FILLER_46_134
*1737 FILLER_46_156
*1738 FILLER_46_178
*1739 FILLER_46_200
*1740 FILLER_46_222
*1741 FILLER_46_244
*1742 FILLER_47_2
*1743 FILLER_47_24
*1744 FILLER_47_46
*1745 FILLER_47_68
*1746 FILLER_47_90
*1747 FILLER_47_112
*1748 FILLER_47_134
*1749 FILLER_47_156
*1750 FILLER_47_178
*1751 FILLER_47_200
*1752 FILLER_47_222
*1753 FILLER_47_244
*1754 FILLER_48_2
*1755 FILLER_48_24
*1756 FILLER_48_46
*1757 FILLER_48_68
*1758 FILLER_48_90
*1759 FILLER_48_112
*1760 FILLER_48_134
*1761 FILLER_48_156
*1762 FILLER_48_178
*1763 FILLER_48_200
*1764 FILLER_48_222
*1765 FILLER_48_244
*1766 FILLER_49_2
*1767 FILLER_49_24
*1768 FILLER_49_46
*1769 FILLER_49_68
*1770 FILLER_49_90
*1771 FILLER_49_112
*1772 FILLER_49_134
*1773 FILLER_49_156
*1774 FILLER_49_178
*1775 FILLER_49_200
*1776 FILLER_49_222
*1777 FILLER_49_244
*1778 FILLER_50_2
*1779 FILLER_50_24
*1780 FILLER_50_46
*1781 FILLER_50_68
*1782 FILLER_50_90
*1783 FILLER_50_112
*1784 FILLER_50_134
*1785 FILLER_50_156
*1786 FILLER_50_178
*1787 FILLER_50_200
*1788 FILLER_50_222
*1789 FILLER_50_244
*1790 FILLER_51_2
*1791 FILLER_51_24
*1792 FILLER_51_46
*1793 FILLER_51_68
*1794 FILLER_51_90
*1795 FILLER_51_112
*1796 FILLER_51_134
*1797 FILLER_51_144
*1798 FILLER_51_150
*1799 FILLER_51_172
*1800 FILLER_51_194
*1801 FILLER_51_216
*1802 FILLER_51_238
*1803 FILLER_51_252

*PORTS
clk I
req_msg[0] I
req_msg[10] I
req_msg[11] I
req_msg[12] I
req_msg[13] I
req_msg[14] I
req_msg[15] I
req_msg[16] I
req_msg[17] I
req_msg[18] I
req_msg[19] I
req_msg[1] I
req_msg[20] I
req_msg[21] I
req_msg[22] I
req_msg[23] I
req_msg[24] I
req_msg[25] I
req_msg[26] I
req_msg[27] I
req_msg[28] I
req_msg[29] I
req_msg[2] I
req_msg[30] I
req_msg[31] I
req_msg[3] I
req_msg[4] I
req_msg[5] I
req_msg[6] I
req_msg[7] I
req_msg[8] I
req_msg[9] I
req_rdy O
req_val I
reset I
resp_msg[0] O
resp_msg[10] O
resp_msg[11] O
resp_msg[12] O
resp_msg[13] O
resp_msg[14] O
resp_msg[15] O
resp_msg[1] O
resp_msg[2] O
resp_msg[3] O
resp_msg[4] O
resp_msg[5] O
resp_msg[6] O
resp_msg[7] O
resp_msg[8] O
resp_msg[9] O
resp_rdy I
resp_val O

*D_NET *1 0.000143308
*CONN
*I *780:D I *D DFFHQNx1_ASAP7_75t_R
*I *567:Y O *D AO221x1_ASAP7_75t_R
*CAP
1 *780:D 8.29628e-06
2 *567:Y 3.23738e-05
3 *1:8 4.06701e-05
4 *780:D *558:B 0
5 *780:D *378:23 3.51645e-05
6 *780:D *484:12 2.36401e-05
7 *1:8 *1025:A 2.6409e-06
8 *1:8 *144:29 0
9 *1:8 *377:20 5.22376e-07
*RES
1 *567:Y *1:8 46.701 
2 *1:8 *780:D 46.2265 
*END

*D_NET *2 0.000149445
*CONN
*I *781:D I *D DFFHQNx1_ASAP7_75t_R
*I *566:Y O *D OA21x2_ASAP7_75t_R
*CAP
1 *781:D 0
2 *566:Y 1.21136e-05
3 *2:14 5.40806e-05
4 *2:10 6.61943e-05
5 *2:10 *566:A2 2.20493e-06
6 *2:10 *149:8 9.67723e-06
7 *2:10 *150:6 1.07377e-06
8 *2:10 *246:8 4.1009e-06
9 *2:14 *21:23 0
10 *2:14 *292:20 0
*RES
1 *566:Y *2:10 41.5228 
2 *2:10 *2:14 38.0582 
3 *2:14 *781:D 17.2 
*END

*D_NET *3 0.000201923
*CONN
*I *782:D I *D DFFHQNx1_ASAP7_75t_R
*I *557:Y O *D NOR2x1_ASAP7_75t_R
*CAP
1 *782:D 3.27647e-05
2 *557:Y 5.66919e-06
3 *3:12 5.52921e-05
4 *3:8 2.81966e-05
5 *782:D *449:40 0
6 *3:8 *557:B 1.60115e-05
7 *3:12 *1045:A 2.38198e-06
8 *3:12 *20:10 5.49212e-07
9 *3:12 *106:25 6.05082e-06
10 *3:12 *143:10 3.27202e-06
11 *3:12 *461:31 5.1735e-05
*RES
1 *557:Y *3:8 39.2134 
2 *3:8 *3:12 39.7266 
3 *3:12 *782:D 30.5706 
*END

*D_NET *4 5.56532e-05
*CONN
*I *1046:A I *D BUFx6f_ASAP7_75t_R
*I *654:A I *D NAND2x1_ASAP7_75t_R
*I *780:QN O *D DFFHQNx1_ASAP7_75t_R
*CAP
1 *1046:A 6.14365e-06
2 *654:A 0
3 *780:QN 0
4 *4:12 1.55499e-05
5 *4:4 2.16935e-05
6 *1046:A *484:6 0
7 *4:12 *207:8 2.03608e-06
8 *4:12 *213:8 5.52807e-07
9 *4:12 *482:16 9.67723e-06
*RES
1 *780:QN *4:4 17.2 
2 *4:4 *4:12 43.1272 
3 *4:12 *654:A 17.2 
4 *4:4 *1046:A 19.3393 
*END

*D_NET *5 5.31719e-05
*CONN
*I *515:A I *D INVx2_ASAP7_75t_R
*I *1064:A I *D BUFx3_ASAP7_75t_R
*I *799:QN O *D DFFHQNx1_ASAP7_75t_R
*CAP
1 *515:A 0
2 *1064:A 0
3 *799:QN 1.36804e-05
4 *5:12 3.65203e-06
5 *5:6 1.73325e-05
6 *5:6 *300:6 0
7 *5:12 *147:76 1.34329e-05
8 *5:12 *482:52 5.07403e-06
*RES
1 *799:QN *5:6 23.0831 
2 *5:6 *5:12 38.9053 
3 *5:12 *1064:A 17.2 
4 *5:6 *515:A 17.2 
*END

*D_NET *6 2.64089e-05
*CONN
*I *638:A I *D INVx1_ASAP7_75t_R
*I *798:QN O *D DFFHQNx1_ASAP7_75t_R
*CAP
1 *638:A 2.98259e-06
2 *798:QN 4.1694e-06
3 *6:8 7.15199e-06
4 *638:A *1028:A 2.28976e-06
5 *6:8 *230:62 9.81516e-06
*RES
1 *798:QN *6:8 37.779 
2 *6:8 *638:A 36.0045 
*END

*D_NET *7 0.000128246
*CONN
*I *639:A I *D INVx1_ASAP7_75t_R
*I *797:QN O *D DFFHQNx1_ASAP7_75t_R
*CAP
1 *639:A 0
2 *797:QN 2.74763e-06
3 *7:12 4.24569e-05
4 *7:8 4.52045e-05
5 *7:8 *267:8 3.34131e-06
6 *7:8 *431:40 9.81516e-06
7 *7:12 *760:C1 5.19552e-07
8 *7:12 *771:A 2.11931e-05
9 *7:12 *298:6 2.96818e-06
*RES
1 *797:QN *7:8 37.779 
2 *7:8 *7:12 35.9189 
3 *7:12 *639:A 17.2 
*END

*D_NET *8 8.21539e-05
*CONN
*I *640:A I *D INVx1_ASAP7_75t_R
*I *796:QN O *D DFFHQNx1_ASAP7_75t_R
*CAP
1 *640:A 2.82397e-05
2 *796:QN 4.0046e-06
3 *8:8 3.22443e-05
4 *640:A *583:B 3.48165e-06
5 *640:A *772:A 0
6 *640:A *54:14 3.16328e-06
7 *640:A *297:12 1.07377e-06
8 *8:8 *49:23 1.94229e-07
9 *8:8 *427:22 9.75247e-06
*RES
1 *796:QN *8:8 37.779 
2 *8:8 *640:A 46.701 
*END

*D_NET *9 1.58901e-05
*CONN
*I *641:A I *D INVx1_ASAP7_75t_R
*I *795:QN O *D DFFHQNx1_ASAP7_75t_R
*CAP
1 *641:A 5.23782e-06
2 *795:QN 5.23782e-06
3 *641:A *84:22 0
4 *641:A *479:67 5.41446e-06
*RES
1 *795:QN *641:A 37.0741 
*END

*D_NET *10 0.000302606
*CONN
*I *642:A I *D INVx1_ASAP7_75t_R
*I *794:QN O *D DFFHQNx1_ASAP7_75t_R
*CAP
1 *642:A 1.34916e-05
2 *794:QN 4.22531e-05
3 *10:10 4.0305e-05
4 *10:6 6.90665e-05
5 *642:A *295:8 1.45333e-05
6 *642:A *485:127 6.73256e-06
7 *10:6 *53:24 5.2176e-05
8 *10:6 *493:22 8.73959e-06
9 *10:10 *55:25 2.52943e-05
10 *10:10 *57:14 2.98814e-08
11 *10:10 *295:10 9.31457e-06
12 *10:10 *414:8 1.29418e-05
13 *10:10 *485:123 7.72763e-06
*RES
1 *794:QN *10:6 39.1278 
2 *10:6 *10:10 39.7266 
3 *10:10 *642:A 43.492 
*END

*D_NET *11 0.000281051
*CONN
*I *643:A I *D INVx1_ASAP7_75t_R
*I *793:QN O *D DFFHQNx1_ASAP7_75t_R
*CAP
1 *643:A 7.70937e-06
2 *793:QN 1.71303e-05
3 *11:10 8.66596e-05
4 *11:8 9.60805e-05
5 *643:A *294:8 5.17782e-06
6 *11:8 *347:14 1.53057e-06
7 *11:10 *700:A2 2.56143e-05
8 *11:10 *24:24 1.37542e-05
9 *11:10 *59:10 0
10 *11:10 *60:10 6.56292e-06
11 *11:10 *211:24 7.02214e-07
12 *11:10 *245:10 4.80622e-06
13 *11:10 *294:10 2.98814e-07
14 *11:10 *344:31 3.16603e-06
15 *11:10 *492:41 9.97681e-06
16 *11:10 *496:16 0
17 *11:10 *504:48 1.88168e-06
*RES
1 *793:QN *11:8 41.3527 
2 *11:8 *11:10 54.0639 
3 *11:10 *643:A 38.1438 
*END

*D_NET *12 0.000283582
*CONN
*I *644:A I *D INVx1_ASAP7_75t_R
*I *792:QN O *D DFFHQNx1_ASAP7_75t_R
*CAP
1 *644:A 3.61261e-06
2 *792:QN 3.29424e-05
3 *12:10 3.39853e-05
4 *12:8 6.33151e-05
5 *644:A *646:A 0
6 *12:8 *496:14 0
7 *12:10 *291:10 8.84965e-06
8 *12:10 *293:10 5.97629e-08
9 *12:10 *424:38 1.44955e-05
10 *12:10 *464:56 1.31289e-05
11 *12:10 *485:12 2.38942e-05
12 *12:10 *485:16 3.76788e-05
13 *12:10 *496:10 5.16199e-05
*RES
1 *792:QN *12:8 47.7706 
2 *12:8 *12:10 37.169 
3 *12:10 *644:A 36.0045 
*END

*D_NET *13 0.000261215
*CONN
*I *645:A I *D INVx1_ASAP7_75t_R
*I *791:QN O *D DFFHQNx1_ASAP7_75t_R
*CAP
1 *645:A 0
2 *791:QN 1.79715e-05
3 *13:10 4.95275e-05
4 *13:8 6.7499e-05
5 *13:8 *119:43 2.40241e-05
6 *13:10 *21:12 1.09842e-06
7 *13:10 *21:23 2.22736e-06
8 *13:10 *140:33 4.79114e-05
9 *13:10 *142:10 3.62704e-06
10 *13:10 *378:39 1.01678e-06
11 *13:10 *404:16 1.3446e-05
12 *13:10 *404:22 1.71035e-05
13 *13:10 *409:27 1.01637e-07
14 *13:10 *417:18 1.2927e-05
15 *13:10 *449:50 1.49407e-08
16 *13:10 *483:14 2.71921e-06
17 *13:10 *484:305 0
*RES
1 *791:QN *13:8 42.4224 
2 *13:8 *13:10 42.8006 
3 *13:10 *645:A 34.4 
*END

*D_NET *14 0.000558413
*CONN
*I *694:A I *D NAND2x1_ASAP7_75t_R
*I *647:A I *D INVx1_ASAP7_75t_R
*I *789:QN O *D DFFHQNx1_ASAP7_75t_R
*CAP
1 *694:A 0
2 *647:A 0
3 *789:QN 1.24833e-05
4 *14:40 6.31074e-05
5 *14:34 0.000124272
6 *14:30 7.76046e-05
7 *14:22 1.79699e-05
8 *14:18 1.00725e-05
9 *14:10 2.10259e-05
10 *14:10 *147:159 3.16603e-06
11 *14:10 *147:161 5.79724e-07
12 *14:10 *343:14 0
13 *14:10 *461:110 0
14 *14:18 *147:142 1.49407e-08
15 *14:18 *147:159 3.58142e-06
16 *14:18 *241:6 1.04475e-06
17 *14:18 *461:102 2.63006e-07
18 *14:18 *461:110 0
19 *14:22 *147:159 5.0551e-07
20 *14:22 *241:6 5.19475e-06
21 *14:30 *27:41 8.6549e-06
22 *14:30 *27:56 1.89423e-05
23 *14:30 *241:6 1.81703e-05
24 *14:30 *461:102 1.39843e-05
25 *14:34 *805:CLK 4.24552e-06
26 *14:34 *25:10 2.52755e-07
27 *14:34 *25:14 7.69712e-05
28 *14:34 *441:55 6.01313e-06
29 *14:40 *26:10 1.40419e-08
30 *14:40 *27:8 0
31 *14:40 *289:14 5.71928e-06
32 *14:40 *290:6 2.40485e-05
33 *14:40 *290:21 2.10126e-05
34 *14:40 *441:49 1.4697e-05
35 *14:40 *441:55 4.80141e-06
*RES
1 *789:QN *14:10 41.6361 
2 *14:10 *14:18 39.89 
3 *14:18 *14:22 19.3393 
4 *14:22 *14:30 49.8852 
5 *14:30 *14:34 46.6154 
6 *14:34 *14:40 46.3923 
7 *14:40 *647:A 17.2 
8 *14:22 *694:A 17.2 
*END

*D_NET *15 0.000333585
*CONN
*I *1042:A I *D BUFx3_ASAP7_75t_R
*I *648:A I *D INVx1_ASAP7_75t_R
*I *788:QN O *D DFFHQNx1_ASAP7_75t_R
*CAP
1 *1042:A 1.94014e-06
2 *648:A 0
3 *788:QN 0
4 *15:22 2.22167e-05
5 *15:12 3.70813e-05
6 *15:6 7.46497e-05
7 *15:4 6.17252e-05
8 *1042:A *237:16 9.13667e-07
9 *1042:A *342:18 4.24552e-06
10 *15:6 *689:A 1.00654e-05
11 *15:6 *788:CLK 3.85212e-05
12 *15:6 *147:199 2.90209e-08
13 *15:12 *231:18 7.74602e-06
14 *15:12 *237:8 1.65053e-05
15 *15:12 *237:16 9.40315e-07
16 *15:12 *240:10 9.41266e-07
17 *15:12 *480:10 3.04621e-06
18 *15:22 *691:A1 5.90588e-07
19 *15:22 *236:10 1.30125e-05
20 *15:22 *342:18 2.65548e-05
21 *15:22 *411:16 1.28603e-05
*RES
1 *788:QN *15:4 17.2 
2 *15:4 *15:6 37.9726 
3 *15:6 *15:12 46.7897 
4 *15:12 *15:22 48.5322 
5 *15:22 *648:A 17.2 
6 *15:12 *1042:A 18.8045 
*END

*D_NET *16 9.79338e-05
*CONN
*I *649:A I *D INVx1_ASAP7_75t_R
*I *1043:A I *D BUFx3_ASAP7_75t_R
*I *787:QN O *D DFFHQNx1_ASAP7_75t_R
*CAP
1 *649:A 0
2 *1043:A 4.92867e-06
3 *787:QN 2.622e-06
4 *16:10 4.92867e-06
5 *16:8 2.622e-06
6 *1043:A *687:A1 1.5804e-05
7 *1043:A *147:186 7.38746e-06
8 *1043:A *441:20 3.35592e-05
9 *16:8 *434:10 1.30409e-05
10 *16:8 *451:10 1.30409e-05
*RES
1 *787:QN *16:8 38.9053 
2 *16:8 *16:10 17.2 
3 *16:10 *1043:A 27.3617 
4 *16:10 *649:A 17.2 
*END

*D_NET *17 1.43782e-05
*CONN
*I *650:A I *D INVx1_ASAP7_75t_R
*I *786:QN O *D DFFHQNx1_ASAP7_75t_R
*CAP
1 *650:A 5.36344e-06
2 *786:QN 5.36344e-06
3 *650:A *287:8 3.65131e-06
*RES
1 *786:QN *650:A 37.0741 
*END

*D_NET *18 0.000210464
*CONN
*I *651:A I *D INVx1_ASAP7_75t_R
*I *672:A1 I *D AOI22x1_ASAP7_75t_R
*I *785:QN O *D DFFHQNx1_ASAP7_75t_R
*CAP
1 *651:A 2.39019e-05
2 *672:A1 0
3 *785:QN 0
4 *18:25 3.11694e-05
5 *18:10 3.48749e-05
6 *18:4 4.21424e-05
7 *651:A *664:A 4.16292e-05
8 *651:A *216:8 2.61188e-06
9 *18:10 *664:A 3.51548e-06
10 *18:10 *982:A 5.0551e-07
11 *18:10 *147:76 6.72662e-07
12 *18:10 *147:89 5.21026e-06
13 *18:10 *478:25 0
14 *18:10 *482:52 1.64809e-05
15 *18:25 *37:22 7.74933e-06
16 *18:25 *429:8 0
*RES
1 *785:QN *18:4 17.2 
2 *18:4 *18:10 35.1326 
3 *18:10 *672:A1 34.4 
4 *18:4 *18:25 38.8203 
5 *18:25 *651:A 33.2448 
*END

*D_NET *19 0.000353639
*CONN
*I *652:A I *D INVx1_ASAP7_75t_R
*I *784:QN O *D DFFHQNx1_ASAP7_75t_R
*CAP
1 *652:A 3.9114e-06
2 *784:QN 2.32297e-05
3 *19:10 3.63989e-05
4 *19:8 5.57172e-05
5 *652:A *205:22 2.03526e-06
6 *19:8 *139:14 4.97209e-06
7 *19:10 *28:33 1.13081e-05
8 *19:10 *219:8 9.83885e-06
9 *19:10 *339:18 3.92191e-05
10 *19:10 *339:24 5.23493e-05
11 *19:10 *397:31 0.000114659
*RES
1 *784:QN *19:8 43.492 
2 *19:8 *19:10 45.6164 
3 *19:10 *652:A 36.0045 
*END

*D_NET *20 0.000171334
*CONN
*I *560:A I *D INVx1_ASAP7_75t_R
*I *1045:A I *D BUFx3_ASAP7_75t_R
*I *782:QN O *D DFFHQNx1_ASAP7_75t_R
*CAP
1 *560:A 0
2 *1045:A 1.88799e-05
3 *782:QN 1.21154e-05
4 *20:10 2.6459e-05
5 *20:8 1.96945e-05
6 *1045:A *143:10 1.43405e-05
7 *1045:A *378:31 1.29877e-05
8 *1045:A *461:35 6.44983e-06
9 *1045:A *483:8 1.29877e-05
10 *20:8 *449:40 2.03412e-05
11 *20:8 *461:54 5.19552e-07
12 *20:10 *106:25 0
13 *20:10 *143:10 2.36271e-05
14 *3:12 *1045:A 2.38198e-06
15 *3:12 *20:10 5.49212e-07
*RES
1 *782:QN *20:8 42.4224 
2 *20:8 *20:10 7.88432 
3 *20:10 *1045:A 49.6302 
4 *20:10 *560:A 34.4 
*END

*D_NET *21 0.000221262
*CONN
*I *564:B I *D AOI21x1_ASAP7_75t_R
*I *559:A I *D NOR2x1_ASAP7_75t_R
*I *781:QN O *D DFFHQNx1_ASAP7_75t_R
*CAP
1 *564:B 0
2 *559:A 0
3 *781:QN 3.6513e-06
4 *21:31 9.41232e-06
5 *21:23 4.31685e-05
6 *21:12 2.48519e-05
7 *21:8 6.22594e-05
8 *21:8 *449:50 5.0551e-07
9 *21:12 *558:B 2.87185e-05
10 *21:12 *559:B 0
11 *21:12 *144:10 0
12 *21:12 *246:8 0
13 *21:12 *483:14 0
14 *21:12 *483:18 3.95393e-06
15 *21:12 *483:93 7.28898e-06
16 *21:12 *484:35 0
17 *21:23 *449:50 1.06925e-05
18 *21:23 *483:93 5.48826e-06
19 *21:31 *146:14 4.73699e-06
20 *21:31 *292:58 1.29557e-05
21 *21:31 *473:42 2.52755e-07
22 *2:14 *21:23 0
23 *13:10 *21:12 1.09842e-06
24 *13:10 *21:23 2.22736e-06
*RES
1 *781:QN *21:8 36.0045 
2 *21:8 *21:12 38.6003 
3 *21:12 *559:A 17.2 
4 *21:8 *21:23 33.5565 
5 *21:23 *21:31 41.5795 
6 *21:31 *564:B 17.2 
*END

*D_NET *22 0.000782078
*CONN
*I *763:A I *D FAx1_ASAP7_75t_R
*I *1073:A I *D BUFx3_ASAP7_75t_R
*I *569:Y O *D INVx1_ASAP7_75t_R
*CAP
1 *763:A 0
2 *1073:A 0
3 *569:Y 4.94998e-05
4 *22:32 2.21022e-05
5 *22:26 3.42239e-05
6 *22:22 4.03089e-05
7 *22:14 0.000122937
8 *22:12 0.000102939
9 *22:6 5.76891e-05
10 *22:6 *556:B 6.7842e-07
11 *22:6 *410:8 1.66706e-05
12 *22:6 *482:208 2.90209e-08
13 *22:12 *972:A 0
14 *22:12 *106:25 2.29474e-06
15 *22:12 *230:10 2.83874e-07
16 *22:12 *461:56 0
17 *22:14 *140:14 4.28137e-05
18 *22:14 *140:24 4.37815e-05
19 *22:14 *147:47 7.23981e-06
20 *22:14 *208:16 1.10494e-05
21 *22:14 *208:39 8.69247e-06
22 *22:14 *463:16 8.85171e-07
23 *22:14 *463:22 0
24 *22:14 *489:23 8.33889e-05
25 *22:22 *529:A 6.17507e-06
26 *22:22 *65:16 4.94008e-06
27 *22:22 *68:6 5.51397e-07
28 *22:22 *68:29 2.87094e-06
29 *22:22 *430:27 1.88168e-06
30 *22:26 *570:A2 1.12901e-05
31 *22:26 *763:B 6.35292e-07
32 *22:26 *63:8 1.15945e-06
33 *22:26 *416:12 1.90579e-05
34 *22:26 *419:18 2.53954e-05
35 *22:32 *763:B 2.24074e-06
36 *22:32 *63:8 2.22736e-06
37 *22:32 *65:22 1.49407e-08
38 *22:32 *110:14 1.44551e-05
39 *22:32 *419:18 3.71503e-05
40 *22:32 *420:14 4.52385e-06
*RES
1 *569:Y *22:6 35.9189 
2 *22:6 *22:12 39.3746 
3 *22:12 *22:14 40.6903 
4 *22:14 *22:22 46.345 
5 *22:22 *22:26 30.1528 
6 *22:26 *22:32 38.4019 
7 *22:32 *1073:A 17.2 
8 *22:26 *763:A 17.2 
*END

*D_NET *23 0.000294822
*CONN
*I *763:B I *D FAx1_ASAP7_75t_R
*I *646:A I *D INVx1_ASAP7_75t_R
*I *790:QN O *D DFFHQNx1_ASAP7_75t_R
*CAP
1 *763:B 2.24709e-06
2 *646:A 2.72815e-05
3 *790:QN 0
4 *23:27 3.03723e-05
5 *23:10 7.12643e-05
6 *23:4 7.2108e-05
7 *646:A *293:8 1.07377e-06
8 *646:A *420:22 5.41446e-06
9 *763:B *63:8 8.17499e-06
10 *23:10 *67:8 8.02946e-06
11 *23:10 *67:20 5.0041e-06
12 *23:10 *245:10 4.48222e-07
13 *23:10 *293:10 4.13637e-05
14 *23:10 *294:10 2.56731e-06
15 *23:10 *420:22 4.38963e-06
16 *23:10 *464:56 4.63162e-07
17 *23:10 *485:51 0
18 *23:27 *24:7 5.19552e-07
19 *23:27 *24:24 9.49221e-06
20 *23:27 *344:8 0
21 *23:27 *344:21 1.73211e-06
22 *644:A *646:A 0
23 *22:26 *763:B 6.35292e-07
24 *22:32 *763:B 2.24074e-06
*RES
1 *790:QN *23:4 17.2 
2 *23:4 *23:10 45.8895 
3 *23:10 *646:A 46.701 
4 *23:4 *23:27 45.8014 
5 *23:27 *763:B 37.2158 
*END

*D_NET *24 0.000256276
*CONN
*I *521:A I *D INVx1_ASAP7_75t_R
*I *1072:A I *D BUFx3_ASAP7_75t_R
*I *763:CON O *D FAx1_ASAP7_75t_R
*CAP
1 *521:A 0
2 *1072:A 2.00066e-05
3 *763:CON 7.1298e-06
4 *24:24 2.90088e-05
5 *24:7 5.61451e-05
6 *1072:A *245:10 0
7 *1072:A *419:10 3.3921e-06
8 *1072:A *419:16 7.81138e-06
9 *1072:A *424:42 1.95804e-05
10 *24:7 *344:8 9.75645e-07
11 *24:24 *778:A 3.63527e-05
12 *24:24 *79:12 4.4994e-06
13 *24:24 *108:8 2.57557e-05
14 *24:24 *344:21 2.87264e-06
15 *24:24 *424:42 7.0982e-06
16 *24:24 *504:48 1.70708e-06
17 *24:24 *505:8 1.01743e-05
18 *11:10 *24:24 1.37542e-05
19 *23:27 *24:7 5.19552e-07
20 *23:27 *24:24 9.49221e-06
*RES
1 *763:CON *24:7 20.6764 
2 *24:7 *1072:A 49.1804 
3 *24:7 *24:24 47.6073 
4 *24:24 *521:A 17.2 
*END

*D_NET *25 0.000464697
*CONN
*I *1037:A I *D BUFx3_ASAP7_75t_R
*I *764:A I *D HAxp5_ASAP7_75t_R
*I *805:QN O *D DFFHQNx1_ASAP7_75t_R
*CAP
1 *1037:A 6.6985e-06
2 *764:A 0
3 *805:QN 1.18844e-05
4 *25:35 4.57958e-05
5 *25:26 3.94829e-05
6 *25:22 2.23934e-05
7 *25:14 4.19035e-05
8 *25:10 3.17802e-05
9 *1037:A *475:12 6.6195e-06
10 *25:10 *242:6 1.90613e-05
11 *25:10 *438:21 1.15978e-05
12 *25:14 *242:6 2.52755e-06
13 *25:22 *27:33 3.79579e-05
14 *25:22 *28:14 1.07528e-05
15 *25:26 *289:37 2.48762e-06
16 *25:26 *482:115 2.61531e-06
17 *25:35 *28:33 5.61417e-06
18 *25:35 *236:18 1.09067e-06
19 *25:35 *289:37 3.98646e-05
20 *25:35 *342:12 1.80064e-05
21 *25:35 *397:31 0
22 *25:35 *397:48 1.65959e-06
23 *25:35 *465:17 1.25655e-06
24 *25:35 *475:33 1.30795e-06
25 *25:35 *482:115 2.5115e-05
26 *14:34 *25:10 2.52755e-07
27 *14:34 *25:14 7.69712e-05
*RES
1 *805:QN *25:10 43.6904 
2 *25:10 *25:14 39.1278 
3 *25:14 *25:22 44.1187 
4 *25:22 *25:26 18.0447 
5 *25:26 *764:A 34.4 
6 *25:26 *25:35 37.7321 
7 *25:35 *1037:A 39.2134 
*END

*D_NET *26 0.000433332
*CONN
*I *1012:A I *D BUFx3_ASAP7_75t_R
*I *551:B I *D AND4x1_ASAP7_75t_R
*I *764:CON O *D HAxp5_ASAP7_75t_R
*CAP
1 *1012:A 0
2 *551:B 9.45713e-06
3 *764:CON 0
4 *26:35 1.31043e-05
5 *26:27 6.5455e-05
6 *26:23 6.94451e-05
7 *26:10 3.86544e-05
8 *26:4 4.62916e-05
9 *551:B *630:A2 1.29877e-05
10 *551:B *29:6 2.97289e-06
11 *551:B *137:14 1.2768e-05
12 *551:B *447:18 7.79295e-06
13 *551:B *513:8 2.28976e-06
14 *26:10 *129:8 5.82688e-07
15 *26:10 *290:6 3.13426e-06
16 *26:10 *397:31 1.12055e-06
17 *26:10 *486:43 2.74327e-06
18 *26:23 *28:33 1.59639e-05
19 *26:23 *339:18 1.30795e-06
20 *26:23 *339:24 1.23278e-05
21 *26:23 *482:115 4.61397e-05
22 *26:27 *749:C2 5.5871e-07
23 *26:27 *93:10 0
24 *26:27 *274:164 1.36155e-06
25 *26:27 *274:179 9.13667e-07
26 *26:27 *289:22 5.0551e-07
27 *26:27 *450:25 3.0511e-05
28 *26:27 *487:108 4.32473e-06
29 *26:35 *450:6 1.87433e-05
30 *26:35 *482:94 1.09168e-06
31 *26:35 *482:98 1.02895e-05
32 *26:35 *487:98 4.79132e-07
33 *14:40 *26:10 1.40419e-08
*RES
1 *764:CON *26:4 17.2 
2 *26:4 *26:10 33.05 
3 *26:10 *551:B 43.492 
4 *26:4 *26:23 35.7845 
5 *26:23 *26:27 40.1975 
6 *26:27 *26:35 43.7188 
7 *26:35 *1012:A 17.2 
*END

*D_NET *27 0.000644913
*CONN
*I *1062:A I *D BUFx3_ASAP7_75t_R
*I *549:B I *D AO21x1_ASAP7_75t_R
*I *543:A1 I *D OAI21x1_ASAP7_75t_R
*I *764:SN O *D HAxp5_ASAP7_75t_R
*CAP
1 *1062:A 0
2 *549:B 0
3 *543:A1 0
4 *764:SN 1.06744e-05
5 *27:56 1.46821e-05
6 *27:41 2.75014e-05
7 *27:35 4.21835e-05
8 *27:33 6.46753e-05
9 *27:22 1.30203e-05
10 *27:14 3.98814e-05
11 *27:8 0.000102211
12 *27:14 *29:37 2.19737e-05
13 *27:14 *30:10 1.93482e-06
14 *27:14 *138:16 1.13731e-05
15 *27:14 *138:22 7.31605e-06
16 *27:14 *209:22 9.31704e-06
17 *27:14 *236:18 9.7275e-06
18 *27:14 *289:37 5.34941e-06
19 *27:14 *441:63 0
20 *27:14 *450:25 4.545e-05
21 *27:14 *487:112 4.71674e-06
22 *27:22 *543:A2 1.95129e-06
23 *27:22 *137:12 2.19685e-06
24 *27:22 *138:10 6.33206e-07
25 *27:22 *397:31 1.12894e-06
26 *27:22 *450:25 2.11853e-06
27 *27:33 *148:14 5.31103e-06
28 *27:33 *236:18 8.30358e-06
29 *27:33 *289:37 2.97601e-06
30 *27:33 *339:33 0
31 *27:41 *549:A2 2.99506e-05
32 *27:41 *136:10 4.20951e-06
33 *27:41 *339:39 1.04709e-06
34 *27:41 *438:21 4.2004e-05
35 *27:41 *461:85 0
36 *27:41 *482:98 6.49184e-07
37 *27:41 *512:10 1.50228e-06
38 *27:56 *148:14 1.36643e-05
39 *27:56 *242:14 1.49407e-08
40 *27:56 *243:14 8.08537e-06
41 *27:56 *438:21 2.1623e-05
42 *14:30 *27:41 8.6549e-06
43 *14:30 *27:56 1.89423e-05
44 *14:40 *27:8 0
45 *25:22 *27:33 3.79579e-05
*RES
1 *764:SN *27:8 38.1438 
2 *27:8 *27:14 45.7761 
3 *27:14 *27:22 43.0989 
4 *27:22 *543:A1 17.2 
5 *27:8 *27:33 41.3206 
6 *27:33 *27:35 17.2 
7 *27:35 *27:41 44.804 
8 *27:41 *549:B 17.2 
9 *27:35 *27:56 48.5134 
10 *27:56 *1062:A 34.4 
*END

*D_NET *28 0.000418923
*CONN
*I *1027:A I *D BUFx3_ASAP7_75t_R
*I *765:B I *D HAxp5_ASAP7_75t_R
*I *804:QN O *D DFFHQNx1_ASAP7_75t_R
*CAP
1 *1027:A 6.90976e-06
2 *765:B 6.42378e-06
3 *804:QN 4.17817e-05
4 *28:33 3.94371e-05
5 *28:16 3.89512e-05
6 *28:14 3.6352e-05
7 *28:6 7.81337e-05
8 *765:B *29:6 5.51397e-07
9 *1027:A *465:6 1.02506e-06
10 *28:6 *30:41 1.24587e-05
11 *28:14 *30:18 2.94057e-05
12 *28:14 *30:35 3.10001e-05
13 *28:14 *236:24 4.35576e-08
14 *28:14 *339:33 5.8804e-06
15 *28:33 *339:18 3.31231e-05
16 *28:33 *397:31 3.38681e-06
17 *28:33 *482:115 1.04198e-05
18 *19:10 *28:33 1.13081e-05
19 *25:22 *28:14 1.07528e-05
20 *25:35 *28:33 5.61417e-06
21 *26:23 *28:33 1.59639e-05
*RES
1 *804:QN *28:6 35.9189 
2 *28:6 *28:14 49.2271 
3 *28:14 *28:16 17.2 
4 *28:16 *765:B 37.0741 
5 *28:16 *28:33 48.1741 
6 *28:33 *1027:A 20.9438 
*END

*D_NET *29 0.0004864
*CONN
*I *1077:A I *D BUFx3_ASAP7_75t_R
*I *542:B I *D OA21x2_ASAP7_75t_R
*I *551:A I *D AND4x1_ASAP7_75t_R
*I *1078:A I *D BUFx3_ASAP7_75t_R
*I *765:CON O *D HAxp5_ASAP7_75t_R
*CAP
1 *1077:A 0
2 *542:B 0
3 *551:A 0
4 *1078:A 8.06292e-06
5 *765:CON 0
6 *29:45 4.31703e-05
7 *29:37 5.49697e-05
8 *29:26 7.00998e-06
9 *29:8 9.83981e-06
10 *29:6 4.01202e-05
11 *29:4 4.31328e-05
12 *1078:A *630:A2 4.07069e-05
13 *1078:A *421:24 4.07069e-05
14 *29:6 *630:A2 1.29877e-05
15 *29:6 *137:14 1.10364e-05
16 *29:6 *138:10 1.96943e-05
17 *29:6 *421:58 7.58545e-06
18 *29:8 *630:A2 7.58545e-06
19 *29:8 *421:24 1.95129e-06
20 *29:8 *421:58 5.62196e-06
21 *29:26 *205:10 2.89264e-05
22 *29:26 *421:18 2.89264e-05
23 *29:37 *209:22 3.65803e-06
24 *29:37 *482:115 1.15945e-06
25 *29:45 *40:14 2.07597e-06
26 *29:45 *209:14 2.06978e-05
27 *29:45 *482:111 2.12755e-05
28 *551:B *29:6 2.97289e-06
29 *765:B *29:6 5.51397e-07
30 *27:14 *29:37 2.19737e-05
*RES
1 *765:CON *29:4 17.2 
2 *29:4 *29:6 21.9278 
3 *29:6 *29:8 2.1393 
4 *29:8 *1078:A 28.9662 
5 *29:8 *551:A 17.2 
6 *29:6 *29:26 44.537 
7 *29:26 *542:B 17.2 
8 *29:4 *29:37 43.3168 
9 *29:37 *29:45 49.1255 
10 *29:45 *1077:A 17.2 
*END

*D_NET *30 0.000423115
*CONN
*I *1000:A I *D BUFx3_ASAP7_75t_R
*I *542:A1 I *D OA21x2_ASAP7_75t_R
*I *765:SN O *D HAxp5_ASAP7_75t_R
*CAP
1 *1000:A 1.47114e-05
2 *542:A1 7.36835e-06
3 *765:SN 2.7627e-06
4 *30:41 4.84354e-05
5 *30:35 4.31202e-05
6 *30:18 5.14244e-05
7 *30:12 5.34522e-05
8 *30:10 2.7627e-06
9 *1000:A *512:10 8.87763e-06
10 *30:10 *236:24 1.36155e-06
11 *30:18 *128:33 1.95023e-05
12 *30:18 *339:14 0
13 *30:18 *339:33 3.27988e-05
14 *30:18 *421:18 1.91437e-05
15 *30:18 *486:41 7.77172e-06
16 *30:35 *339:33 2.91366e-05
17 *30:41 *549:A2 0
18 *30:41 *236:24 5.68629e-06
19 *30:41 *438:21 0
20 *27:14 *30:10 1.93482e-06
21 *28:6 *30:41 1.24587e-05
22 *28:14 *30:18 2.94057e-05
23 *28:14 *30:35 3.10001e-05
*RES
1 *765:SN *30:10 36.1267 
2 *30:10 *30:12 17.2 
3 *30:12 *30:18 40.0683 
4 *30:18 *542:A1 37.609 
5 *30:12 *30:35 40.6844 
6 *30:35 *30:41 38.4549 
7 *30:41 *1000:A 43.492 
*END

*D_NET *31 0.000258837
*CONN
*I *1013:A I *D BUFx3_ASAP7_75t_R
*I *766:A I *D HAxp5_ASAP7_75t_R
*I *803:QN O *D DFFHQNx1_ASAP7_75t_R
*CAP
1 *1013:A 1.52199e-05
2 *766:A 0
3 *803:QN 3.39335e-05
4 *31:22 2.50563e-05
5 *31:16 4.02762e-05
6 *31:14 2.46661e-05
7 *31:8 5.85996e-05
8 *1013:A *434:6 5.25794e-06
9 *1013:A *434:10 1.35961e-06
10 *31:8 *788:CLK 0
11 *31:14 *788:CLK 5.94108e-06
12 *31:14 *803:D 3.13426e-06
13 *31:14 *441:10 1.00103e-06
14 *31:14 *441:14 1.36537e-05
15 *31:14 *441:20 3.65131e-06
16 *31:14 *475:33 0
17 *31:22 *92:8 0
18 *31:22 *212:20 0
19 *31:22 *274:214 3.52137e-06
20 *31:22 *280:12 0
21 *31:22 *288:27 1.61136e-05
22 *31:22 *421:8 7.58265e-07
23 *31:22 *434:10 1.19526e-07
24 *31:22 *465:6 5.41446e-06
25 *31:22 *482:179 1.15945e-06
26 *31:22 *487:139 0
*RES
1 *803:QN *31:8 48.8403 
2 *31:8 *31:14 37.7217 
3 *31:14 *31:16 17.2 
4 *31:16 *31:22 35.1363 
5 *31:22 *766:A 17.2 
6 *31:16 *1013:A 44.9018 
*END

*D_NET *32 0.000254315
*CONN
*I *1009:A I *D BUFx3_ASAP7_75t_R
*I *541:B I *D OA21x2_ASAP7_75t_R
*I *766:CON O *D HAxp5_ASAP7_75t_R
*CAP
1 *1009:A 0
2 *541:B 0
3 *766:CON 5.97907e-06
4 *32:26 9.77514e-06
5 *32:18 2.78793e-05
6 *32:12 3.73445e-05
7 *32:8 2.52194e-05
8 *32:8 *451:25 9.30483e-06
9 *32:8 *465:6 2.66797e-07
10 *32:12 *132:10 0
11 *32:12 *211:166 0
12 *32:12 *434:12 2.98814e-07
13 *32:12 *447:40 1.20049e-05
14 *32:12 *451:16 1.55085e-05
15 *32:18 *200:12 2.35875e-06
16 *32:18 *202:14 3.41722e-05
17 *32:18 *204:22 4.79735e-05
18 *32:18 *447:10 4.74168e-08
19 *32:18 *447:12 4.62686e-06
20 *32:18 *447:18 2.16283e-06
21 *32:18 *447:40 5.25164e-06
22 *32:18 *448:14 2.03526e-06
23 *32:26 *128:12 3.62704e-06
24 *32:26 *202:14 8.47826e-06
*RES
1 *766:CON *32:8 38.1438 
2 *32:8 *32:12 34.6581 
3 *32:12 *32:18 40.2048 
4 *32:18 *32:26 39.89 
5 *32:26 *541:B 34.4 
6 *32:12 *1009:A 17.2 
*END

*D_NET *33 7.57944e-06
*CONN
*I *974:A I *D BUFx3_ASAP7_75t_R
*I *766:SN O *D HAxp5_ASAP7_75t_R
*CAP
1 *974:A 1.21846e-06
2 *766:SN 1.21846e-06
3 *974:A *421:8 2.0895e-06
4 *974:A *465:6 3.05302e-06
*RES
1 *766:SN *974:A 36.5393 
*END

*D_NET *34 0.000483586
*CONN
*I *767:B I *D HAxp5_ASAP7_75t_R
*I *546:A I *D AND4x1_ASAP7_75t_R
*I *673:A I *D INVx1_ASAP7_75t_R
*I *802:QN O *D DFFHQNx1_ASAP7_75t_R
*CAP
1 *767:B 6.13806e-06
2 *546:A 0
3 *673:A 0
4 *802:QN 6.11531e-06
5 *34:39 1.62308e-05
6 *34:31 8.20183e-05
7 *34:27 7.95138e-05
8 *34:18 1.71934e-05
9 *34:14 3.28315e-05
10 *34:10 2.93417e-05
11 *767:B *767:A 1.30791e-05
12 *767:B *511:10 1.1894e-05
13 *34:10 *140:12 2.84374e-06
14 *34:10 *337:25 7.35354e-06
15 *34:10 *337:29 1.12838e-05
16 *34:10 *491:14 3.55626e-07
17 *34:14 *71:12 4.5682e-05
18 *34:18 *445:8 7.3486e-06
19 *34:18 *511:10 3.71391e-05
20 *34:27 *767:A 1.01934e-05
21 *34:27 *287:14 8.02718e-06
22 *34:27 *445:8 5.49212e-07
23 *34:27 *511:10 2.80285e-05
24 *34:31 *211:134 5.19552e-07
25 *34:31 *287:8 4.26607e-06
26 *34:31 *300:31 4.92332e-06
27 *34:39 *206:10 4.74961e-06
28 *34:39 *215:8 1.02506e-06
29 *34:39 *449:14 1.49417e-05
*RES
1 *802:QN *34:10 40.4815 
2 *34:10 *34:14 33.7796 
3 *34:14 *34:18 29.5897 
4 *34:18 *673:A 34.4 
5 *34:18 *34:27 10.137 
6 *34:27 *34:31 42.3368 
7 *34:31 *34:39 45.8864 
8 *34:39 *546:A 17.2 
9 *34:27 *767:B 40.5098 
*END

*D_NET *35 0.000573246
*CONN
*I *550:A1 I *D AO21x1_ASAP7_75t_R
*I *541:A1 I *D OA21x2_ASAP7_75t_R
*I *1008:A I *D BUFx3_ASAP7_75t_R
*I *767:CON O *D HAxp5_ASAP7_75t_R
*CAP
1 *550:A1 1.04533e-05
2 *541:A1 0
3 *1008:A 2.36037e-05
4 *767:CON 3.74156e-06
5 *35:36 3.93538e-05
6 *35:25 3.83369e-05
7 *35:10 8.58764e-05
8 *35:6 5.65779e-05
9 *550:A1 *550:A2 3.65131e-06
10 *550:A1 *666:C 2.72798e-05
11 *550:A1 *491:56 3.44136e-05
12 *1008:A *41:18 1.04611e-05
13 *1008:A *338:14 2.35164e-06
14 *1008:A *338:20 1.02484e-05
15 *35:10 *553:A 3.58184e-05
16 *35:10 *36:10 1.13321e-05
17 *35:10 *38:31 7.51332e-07
18 *35:10 *211:134 1.20637e-05
19 *35:10 *211:145 4.1837e-05
20 *35:10 *402:8 2.98814e-08
21 *35:10 *436:55 0
22 *35:25 *632:B 6.7842e-07
23 *35:25 *41:18 4.94226e-06
24 *35:25 *121:10 1.01999e-05
25 *35:25 *184:31 1.76563e-06
26 *35:25 *186:29 5.67747e-07
27 *35:25 *201:8 1.27782e-06
28 *35:25 *211:166 0
29 *35:25 *444:10 4.7643e-07
30 *35:36 *994:A 9.59239e-06
31 *35:36 *36:25 5.31082e-06
32 *35:36 *38:31 0
33 *35:36 *449:10 1.46538e-05
34 *35:36 *449:12 8.19887e-06
35 *35:36 *449:122 2.4382e-05
36 *35:36 *491:33 4.30184e-05
*RES
1 *767:CON *35:6 18.8045 
2 *35:6 *35:10 41.9793 
3 *35:10 *1008:A 48.8403 
4 *35:10 *35:25 42.1457 
5 *35:25 *541:A1 17.2 
6 *35:6 *35:36 45.8328 
7 *35:36 *550:A1 46.701 
*END

*D_NET *36 0.000506028
*CONN
*I *550:A2 I *D AO21x1_ASAP7_75t_R
*I *998:A I *D BUFx3_ASAP7_75t_R
*I *767:SN O *D HAxp5_ASAP7_75t_R
*CAP
1 *550:A2 6.15735e-06
2 *998:A 4.11096e-06
3 *767:SN 0
4 *36:33 3.4774e-05
5 *36:25 7.63087e-05
6 *36:10 4.80265e-05
7 *36:8 4.98181e-05
8 *36:4 5.35946e-05
9 *550:A2 *550:B 1.24124e-05
10 *550:A2 *218:8 3.24655e-06
11 *998:A *1007:A 5.41446e-06
12 *998:A *1053:A 1.32196e-05
13 *36:10 *38:41 6.86425e-06
14 *36:10 *71:8 6.25017e-06
15 *36:10 *211:134 1.13245e-05
16 *36:10 *278:8 1.86945e-05
17 *36:10 *402:8 1.01951e-05
18 *36:10 *436:8 3.10767e-06
19 *36:10 *463:182 1.94317e-06
20 *36:10 *482:28 9.85151e-06
21 *36:10 *487:26 4.72697e-05
22 *36:25 *667:A1 0
23 *36:25 *785:CLK 5.62196e-06
24 *36:25 *994:A 0
25 *36:25 *133:22 3.05118e-08
26 *36:25 *449:10 1.2903e-05
27 *36:25 *449:122 1.47929e-05
28 *36:25 *463:207 0
29 *36:33 *667:A1 1.18487e-05
30 *36:33 *667:A2 2.20493e-06
31 *36:33 *133:22 2.11853e-06
32 *36:33 *139:22 0
33 *36:33 *285:34 1.17709e-05
34 *36:33 *449:8 2.66797e-07
35 *36:33 *491:56 1.59139e-06
36 *550:A1 *550:A2 3.65131e-06
37 *35:10 *36:10 1.13321e-05
38 *35:36 *36:25 5.31082e-06
*RES
1 *767:SN *36:4 17.2 
2 *36:4 *36:8 18.8045 
3 *36:8 *36:10 45.0533 
4 *36:10 *998:A 38.1438 
5 *36:4 *36:25 40.6509 
6 *36:25 *36:33 49.1804 
7 *36:33 *550:A2 39.7482 
*END

*D_NET *37 0.000522813
*CONN
*I *768:B I *D HAxp5_ASAP7_75t_R
*I *1039:A I *D BUFx3_ASAP7_75t_R
*I *801:QN O *D DFFHQNx1_ASAP7_75t_R
*CAP
1 *768:B 0
2 *1039:A 0
3 *801:QN 4.65901e-05
4 *37:47 5.93023e-05
5 *37:41 6.77591e-05
6 *37:30 9.84544e-06
7 *37:22 3.29642e-05
8 *37:14 5.94176e-05
9 *37:6 7.44321e-05
10 *37:6 *273:16 0
11 *37:6 *461:83 1.99018e-05
12 *37:14 *147:89 4.99165e-05
13 *37:14 *220:16 1.30867e-05
14 *37:14 *273:24 0
15 *37:14 *286:8 5.15195e-07
16 *37:14 *340:12 0
17 *37:22 *147:89 8.94645e-06
18 *37:22 *214:12 0
19 *37:22 *274:122 0
20 *37:22 *478:31 3.05118e-08
21 *37:30 *671:C 1.04206e-05
22 *37:30 *214:12 4.26751e-07
23 *37:30 *220:16 0
24 *37:30 *220:20 1.85565e-05
25 *37:41 *216:16 3.05118e-08
26 *37:47 *745:A1 3.65131e-06
27 *37:47 *745:A2 2.52755e-07
28 *37:47 *745:B1 1.44167e-06
29 *37:47 *745:C1 2.741e-06
30 *37:47 *38:8 6.72662e-07
31 *37:47 *216:16 2.4974e-06
32 *37:47 *219:8 2.98252e-05
33 *37:47 *279:22 2.72334e-07
34 *37:47 *286:35 1.56713e-06
35 *37:47 *482:52 0
36 *37:47 *482:67 0
37 *18:25 *37:22 7.74933e-06
*RES
1 *801:QN *37:6 39.1278 
2 *37:6 *37:14 47.8731 
3 *37:14 *37:22 47.301 
4 *37:22 *37:30 42.0293 
5 *37:30 *1039:A 17.2 
6 *37:14 *37:41 38.9992 
7 *37:41 *37:47 49.2648 
8 *37:47 *768:B 34.4 
*END

*D_NET *38 0.000742231
*CONN
*I *1007:A I *D BUFx3_ASAP7_75t_R
*I *534:B I *D AND2x2_ASAP7_75t_R
*I *768:CON O *D HAxp5_ASAP7_75t_R
*CAP
1 *1007:A 1.31516e-05
2 *534:B 2.32111e-06
3 *768:CON 9.90235e-06
4 *38:41 3.79229e-05
5 *38:37 3.70234e-05
6 *38:31 4.8487e-05
7 *38:29 3.62349e-05
8 *38:20 2.00494e-05
9 *38:12 4.62189e-05
10 *38:8 3.8393e-05
11 *534:B *41:18 1.61096e-06
12 *1007:A *1053:A 1.35736e-05
13 *38:8 *219:8 3.3903e-06
14 *38:12 *39:12 9.50783e-05
15 *38:12 *338:39 3.21007e-05
16 *38:20 *666:B2 5.50505e-06
17 *38:20 *41:12 2.71368e-06
18 *38:20 *41:18 1.35684e-06
19 *38:20 *211:157 1.3988e-05
20 *38:20 *449:122 6.0726e-07
21 *38:31 *133:30 8.37888e-06
22 *38:31 *140:12 5.05114e-06
23 *38:31 *211:145 1.04442e-06
24 *38:31 *211:149 1.54613e-05
25 *38:31 *211:157 2.31409e-07
26 *38:31 *214:22 6.53364e-07
27 *38:31 *337:12 1.7023e-05
28 *38:31 *340:8 2.03413e-06
29 *38:31 *436:8 8.11309e-05
30 *38:31 *449:122 0
31 *38:31 *491:33 0
32 *38:37 *140:14 0
33 *38:37 *461:60 1.09094e-05
34 *38:41 *278:8 2.18349e-05
35 *38:41 *402:8 5.69513e-05
36 *38:41 *445:8 7.17155e-07
37 *38:41 *487:26 4.74778e-05
38 *998:A *1007:A 5.41446e-06
39 *35:10 *38:31 7.51332e-07
40 *35:36 *38:31 0
41 *36:10 *38:41 6.86425e-06
42 *37:47 *38:8 6.72662e-07
*RES
1 *768:CON *38:8 40.8764 
2 *38:8 *38:12 33.8657 
3 *38:12 *38:20 43.3238 
4 *38:20 *534:B 18.2696 
5 *38:20 *38:29 17.2 
6 *38:29 *38:31 36.5119 
7 *38:31 *38:37 39.3781 
8 *38:37 *38:41 47.1417 
9 *38:41 *1007:A 28.4313 
*END

*D_NET *39 0.000785787
*CONN
*I *997:A I *D BUFx3_ASAP7_75t_R
*I *527:A I *D INVx1_ASAP7_75t_R
*I *768:SN O *D HAxp5_ASAP7_75t_R
*CAP
1 *997:A 0
2 *527:A 0
3 *768:SN 1.40765e-06
4 *39:30 9.27111e-05
5 *39:28 9.27111e-05
6 *39:26 2.46624e-05
7 *39:20 3.8953e-05
8 *39:12 8.60073e-05
9 *39:10 7.17167e-05
10 *39:8 1.40765e-06
11 *39:12 *216:33 0.000107352
12 *39:12 *338:39 5.87569e-06
13 *39:12 *340:12 8.35254e-06
14 *39:12 *486:15 0
15 *39:20 *677:A 2.90665e-05
16 *39:20 *228:12 5.13209e-07
17 *39:20 *435:8 6.36702e-07
18 *39:20 *436:42 7.71341e-06
19 *39:26 *677:A 2.27019e-05
20 *39:26 *677:B 6.02341e-06
21 *39:26 *274:12 0
22 *39:26 *274:16 3.56648e-06
23 *39:26 *274:18 4.57497e-06
24 *39:26 *461:151 0
25 *39:26 *462:52 0
26 *39:30 *1049:A 4.69758e-05
27 *39:30 *131:24 2.40241e-05
28 *39:30 *185:25 1.11142e-05
29 *39:30 *211:122 0
30 *39:30 *409:16 2.6409e-06
31 *38:12 *39:12 9.50783e-05
*RES
1 *768:SN *39:8 35.057 
2 *39:8 *39:10 17.2 
3 *39:10 *39:12 35.4958 
4 *39:12 *39:20 45.1443 
5 *39:20 *39:26 34.1197 
6 *39:26 *39:28 17.2 
7 *39:28 *39:30 40.1119 
8 *39:30 *527:A 17.2 
9 *39:20 *997:A 17.2 
*END

*D_NET *40 0.000445886
*CONN
*I *769:A I *D HAxp5_ASAP7_75t_R
*I *1040:A I *D BUFx3_ASAP7_75t_R
*I *800:QN O *D DFFHQNx1_ASAP7_75t_R
*CAP
1 *769:A 8.07179e-06
2 *1040:A 0
3 *800:QN 2.55458e-05
4 *40:22 3.19075e-05
5 *40:16 3.99793e-05
6 *40:14 8.71906e-05
7 *40:10 0.000112736
8 *769:A *137:12 8.45554e-07
9 *769:A *397:31 1.49407e-08
10 *40:10 *136:10 1.02642e-06
11 *40:10 *482:94 0
12 *40:10 *512:10 9.22361e-06
13 *40:14 *136:18 5.87541e-05
14 *40:14 *482:86 6.81579e-06
15 *40:22 *73:8 3.3043e-05
16 *40:22 *137:12 1.4426e-05
17 *40:22 *139:18 2.19685e-06
18 *40:22 *219:8 2.80715e-06
19 *40:22 *397:31 8.30021e-08
20 *40:22 *478:10 9.14205e-06
21 *29:45 *40:14 2.07597e-06
*RES
1 *800:QN *40:10 47.3227 
2 *40:10 *40:14 44.2547 
3 *40:14 *40:16 17.2 
4 *40:16 *40:22 44.9917 
5 *40:22 *1040:A 17.2 
6 *40:16 *769:A 38.482 
*END

*D_NET *41 0.000247463
*CONN
*I *534:A I *D AND2x2_ASAP7_75t_R
*I *1006:A I *D BUFx3_ASAP7_75t_R
*I *769:CON O *D HAxp5_ASAP7_75t_R
*CAP
1 *534:A 0
2 *1006:A 0
3 *769:CON 6.05917e-06
4 *41:18 1.91264e-05
5 *41:12 4.53501e-05
6 *41:8 3.22829e-05
7 *41:8 *137:12 5.2641e-06
8 *41:8 *421:62 2.31692e-05
9 *41:12 *784:D 7.42565e-06
10 *41:12 *130:14 3.12984e-06
11 *41:12 *211:157 6.19506e-06
12 *41:12 *338:20 1.23579e-05
13 *41:12 *449:122 6.07405e-06
14 *41:18 *121:10 1.03619e-05
15 *41:18 *130:20 2.76514e-06
16 *41:18 *211:157 7.79295e-06
17 *41:18 *338:20 3.68595e-05
18 *41:18 *436:55 1.02525e-06
19 *41:18 *444:10 1.13965e-06
20 *534:B *41:18 1.61096e-06
21 *1008:A *41:18 1.04611e-05
22 *35:25 *41:18 4.94226e-06
23 *38:20 *41:12 2.71368e-06
24 *38:20 *41:18 1.35684e-06
*RES
1 *769:CON *41:8 42.2843 
2 *41:8 *41:12 35.384 
3 *41:12 *41:18 34.7112 
4 *41:18 *1006:A 34.4 
5 *41:12 *534:A 17.2 
*END

*D_NET *42 0.000399213
*CONN
*I *982:A I *D BUFx3_ASAP7_75t_R
*I *769:SN O *D HAxp5_ASAP7_75t_R
*CAP
1 *982:A 1.04713e-05
2 *769:SN 5.04158e-05
3 *42:10 4.59675e-05
4 *42:8 3.54963e-05
5 *42:6 5.04158e-05
6 *982:A *664:A 2.26183e-05
7 *982:A *478:25 5.85387e-06
8 *42:6 *552:A1 1.3659e-05
9 *42:6 *668:B 3.3921e-06
10 *42:6 *138:22 5.98994e-07
11 *42:6 *339:24 2.64633e-06
12 *42:10 *216:16 0
13 *42:10 *216:18 0
14 *42:10 *274:122 1.94552e-05
15 *42:10 *274:133 3.38911e-05
16 *42:10 *274:158 9.43723e-06
17 *42:10 *274:164 4.10451e-05
18 *42:10 *279:22 0
19 *42:10 *285:57 6.26512e-06
20 *42:10 *441:63 3.47203e-05
21 *42:10 *478:31 4.83862e-06
22 *42:10 *482:78 2.1714e-06
23 *42:10 *487:66 1.00899e-06
24 *42:10 *487:85 4.33916e-06
25 *42:10 *487:98 0
26 *18:10 *982:A 5.0551e-07
*RES
1 *769:SN *42:6 35.9189 
2 *42:6 *42:8 17.2 
3 *42:8 *42:10 35.4795 
4 *42:10 *982:A 41.3527 
*END

*D_NET *43 0.000147964
*CONN
*I *1028:A I *D BUFx3_ASAP7_75t_R
*I *770:B I *D HAxp5_ASAP7_75t_R
*I *814:QN O *D DFFHQNx1_ASAP7_75t_R
*CAP
1 *1028:A 9.74861e-06
2 *770:B 0
3 *814:QN 0
4 *43:10 1.40881e-05
5 *43:4 2.38367e-05
6 *1028:A *230:47 2.01337e-05
7 *1028:A *230:51 3.68287e-06
8 *1028:A *299:25 1.07377e-06
9 *1028:A *439:14 1.35684e-06
10 *43:10 *230:47 2.05045e-06
11 *43:10 *230:51 7.35354e-06
12 *43:10 *299:12 0
13 *43:10 *408:14 9.64911e-06
14 *43:10 *439:10 3.875e-06
15 *43:10 *463:141 4.88258e-05
16 *638:A *1028:A 2.28976e-06
*RES
1 *814:QN *43:4 17.2 
2 *43:4 *43:10 35.6711 
3 *43:10 *770:B 34.4 
4 *43:4 *1028:A 25.7572 
*END

*D_NET *44 0.000342357
*CONN
*I *608:A2 I *D OA21x2_ASAP7_75t_R
*I *537:B I *D OA21x2_ASAP7_75t_R
*I *770:CON O *D HAxp5_ASAP7_75t_R
*CAP
1 *608:A2 0
2 *537:B 0
3 *770:CON 7.24546e-06
4 *44:35 1.1945e-05
5 *44:18 3.95291e-05
6 *44:12 7.5673e-05
7 *44:8 3.14443e-05
8 *44:8 *617:B 2.03526e-06
9 *44:8 *45:10 5.19552e-07
10 *44:12 *621:A 1.29228e-05
11 *44:12 *230:39 3.05118e-08
12 *44:12 *274:234 0
13 *44:12 *415:8 3.79923e-06
14 *44:12 *415:16 7.99798e-05
15 *44:12 *437:39 1.35953e-05
16 *44:12 *461:151 0
17 *44:18 *603:B 9.9223e-06
18 *44:18 *124:12 2.88806e-06
19 *44:18 *433:56 5.62196e-06
20 *44:18 *463:133 8.45637e-06
21 *44:18 *506:121 8.71771e-06
22 *44:35 *415:8 8.19503e-06
23 *44:35 *433:56 1.73158e-06
24 *44:35 *433:67 1.4939e-05
25 *44:35 *461:151 3.16603e-06
*RES
1 *770:CON *44:8 38.1438 
2 *44:8 *44:12 47.0478 
3 *44:12 *44:18 37.6651 
4 *44:18 *537:B 34.4 
5 *44:12 *44:35 42.0293 
6 *44:35 *608:A2 17.2 
*END

*D_NET *45 5.03212e-05
*CONN
*I *993:A I *D BUFx3_ASAP7_75t_R
*I *770:SN O *D HAxp5_ASAP7_75t_R
*CAP
1 *993:A 0
2 *770:SN 1.73424e-05
3 *45:10 1.73424e-05
4 *45:10 *617:B 6.7842e-07
5 *45:10 *299:12 1.308e-05
6 *45:10 *408:14 1.35839e-06
7 *44:8 *45:10 5.19552e-07
*RES
1 *770:SN *45:10 43.7188 
2 *45:10 *993:A 34.4 
*END

*D_NET *46 0.000153416
*CONN
*I *771:B I *D HAxp5_ASAP7_75t_R
*I *1029:A I *D BUFx3_ASAP7_75t_R
*I *813:QN O *D DFFHQNx1_ASAP7_75t_R
*CAP
1 *771:B 0
2 *1029:A 0
3 *813:QN 1.58339e-05
4 *46:25 1.51073e-05
5 *46:12 3.3713e-05
6 *46:8 3.44395e-05
7 *46:8 *479:132 0
8 *46:12 *267:8 5.24059e-07
9 *46:12 *268:12 0
10 *46:12 *425:49 7.2538e-06
11 *46:12 *467:46 1.12894e-06
12 *46:25 *159:8 1.89747e-06
13 *46:25 *431:46 1.47781e-05
14 *46:25 *467:10 1.34329e-05
15 *46:25 *467:46 1.53071e-05
*RES
1 *813:QN *46:8 40.2831 
2 *46:8 *46:12 30.1528 
3 *46:12 *1029:A 17.2 
4 *46:12 *46:25 48.2241 
5 *46:25 *771:B 17.2 
*END

*D_NET *47 0.000348465
*CONN
*I *597:B I *D OA21x2_ASAP7_75t_R
*I *537:A2 I *D OA21x2_ASAP7_75t_R
*I *771:CON O *D HAxp5_ASAP7_75t_R
*CAP
1 *597:B 1.76996e-06
2 *537:A2 0
3 *771:CON 0
4 *47:36 1.36173e-05
5 *47:28 2.01063e-05
6 *47:20 4.53539e-05
7 *47:14 4.06348e-05
8 *47:12 3.47133e-05
9 *47:6 3.47133e-05
10 *597:B *179:8 2.65491e-06
11 *597:B *439:28 8.43525e-06
12 *47:12 *597:A2 3.90258e-06
13 *47:12 *607:B 2.41172e-05
14 *47:12 *727:A2 3.32579e-06
15 *47:12 *160:27 4.35576e-08
16 *47:12 *166:12 5.19552e-07
17 *47:12 *166:20 2.48948e-06
18 *47:12 *179:8 2.31565e-05
19 *47:12 *266:14 1.60455e-05
20 *47:12 *274:250 1.2849e-06
21 *47:12 *416:62 0
22 *47:12 *443:60 3.05118e-08
23 *47:12 *462:112 3.05118e-08
24 *47:20 *598:A 9.25306e-06
25 *47:20 *598:B 1.04475e-06
26 *47:20 *598:C 1.40419e-08
27 *47:20 *179:8 5.52652e-06
28 *47:20 *439:28 1.31716e-05
29 *47:20 *502:14 5.77141e-06
30 *47:28 *172:17 8.06436e-06
31 *47:28 *173:10 6.7842e-07
32 *47:28 *432:21 8.45637e-06
33 *47:36 *537:A1 1.08167e-05
34 *47:36 *172:17 8.45637e-06
35 *47:36 *173:10 2.66797e-07
*RES
1 *771:CON *47:6 34.4 
2 *47:6 *47:12 46.8494 
3 *47:12 *47:14 17.2 
4 *47:14 *47:20 36.1456 
5 *47:20 *47:28 39.89 
6 *47:28 *47:36 44.7034 
7 *47:36 *537:A2 17.2 
8 *47:14 *597:B 37.2158 
*END

*D_NET *48 0.000799005
*CONN
*I *535:B I *D OR2x2_ASAP7_75t_R
*I *990:A I *D BUFx3_ASAP7_75t_R
*I *771:SN O *D HAxp5_ASAP7_75t_R
*CAP
1 *535:B 0
2 *990:A 7.88532e-06
3 *771:SN 9.01852e-06
4 *48:18 5.11236e-05
5 *48:16 4.62694e-05
6 *48:12 3.03112e-06
7 *48:10 6.23379e-05
8 *48:8 7.13564e-05
9 *990:A *113:16 4.15535e-06
10 *990:A *274:34 2.6427e-05
11 *990:A *489:14 1.17077e-05
12 *48:10 *727:A2 4.53819e-06
13 *48:10 *115:43 2.24447e-05
14 *48:10 *116:43 5.98612e-07
15 *48:10 *139:109 8.23647e-06
16 *48:10 *171:10 1.30795e-06
17 *48:10 *171:18 3.25086e-05
18 *48:10 *179:16 1.11752e-05
19 *48:10 *274:250 2.96691e-05
20 *48:10 *439:28 5.42239e-05
21 *48:10 *439:34 3.36949e-05
22 *48:10 *439:40 3.85478e-05
23 *48:10 *439:51 7.17998e-06
24 *48:10 *439:57 6.33206e-07
25 *48:10 *488:24 2.80709e-06
26 *48:10 *510:10 3.88254e-06
27 *48:16 *1075:A 2.03526e-06
28 *48:18 *704:C 2.92479e-05
29 *48:18 *116:18 4.83862e-06
30 *48:18 *116:41 1.93451e-05
31 *48:18 *116:43 2.9617e-06
32 *48:18 *247:18 6.10104e-05
33 *48:18 *292:70 1.91841e-05
34 *48:18 *428:8 2.03755e-05
35 *48:18 *429:28 2.9793e-05
36 *48:18 *433:8 4.0698e-06
37 *48:18 *439:57 1.30417e-06
38 *48:18 *464:172 6.10236e-08
39 *48:18 *464:180 8.33296e-06
40 *48:18 *488:8 5.49212e-07
41 *48:18 *488:20 5.11351e-05
*RES
1 *771:SN *48:8 38.1438 
2 *48:8 *48:10 67.0168 
3 *48:10 *48:12 17.2 
4 *48:12 *48:16 18.8045 
5 *48:16 *48:18 58.5693 
6 *48:18 *990:A 41.8876 
7 *48:12 *535:B 17.2 
*END

*D_NET *49 0.000151271
*CONN
*I *772:B I *D HAxp5_ASAP7_75t_R
*I *1030:A I *D BUFx3_ASAP7_75t_R
*I *812:QN O *D DFFHQNx1_ASAP7_75t_R
*CAP
1 *772:B 0
2 *1030:A 0
3 *812:QN 0
4 *49:23 3.97938e-05
5 *49:10 2.41296e-05
6 *49:4 6.39235e-05
7 *49:10 *479:100 3.29986e-06
8 *49:23 *86:10 0
9 *49:23 *282:14 2.77657e-06
10 *49:23 *297:18 0
11 *49:23 *351:45 0
12 *49:23 *360:22 1.27834e-05
13 *49:23 *427:22 0
14 *49:23 *427:26 4.57677e-07
15 *49:23 *459:12 2.39622e-06
16 *49:23 *479:100 1.51653e-06
17 *8:8 *49:23 1.94229e-07
*RES
1 *812:QN *49:4 17.2 
2 *49:4 *49:10 34.233 
3 *49:10 *1030:A 34.4 
4 *49:4 *49:23 43.4704 
5 *49:23 *772:B 34.4 
*END

*D_NET *50 0.000427678
*CONN
*I *536:B I *D OA21x2_ASAP7_75t_R
*I *1005:A I *D BUFx3_ASAP7_75t_R
*I *772:CON O *D HAxp5_ASAP7_75t_R
*CAP
1 *536:B 2.45851e-06
2 *1005:A 0
3 *772:CON 1.22425e-05
4 *50:20 3.10636e-05
5 *50:16 5.14832e-05
6 *50:10 2.2878e-05
7 *50:8 1.22425e-05
8 *536:B *418:37 2.03526e-06
9 *50:8 *351:45 5.97901e-06
10 *50:8 *427:26 1.40947e-05
11 *50:8 *467:24 5.88556e-06
12 *50:8 *468:31 6.10236e-08
13 *50:8 *469:39 3.17029e-06
14 *50:8 *474:19 2.58775e-05
15 *50:16 *536:A2 1.35684e-06
16 *50:16 *418:37 2.03526e-06
17 *50:16 *427:26 2.32356e-05
18 *50:16 *427:30 5.01042e-05
19 *50:16 *427:65 1.63749e-05
20 *50:16 *474:19 1.3059e-05
21 *50:16 *496:16 1.97422e-05
22 *50:20 *589:A 6.49184e-07
23 *50:20 *589:B 3.90258e-06
24 *50:20 *59:16 3.55315e-05
25 *50:20 *82:8 1.3988e-05
26 *50:20 *418:16 5.19561e-05
27 *50:20 *427:37 6.49184e-07
28 *50:20 *443:10 5.62196e-06
*RES
1 *772:CON *50:8 49.6055 
2 *50:8 *50:10 17.2 
3 *50:10 *50:16 43.5838 
4 *50:16 *50:20 42.3368 
5 *50:20 *1005:A 17.2 
6 *50:10 *536:B 18.8045 
*END

*D_NET *51 0.000256637
*CONN
*I *989:A I *D BUFx3_ASAP7_75t_R
*I *772:SN O *D HAxp5_ASAP7_75t_R
*CAP
1 *989:A 0
2 *772:SN 0
3 *51:20 1.44907e-05
4 *51:12 4.42175e-05
5 *51:6 2.97268e-05
6 *51:12 *350:33 1.02359e-06
7 *51:12 *427:12 5.04802e-05
8 *51:12 *468:29 1.04475e-06
9 *51:12 *468:31 6.49851e-05
10 *51:12 *509:10 0
11 *51:20 *102:10 2.36401e-05
12 *51:20 *282:14 2.38942e-05
13 *51:20 *468:23 3.13426e-06
*RES
1 *772:SN *51:6 34.4 
2 *51:6 *51:12 45.6097 
3 *51:12 *51:20 48.1674 
4 *51:20 *989:A 17.2 
*END

*D_NET *52 0.000255812
*CONN
*I *773:A I *D HAxp5_ASAP7_75t_R
*I *1031:A I *D BUFx3_ASAP7_75t_R
*I *811:QN O *D DFFHQNx1_ASAP7_75t_R
*CAP
1 *773:A 4.15277e-06
2 *1031:A 2.04925e-05
3 *811:QN 2.59204e-05
4 *52:22 2.73699e-05
5 *52:16 4.59152e-05
6 *52:10 6.9111e-05
7 *1031:A *794:CLK 4.26607e-06
8 *1031:A *794:D 8.06588e-06
9 *1031:A *256:25 1.56713e-06
10 *52:10 *721:A2 0
11 *52:10 *773:B 2.19685e-06
12 *52:10 *259:29 0
13 *52:10 *296:37 1.02506e-06
14 *52:16 *55:33 5.17782e-06
15 *52:16 *56:10 3.05118e-08
16 *52:16 *57:14 1.46562e-05
17 *52:16 *259:29 0
18 *52:16 *479:6 0
19 *52:16 *486:95 0
20 *52:16 *493:14 3.56648e-06
21 *52:22 *463:74 2.45085e-06
22 *52:22 *493:20 6.23081e-06
23 *52:22 *506:18 1.36162e-05
*RES
1 *811:QN *52:10 49.2937 
2 *52:10 *52:16 37.442 
3 *52:16 *52:22 41.158 
4 *52:22 *1031:A 30.5706 
5 *52:10 *773:A 36.0045 
*END

*D_NET *53 0.000604413
*CONN
*I *536:A1 I *D OA21x2_ASAP7_75t_R
*I *1004:A I *D BUFx3_ASAP7_75t_R
*I *773:CON O *D HAxp5_ASAP7_75t_R
*CAP
1 *536:A1 4.43229e-06
2 *1004:A 0
3 *773:CON 1.77817e-05
4 *53:36 1.33016e-05
5 *53:28 8.77908e-05
6 *53:24 9.93246e-05
7 *53:18 3.20872e-05
8 *53:12 2.16376e-05
9 *53:8 2.77352e-05
10 *536:A1 *418:37 0
11 *53:8 *56:10 0
12 *53:8 *418:31 6.24449e-06
13 *53:8 *442:52 0
14 *53:8 *486:95 0
15 *53:18 *418:31 2.2401e-05
16 *53:18 *442:52 8.193e-06
17 *53:24 *586:A 1.97351e-05
18 *53:24 *793:D 2.98961e-07
19 *53:24 *57:14 1.57104e-05
20 *53:24 *412:45 7.90414e-06
21 *53:24 *414:8 2.08535e-06
22 *53:24 *493:22 5.24079e-05
23 *53:28 *211:30 4.9535e-06
24 *53:28 *295:18 9.54755e-07
25 *53:28 *347:26 2.4979e-06
26 *53:28 *442:14 2.09971e-05
27 *53:28 *455:14 9.37165e-06
28 *53:28 *455:37 3.51397e-05
29 *53:36 *347:40 7.63844e-07
30 *53:36 *370:6 3.56596e-05
31 *53:36 *442:8 2.8275e-06
32 *53:36 *464:88 0
33 *10:6 *53:24 5.2176e-05
*RES
1 *773:CON *53:8 46.7897 
2 *53:8 *53:12 20.9438 
3 *53:12 *53:18 42.2843 
4 *53:18 *53:24 48.197 
5 *53:24 *53:28 42.3068 
6 *53:28 *53:36 44.8999 
7 *53:36 *1004:A 17.2 
8 *53:12 *536:A1 19.3393 
*END

*D_NET *54 0.000167471
*CONN
*I *985:A I *D BUFx3_ASAP7_75t_R
*I *773:SN O *D HAxp5_ASAP7_75t_R
*CAP
1 *985:A 1.78328e-05
2 *773:SN 8.37574e-06
3 *54:14 3.82885e-05
4 *54:8 2.88314e-05
5 *985:A *583:A1 7.58265e-07
6 *985:A *583:B 1.60115e-05
7 *985:A *160:8 8.65792e-06
8 *985:A *431:25 6.53466e-06
9 *985:A *468:31 3.05118e-08
10 *54:8 *773:B 0
11 *54:8 *442:52 1.62854e-06
12 *54:14 *583:A1 1.48346e-06
13 *54:14 *583:B 3.58744e-05
14 *640:A *54:14 3.16328e-06
*RES
1 *773:SN *54:8 40.0317 
2 *54:8 *54:14 48.8403 
3 *54:14 *985:A 48.4472 
*END

*D_NET *55 0.000507433
*CONN
*I *774:A I *D HAxp5_ASAP7_75t_R
*I *1032:A I *D BUFx3_ASAP7_75t_R
*I *810:QN O *D DFFHQNx1_ASAP7_75t_R
*CAP
1 *774:A 0
2 *1032:A 8.48286e-06
3 *810:QN 0
4 *55:33 7.89519e-06
5 *55:25 4.48243e-05
6 *55:10 6.88208e-05
7 *55:8 6.99447e-05
8 *55:4 4.65358e-05
9 *1032:A *291:14 2.81464e-05
10 *1032:A *472:6 9.16351e-06
11 *55:10 *58:12 3.54756e-05
12 *55:10 *97:8 1.30409e-05
13 *55:10 *211:30 5.85981e-06
14 *55:10 *250:10 3.05118e-08
15 *55:10 *255:10 3.58038e-05
16 *55:10 *294:26 2.04037e-06
17 *55:10 *295:18 2.30528e-06
18 *55:10 *463:65 1.12997e-05
19 *55:10 *463:74 9.80968e-07
20 *55:10 *470:10 5.18443e-06
21 *55:10 *470:37 7.49254e-06
22 *55:10 *470:43 0
23 *55:10 *472:14 7.98637e-06
24 *55:10 *472:29 0
25 *55:10 *492:58 0
26 *55:10 *492:71 0
27 *55:25 *57:14 0
28 *55:25 *295:10 3.28943e-06
29 *55:25 *295:39 5.43729e-05
30 *55:25 *442:22 2.50424e-06
31 *55:33 *57:14 2.48948e-06
32 *55:33 *295:39 8.72649e-07
33 *55:33 *479:6 2.11853e-06
34 *10:10 *55:25 2.52943e-05
35 *52:16 *55:33 5.17782e-06
*RES
1 *810:QN *55:4 17.2 
2 *55:4 *55:8 20.9438 
3 *55:8 *55:10 56.3166 
4 *55:10 *1032:A 42.4224 
5 *55:4 *55:25 43.8635 
6 *55:25 *55:33 40.9596 
7 *55:33 *774:A 34.4 
*END

*D_NET *56 0.000532197
*CONN
*I *583:A2 I *D OA21x2_ASAP7_75t_R
*I *525:B I *D OA21x2_ASAP7_75t_R
*I *774:CON O *D HAxp5_ASAP7_75t_R
*CAP
1 *583:A2 0
2 *525:B 0
3 *774:CON 9.74689e-06
4 *56:49 1.65416e-05
5 *56:38 8.80213e-06
6 *56:30 5.36031e-05
7 *56:24 6.13425e-05
8 *56:22 1.67861e-05
9 *56:14 6.54302e-05
10 *56:10 5.8391e-05
11 *56:10 *57:8 1.04475e-06
12 *56:10 *57:14 1.49407e-08
13 *56:10 *412:45 1.93482e-06
14 *56:10 *418:31 0
15 *56:10 *486:95 1.9502e-06
16 *56:14 *427:65 9.75645e-06
17 *56:14 *493:22 1.26633e-05
18 *56:22 *134:8 1.66587e-05
19 *56:22 *418:37 5.51397e-07
20 *56:22 *474:19 7.24542e-06
21 *56:30 *588:A 2.4974e-06
22 *56:30 *983:A 3.06888e-05
23 *56:30 *162:6 3.04311e-07
24 *56:30 *211:76 1.69693e-06
25 *56:30 *349:12 3.36448e-05
26 *56:30 *351:18 3.69698e-06
27 *56:30 *351:26 2.28253e-05
28 *56:30 *417:36 7.9884e-06
29 *56:30 *430:16 4.07212e-06
30 *56:38 *111:21 2.4974e-06
31 *56:38 *158:16 0
32 *56:38 *164:10 0
33 *56:38 *168:10 6.26715e-06
34 *56:38 *427:37 2.741e-06
35 *56:49 *583:A1 3.89037e-06
36 *56:49 *583:B 1.36155e-06
37 *56:49 *211:76 2.33013e-06
38 *56:49 *349:12 2.67982e-05
39 *56:49 *351:26 2.13763e-05
40 *56:49 *351:43 1.4294e-05
41 *56:49 *431:8 7.32095e-07
42 *56:49 *468:31 0
43 *52:16 *56:10 3.05118e-08
44 *53:8 *56:10 0
*RES
1 *774:CON *56:10 40.5098 
2 *56:10 *56:14 38.0582 
3 *56:14 *56:22 45.9147 
4 *56:22 *56:24 17.2 
5 *56:24 *56:30 49.2118 
6 *56:30 *56:38 41.6361 
7 *56:38 *525:B 17.2 
8 *56:24 *56:49 34.6015 
9 *56:49 *583:A2 17.2 
*END

*D_NET *57 0.000207523
*CONN
*I *1060:A I *D BUFx3_ASAP7_75t_R
*I *774:SN O *D HAxp5_ASAP7_75t_R
*CAP
1 *1060:A 0
2 *774:SN 6.51756e-06
3 *57:14 3.05934e-05
4 *57:8 3.71109e-05
5 *57:8 *479:6 1.81825e-05
6 *57:14 *348:6 3.91987e-05
7 *57:14 *412:45 2.94789e-06
8 *57:14 *442:22 3.9027e-05
9 *10:10 *57:14 2.98814e-08
10 *52:16 *57:14 1.46562e-05
11 *53:24 *57:14 1.57104e-05
12 *55:25 *57:14 0
13 *55:33 *57:14 2.48948e-06
14 *56:10 *57:8 1.04475e-06
15 *56:10 *57:14 1.49407e-08
*RES
1 *774:SN *57:8 39.7482 
2 *57:8 *57:14 44.8198 
3 *57:14 *1060:A 17.2 
*END

*D_NET *58 0.000317911
*CONN
*I *775:B I *D HAxp5_ASAP7_75t_R
*I *1033:A I *D BUFx3_ASAP7_75t_R
*I *809:QN O *D DFFHQNx1_ASAP7_75t_R
*CAP
1 *775:B 8.89397e-06
2 *1033:A 0
3 *809:QN 0
4 *58:25 1.65636e-05
5 *58:12 2.6817e-05
6 *58:8 4.63467e-05
7 *58:4 2.71994e-05
8 *775:B *1061:A 2.03526e-06
9 *775:B *470:45 4.50106e-05
10 *775:B *471:33 3.41939e-05
11 *58:8 *294:26 0
12 *58:8 *470:45 1.02506e-06
13 *58:12 *250:10 5.1946e-05
14 *58:12 *463:34 1.18996e-06
15 *58:12 *463:49 1.98924e-06
16 *58:25 *1061:A 1.95129e-06
17 *58:25 *414:8 6.72009e-06
18 *58:25 *414:10 4.83862e-06
19 *58:25 *470:45 5.19552e-07
20 *58:25 *485:112 5.19498e-06
21 *55:10 *58:12 3.54756e-05
*RES
1 *809:QN *58:4 17.2 
2 *58:4 *58:8 25.2224 
3 *58:8 *58:12 47.0478 
4 *58:12 *1033:A 17.2 
5 *58:4 *58:25 41.0163 
6 *58:25 *775:B 30.5706 
*END

*D_NET *59 0.000215281
*CONN
*I *524:B I *D OA21x2_ASAP7_75t_R
*I *775:CON O *D HAxp5_ASAP7_75t_R
*CAP
1 *524:B 0
2 *775:CON 0
3 *59:16 5.54769e-05
4 *59:10 8.36915e-05
5 *59:6 2.82146e-05
6 *59:10 *115:18 2.76514e-06
7 *59:10 *211:24 0
8 *59:10 *412:8 0
9 *59:10 *412:16 0
10 *59:10 *412:30 0
11 *59:10 *412:45 0
12 *59:10 *418:10 3.44292e-07
13 *59:10 *418:31 1.49407e-08
14 *59:16 *165:10 5.85387e-06
15 *59:16 *351:18 1.92222e-06
16 *59:16 *416:18 2.83874e-07
17 *59:16 *427:37 1.18174e-06
18 *59:16 *428:47 0
19 *11:10 *59:10 0
20 *50:20 *59:16 3.55315e-05
*RES
1 *775:CON *59:6 34.4 
2 *59:6 *59:10 34.6581 
3 *59:10 *59:16 39.8044 
4 *59:16 *524:B 34.4 
*END

*D_NET *60 0.000427114
*CONN
*I *986:A I *D BUFx3_ASAP7_75t_R
*I *775:SN O *D HAxp5_ASAP7_75t_R
*CAP
1 *986:A 0
2 *775:SN 0
3 *60:16 9.21205e-05
4 *60:10 0.000128699
5 *60:6 3.65782e-05
6 *60:10 *700:A2 8.21772e-06
7 *60:10 *108:14 1.93393e-05
8 *60:10 *344:21 2.98961e-07
9 *60:10 *474:19 4.83199e-06
10 *60:10 *492:41 2.70055e-06
11 *60:10 *496:16 1.43807e-05
12 *60:16 *147:16 1.00899e-06
13 *60:16 *147:47 0
14 *60:16 *157:16 0
15 *60:16 *274:70 0
16 *60:16 *293:22 0
17 *60:16 *424:18 4.62226e-06
18 *60:16 *424:66 0
19 *60:16 *484:121 2.61531e-06
20 *60:16 *489:23 0.000105138
21 *11:10 *60:10 6.56292e-06
*RES
1 *775:SN *60:6 34.4 
2 *60:6 *60:10 47.3294 
3 *60:10 *60:16 49.6447 
4 *60:16 *986:A 34.4 
*END

*D_NET *61 0.000424595
*CONN
*I *776:B I *D HAxp5_ASAP7_75t_R
*I *1034:A I *D BUFx3_ASAP7_75t_R
*I *808:QN O *D DFFHQNx1_ASAP7_75t_R
*CAP
1 *776:B 1.54615e-05
2 *1034:A 0
3 *808:QN 0
4 *61:31 2.98893e-05
5 *61:20 3.19959e-05
6 *61:14 9.62695e-05
7 *61:10 6.76845e-05
8 *61:4 1.78388e-05
9 *776:B *776:A 8.06588e-06
10 *776:B *1047:A 5.46999e-06
11 *776:B *485:10 5.17782e-06
12 *776:B *486:75 1.19199e-05
13 *61:10 *157:22 1.87942e-05
14 *61:10 *485:12 5.33743e-06
15 *61:10 *485:16 1.908e-06
16 *61:14 *808:D 0
17 *61:14 *291:20 2.11853e-06
18 *61:20 *291:20 1.9076e-06
19 *61:20 *453:10 1.99307e-05
20 *61:20 *472:6 2.11853e-06
21 *61:20 *484:108 1.27208e-05
22 *61:31 *157:22 2.53282e-06
23 *61:31 *294:10 0
24 *61:31 *471:29 3.28775e-05
25 *61:31 *485:10 1.81393e-05
26 *61:31 *485:12 1.64364e-05
*RES
1 *808:QN *61:4 17.2 
2 *61:4 *61:10 40.5948 
3 *61:10 *61:14 43.4064 
4 *61:14 *61:20 40.5376 
5 *61:20 *1034:A 17.2 
6 *61:4 *61:31 32.8836 
7 *61:31 *776:B 49.9099 
*END

*D_NET *62 0.000218168
*CONN
*I *524:A2 I *D OA21x2_ASAP7_75t_R
*I *573:B I *D OA21x2_ASAP7_75t_R
*I *776:CON O *D HAxp5_ASAP7_75t_R
*CAP
1 *524:A2 0
2 *573:B 9.68585e-06
3 *776:CON 2.20577e-05
4 *62:25 2.52069e-05
5 *62:8 5.69504e-05
6 *573:B *573:A2 2.71368e-06
7 *573:B *351:14 4.41457e-06
8 *573:B *424:70 2.68933e-07
9 *62:8 *573:A1 1.40419e-08
10 *62:8 *351:14 5.41446e-06
11 *62:25 *110:18 1.10561e-06
12 *62:25 *134:16 1.96892e-05
13 *62:25 *153:16 1.91724e-06
14 *62:25 *351:18 6.48268e-05
15 *62:25 *416:18 0
16 *62:25 *424:78 0
17 *62:25 *427:37 3.90258e-06
*RES
1 *776:CON *62:8 45.6313 
2 *62:8 *573:B 40.9029 
3 *62:8 *62:25 41.9226 
4 *62:25 *524:A2 17.2 
*END

*D_NET *63 0.000438427
*CONN
*I *984:A I *D BUFx3_ASAP7_75t_R
*I *776:SN O *D HAxp5_ASAP7_75t_R
*CAP
1 *984:A 9.43157e-06
2 *776:SN 0
3 *63:8 6.48407e-05
4 *63:6 5.54091e-05
5 *984:A *379:8 2.03526e-06
6 *984:A *464:33 2.4256e-05
7 *63:8 *573:A1 2.10524e-05
8 *63:8 *978:A 4.33594e-06
9 *63:8 *110:14 4.73333e-05
10 *63:8 *152:12 1.43778e-05
11 *63:8 *301:16 3.59323e-06
12 *63:8 *301:25 8.14784e-05
13 *63:8 *346:37 3.58577e-07
14 *63:8 *351:14 0
15 *63:8 *416:12 1.57037e-06
16 *63:8 *420:14 0
17 *63:8 *422:10 4.95795e-06
18 *63:8 *422:25 1.5753e-05
19 *63:8 *422:33 6.63524e-05
20 *63:8 *424:70 8.86227e-06
21 *63:8 *474:19 3.05118e-08
22 *63:8 *508:8 8.3668e-07
23 *763:B *63:8 8.17499e-06
24 *22:26 *63:8 1.15945e-06
25 *22:32 *63:8 2.22736e-06
*RES
1 *776:SN *63:6 34.4 
2 *63:6 *63:8 67.0168 
3 *63:8 *984:A 41.3527 
*END

*D_NET *64 0.000491543
*CONN
*I *777:A I *D HAxp5_ASAP7_75t_R
*I *1035:A I *D BUFx3_ASAP7_75t_R
*I *807:QN O *D DFFHQNx1_ASAP7_75t_R
*CAP
1 *777:A 7.03208e-06
2 *1035:A 5.59768e-06
3 *807:QN 3.92312e-05
4 *64:18 2.95685e-05
5 *64:16 3.88286e-05
6 *64:8 2.18898e-05
7 *64:6 3.92312e-05
8 *777:A *66:12 6.76763e-07
9 *777:A *156:8 1.48961e-05
10 *777:A *504:20 1.30219e-05
11 *777:A *504:26 2.03526e-06
12 *64:6 *485:66 1.32074e-05
13 *64:6 *485:83 1.32074e-05
14 *64:6 *504:20 2.40241e-05
15 *64:16 *66:12 4.37228e-06
16 *64:16 *156:8 1.47929e-05
17 *64:16 *485:66 1.07377e-06
18 *64:18 *66:12 6.21131e-05
19 *64:18 *107:10 0.000100844
20 *64:18 *334:10 3.81559e-05
21 *64:18 *345:27 4.03283e-06
22 *64:18 *492:12 3.70967e-06
*RES
1 *807:QN *64:6 38.0582 
2 *64:6 *64:8 17.2 
3 *64:8 *64:16 43.2123 
4 *64:16 *64:18 38.2953 
5 *64:18 *1035:A 37.0741 
6 *64:8 *777:A 41.6361 
*END

*D_NET *65 0.000565647
*CONN
*I *522:B I *D OA21x2_ASAP7_75t_R
*I *571:B I *D OA21x2_ASAP7_75t_R
*I *575:B I *D OA211x2_ASAP7_75t_R
*I *577:A1 I *D AO21x1_ASAP7_75t_R
*I *777:CON O *D HAxp5_ASAP7_75t_R
*CAP
1 *522:B 0
2 *571:B 1.45776e-05
3 *575:B 0
4 *577:A1 3.0163e-05
5 *777:CON 4.13373e-06
6 *65:61 6.5098e-06
7 *65:44 2.55688e-05
8 *65:22 6.02699e-05
9 *65:16 5.6014e-05
10 *65:10 4.39222e-05
11 *65:6 1.76674e-05
12 *571:B *571:A1 1.97474e-05
13 *571:B *152:6 6.78535e-06
14 *571:B *430:27 2.55638e-05
15 *577:A1 *464:33 1.121e-05
16 *65:6 *116:8 1.84067e-05
17 *65:6 *504:26 1.63444e-05
18 *65:10 *116:8 1.04206e-05
19 *65:10 *504:26 1.45042e-05
20 *65:16 *68:29 1.55702e-06
21 *65:16 *154:14 0
22 *65:16 *430:27 4.16542e-06
23 *65:16 *485:51 1.56765e-06
24 *65:16 *504:26 4.99118e-06
25 *65:22 *575:A1 1.35684e-06
26 *65:22 *110:18 2.98441e-05
27 *65:22 *419:18 1.67815e-06
28 *65:22 *420:14 1.42054e-05
29 *65:22 *484:68 8.89295e-06
30 *65:22 *485:51 2.66797e-07
31 *65:22 *492:18 4.55293e-06
32 *65:22 *505:20 4.68739e-05
33 *65:44 *108:14 1.30071e-05
34 *65:44 *151:10 3.57357e-06
35 *65:44 *430:27 8.68417e-06
36 *65:44 *504:26 1.31716e-05
37 *65:61 *154:14 1.952e-05
38 *65:61 *504:26 9.74162e-07
39 *22:22 *65:16 4.94008e-06
40 *22:32 *65:22 1.49407e-08
*RES
1 *777:CON *65:6 22.0134 
2 *65:6 *65:10 22.0134 
3 *65:10 *65:16 34.4031 
4 *65:16 *65:22 49.7219 
5 *65:22 *577:A1 46.701 
6 *65:16 *575:B 17.2 
7 *65:10 *65:44 46.0281 
8 *65:44 *571:B 48.2241 
9 *65:6 *65:61 41.158 
10 *65:61 *522:B 17.2 
*END

*D_NET *66 0.0001924
*CONN
*I *1069:A I *D BUFx3_ASAP7_75t_R
*I *777:SN O *D HAxp5_ASAP7_75t_R
*CAP
1 *1069:A 0
2 *777:SN 0
3 *66:12 3.25732e-05
4 *66:6 3.25732e-05
5 *66:12 *156:8 2.53742e-06
6 *66:12 *274:42 2.98961e-07
7 *66:12 *345:27 1.12894e-06
8 *66:12 *484:48 3.56177e-06
9 *66:12 *485:72 1.58904e-05
10 *66:12 *492:12 2.68586e-05
11 *66:12 *504:20 9.81516e-06
12 *777:A *66:12 6.76763e-07
13 *64:16 *66:12 4.37228e-06
14 *64:18 *66:12 6.21131e-05
*RES
1 *777:SN *66:6 34.4 
2 *66:6 *66:12 49.7219 
3 *66:12 *1069:A 17.2 
*END

*D_NET *67 0.000148311
*CONN
*I *1036:A I *D BUFx3_ASAP7_75t_R
*I *514:A I *D INVx1_ASAP7_75t_R
*I *806:QN O *D DFFHQNx1_ASAP7_75t_R
*CAP
1 *1036:A 9.38559e-06
2 *514:A 0
3 *806:QN 5.06543e-06
4 *67:28 9.19597e-06
5 *67:20 3.62748e-05
6 *67:10 3.64645e-05
7 *67:8 5.06543e-06
8 *1036:A *419:10 2.61188e-06
9 *67:8 *245:10 8.36938e-06
10 *67:20 *245:10 4.74168e-07
11 *67:20 *301:12 0
12 *67:20 *414:18 1.01803e-05
13 *67:20 *420:14 1.03649e-05
14 *67:28 *105:8 1.79408e-06
15 *67:28 *414:10 3.05118e-08
16 *23:10 *67:8 8.02946e-06
17 *23:10 *67:20 5.0041e-06
*RES
1 *806:QN *67:8 41.158 
2 *67:8 *67:10 17.2 
3 *67:10 *67:20 47.3111 
4 *67:20 *67:28 38.6698 
5 *67:28 *514:A 17.2 
6 *67:10 *1036:A 23.0831 
*END

*D_NET *68 0.000178996
*CONN
*I *575:C I *D OA211x2_ASAP7_75t_R
*I *570:B I *D OA21x2_ASAP7_75t_R
*I *778:CON O *D HAxp5_ASAP7_75t_R
*CAP
1 *575:C 0
2 *570:B 0
3 *778:CON 1.61753e-05
4 *68:29 1.95563e-05
5 *68:14 6.4477e-06
6 *68:6 4.21793e-05
7 *68:14 *570:A1 2.42561e-05
8 *68:14 *575:A1 8.27965e-06
9 *68:14 *108:14 5.85387e-06
10 *68:14 *110:18 2.66819e-05
11 *68:29 *575:A1 5.22969e-06
12 *68:29 *69:8 2.03526e-06
13 *68:29 *430:27 8.23174e-06
14 *68:29 *485:51 1.36155e-06
15 *68:29 *504:40 7.72833e-06
16 *22:22 *68:6 5.51397e-07
17 *22:22 *68:29 2.87094e-06
18 *65:16 *68:29 1.55702e-06
*RES
1 *778:CON *68:6 24.1527 
2 *68:6 *68:14 45.0151 
3 *68:14 *570:B 17.2 
4 *68:6 *68:29 48.2241 
5 *68:29 *575:C 17.2 
*END

*D_NET *69 0.000166441
*CONN
*I *570:A1 I *D OA21x2_ASAP7_75t_R
*I *575:A1 I *D OA211x2_ASAP7_75t_R
*I *778:SN O *D HAxp5_ASAP7_75t_R
*CAP
1 *570:A1 1.67889e-05
2 *575:A1 1.25242e-05
3 *778:SN 4.4334e-06
4 *69:8 3.37465e-05
5 *570:A1 *571:A1 1.31643e-05
6 *570:A1 *108:14 7.80667e-06
7 *570:A1 *110:18 1.26641e-06
8 *570:A1 *504:40 9.94583e-06
9 *575:A1 *110:18 9.75148e-06
10 *575:A1 *485:51 1.44167e-06
11 *575:A1 *504:40 1.44141e-05
12 *65:22 *575:A1 1.35684e-06
13 *68:14 *570:A1 2.42561e-05
14 *68:14 *575:A1 8.27965e-06
15 *68:29 *575:A1 5.22969e-06
16 *68:29 *69:8 2.03526e-06
*RES
1 *778:SN *69:8 36.0045 
2 *69:8 *575:A1 46.733 
3 *69:8 *570:A1 49.7719 
*END

*D_NET *70 0.000294196
*CONN
*I *653:A I *D INVx1_ASAP7_75t_R
*I *779:A I *D HAxp5_ASAP7_75t_R
*I *783:QN O *D DFFHQNx1_ASAP7_75t_R
*CAP
1 *653:A 0
2 *779:A 2.93087e-05
3 *783:QN 4.60254e-05
4 *70:25 2.09745e-05
5 *70:10 5.44806e-05
6 *70:6 5.02228e-05
7 *779:A *779:B 9.31704e-06
8 *779:A *783:CLK 5.51397e-07
9 *779:A *337:12 1.32196e-05
10 *70:6 *477:16 0
11 *70:10 *215:10 1.54305e-05
12 *70:10 *476:10 2.22736e-06
13 *70:25 *785:CLK 5.09299e-06
14 *70:25 *133:10 0
15 *70:25 *206:8 5.09299e-06
16 *70:25 *215:10 2.74927e-05
17 *70:25 *463:207 4.06224e-06
18 *70:25 *476:10 2.73059e-06
19 *70:25 *477:41 7.96698e-06
*RES
1 *783:QN *70:6 38.0582 
2 *70:6 *70:10 22.2685 
3 *70:10 *779:A 49.9099 
4 *70:10 *70:25 36.1493 
5 *70:25 *653:A 17.2 
*END

*D_NET *71 0.000239305
*CONN
*I *569:A I *D INVx1_ASAP7_75t_R
*I *779:CON O *D HAxp5_ASAP7_75t_R
*CAP
1 *569:A 0
2 *779:CON 8.10633e-06
3 *71:12 6.42771e-05
4 *71:8 7.23835e-05
5 *71:8 *436:8 2.99546e-05
6 *71:12 *802:D 0
7 *71:12 *449:79 9.08513e-06
8 *71:12 *482:208 3.56648e-06
9 *34:14 *71:12 4.5682e-05
10 *36:10 *71:8 6.25017e-06
*RES
1 *779:CON *71:8 44.537 
2 *71:8 *71:12 47.685 
3 *71:12 *569:A 17.2 
*END

*D_NET *72 0.00014955
*CONN
*I *783:D I *D DFFHQNx1_ASAP7_75t_R
*I *663:Y O *D OA21x2_ASAP7_75t_R
*CAP
1 *783:D 0
2 *663:Y 1.6818e-05
3 *72:12 1.46888e-05
4 *72:8 3.15068e-05
5 *72:8 *663:A2 7.63254e-07
6 *72:12 *206:10 2.07337e-05
7 *72:12 *215:10 2.11907e-06
8 *72:12 *300:14 2.19482e-06
9 *72:12 *463:205 9.54673e-06
10 *72:12 *463:207 5.11792e-05
*RES
1 *663:Y *72:8 41.3527 
2 *72:8 *72:12 37.474 
3 *72:12 *783:D 17.2 
*END

*D_NET *73 0.00013127
*CONN
*I *784:D I *D DFFHQNx1_ASAP7_75t_R
*I *667:Y O *D OA21x2_ASAP7_75t_R
*CAP
1 *784:D 1.98926e-05
2 *667:Y 1.34499e-05
3 *73:8 3.33425e-05
4 *784:D *139:14 9.75645e-06
5 *73:8 *137:12 8.9045e-06
6 *73:8 *139:18 5.45505e-06
7 *40:22 *73:8 3.3043e-05
8 *41:12 *784:D 7.42565e-06
*RES
1 *667:Y *73:8 46.2265 
2 *73:8 *784:D 43.492 
*END

*D_NET *74 6.49473e-05
*CONN
*I *785:D I *D DFFHQNx1_ASAP7_75t_R
*I *672:Y O *D AOI22x1_ASAP7_75t_R
*CAP
1 *785:D 6.87254e-06
2 *672:Y 8.17367e-06
3 *74:8 1.50462e-05
4 *785:D *478:25 0
5 *74:8 *219:8 1.33169e-05
6 *74:8 *477:33 1.8372e-05
7 *74:8 *478:16 3.16603e-06
8 *74:8 *482:52 0
*RES
1 *672:Y *74:8 43.4107 
2 *74:8 *785:D 37.0741 
*END

*D_NET *75 2.68896e-05
*CONN
*I *786:D I *D DFFHQNx1_ASAP7_75t_R
*I *680:Y O *D OA33x2_ASAP7_75t_R
*CAP
1 *786:D 0
2 *680:Y 7.49986e-06
3 *75:10 7.49986e-06
4 *75:10 *680:A2 1.10181e-05
5 *75:10 *452:20 8.71771e-07
6 *75:10 *461:132 0
*RES
1 *680:Y *75:10 39.3835 
2 *75:10 *786:D 34.4 
*END

*D_NET *76 6.53402e-05
*CONN
*I *787:D I *D DFFHQNx1_ASAP7_75t_R
*I *687:Y O *D AOI22x1_ASAP7_75t_R
*CAP
1 *787:D 1.12948e-05
2 *687:Y 1.47695e-05
3 *76:10 2.60643e-05
4 *787:D *441:24 8.146e-06
5 *76:10 *235:8 5.06565e-06
6 *76:10 *341:8 0
7 *76:10 *397:10 0
*RES
1 *687:Y *76:10 43.8888 
2 *76:10 *787:D 40.2831 
*END

*D_NET *77 3.24544e-05
*CONN
*I *788:D I *D DFFHQNx1_ASAP7_75t_R
*I *692:Y O *D AO21x1_ASAP7_75t_R
*CAP
1 *788:D 0
2 *692:Y 1.31742e-05
3 *77:10 1.31742e-05
4 *77:10 *1052:A 6.10603e-06
5 *77:10 *438:21 0
*RES
1 *692:Y *77:10 42.0576 
2 *77:10 *788:D 34.4 
*END

*D_NET *78 6.63008e-05
*CONN
*I *789:D I *D DFFHQNx1_ASAP7_75t_R
*I *697:Y O *D AO21x1_ASAP7_75t_R
*CAP
1 *789:D 1.25054e-05
2 *697:Y 1.92827e-05
3 *78:10 3.17881e-05
4 *789:D *343:6 0
5 *78:10 *697:A2 5.19552e-07
6 *78:10 *238:6 0
7 *78:10 *243:14 2.20493e-06
*RES
1 *697:Y *78:10 43.1272 
2 *78:10 *789:D 40.2831 
*END

*D_NET *79 0.000279997
*CONN
*I *790:D I *D DFFHQNx1_ASAP7_75t_R
*I *700:Y O *D AO221x1_ASAP7_75t_R
*CAP
1 *790:D 0
2 *700:Y 1.78228e-06
3 *79:18 1.91212e-05
4 *79:12 8.37392e-05
5 *79:8 6.64003e-05
6 *79:8 *301:25 9.94583e-06
7 *79:8 *474:19 9.94583e-06
8 *79:12 *778:A 1.59615e-06
9 *79:12 *778:B 2.66797e-07
10 *79:12 *108:8 3.31215e-05
11 *79:12 *157:22 9.31704e-06
12 *79:12 *424:32 9.92676e-06
13 *79:18 *301:38 1.47929e-05
14 *79:18 *414:10 1.41754e-05
15 *79:18 *471:8 7.84037e-07
16 *79:18 *472:29 5.82688e-07
17 *24:24 *79:12 4.4994e-06
*RES
1 *700:Y *79:8 37.779 
2 *79:8 *79:12 45.5457 
3 *79:12 *79:18 49.0423 
4 *79:18 *790:D 17.2 
*END

*D_NET *80 3.93499e-05
*CONN
*I *791:D I *D DFFHQNx1_ASAP7_75t_R
*I *705:Y O *D OA22x2_ASAP7_75t_R
*CAP
1 *791:D 5.92161e-06
2 *705:Y 2.47847e-06
3 *80:8 8.40008e-06
4 *791:D *116:14 3.65131e-06
5 *80:8 *428:8 9.4492e-06
6 *80:8 *489:8 9.4492e-06
*RES
1 *705:Y *80:8 37.779 
2 *80:8 *791:D 37.0741 
*END

*D_NET *81 4.28146e-05
*CONN
*I *792:D I *D DFFHQNx1_ASAP7_75t_R
*I *709:Y O *D OA21x2_ASAP7_75t_R
*CAP
1 *792:D 0
2 *709:Y 1.52957e-05
3 *81:10 1.52957e-05
4 *81:10 *472:29 9.76728e-06
5 *81:10 *485:112 2.45591e-06
*RES
1 *709:Y *81:10 42.5924 
2 *81:10 *792:D 34.4 
*END

*D_NET *82 8.58161e-05
*CONN
*I *793:D I *D DFFHQNx1_ASAP7_75t_R
*I *713:Y O *D OA21x2_ASAP7_75t_R
*CAP
1 *793:D 7.70414e-06
2 *713:Y 1.5359e-05
3 *82:8 2.30632e-05
4 *793:D *347:20 5.60551e-07
5 *793:D *412:45 1.32305e-06
6 *793:D *414:8 1.90807e-05
7 *82:8 *463:55 4.43846e-06
8 *50:20 *82:8 1.3988e-05
9 *53:24 *793:D 2.98961e-07
*RES
1 *713:Y *82:8 43.492 
2 *82:8 *793:D 41.158 
*END

*D_NET *83 9.52659e-05
*CONN
*I *794:D I *D DFFHQNx1_ASAP7_75t_R
*I *717:Y O *D AO221x1_ASAP7_75t_R
*CAP
1 *794:D 1.84816e-05
2 *717:Y 9.92417e-06
3 *83:8 2.84058e-05
4 *794:D *493:22 2.20493e-06
5 *83:8 *463:74 7.11252e-08
6 *83:8 *469:8 2.1301e-06
7 *83:8 *469:16 2.26336e-05
8 *83:8 *479:10 3.05118e-08
9 *83:8 *479:14 2.68504e-06
10 *83:8 *493:14 6.33206e-07
11 *1031:A *794:D 8.06588e-06
*RES
1 *717:Y *83:8 43.4107 
2 *83:8 *794:D 43.492 
*END

*D_NET *84 0.000414521
*CONN
*I *795:D I *D DFFHQNx1_ASAP7_75t_R
*I *721:Y O *D AO221x1_ASAP7_75t_R
*CAP
1 *795:D 0
2 *721:Y 3.63351e-05
3 *84:22 7.57674e-05
4 *84:20 7.57674e-05
5 *84:18 1.68762e-05
6 *84:8 5.32113e-05
7 *84:8 *259:29 1.40419e-08
8 *84:8 *261:22 2.20493e-06
9 *84:18 *724:A2 7.8305e-06
10 *84:18 *100:8 1.30795e-06
11 *84:18 *350:20 0
12 *84:18 *463:74 1.23321e-06
13 *84:18 *479:36 1.777e-05
14 *84:18 *479:44 1.104e-05
15 *84:18 *489:117 2.31217e-06
16 *84:18 *492:82 1.16156e-05
17 *84:18 *506:35 2.0875e-05
18 *84:22 *795:CLK 6.2119e-05
19 *84:22 *296:12 6.44983e-06
20 *84:22 *296:37 9.75645e-06
21 *84:22 *372:6 0
22 *84:22 *484:225 2.03526e-06
23 *641:A *84:22 0
*RES
1 *721:Y *84:8 48.8403 
2 *84:8 *84:18 47.6533 
3 *84:18 *84:20 17.2 
4 *84:20 *84:22 35.8333 
5 *84:22 *795:D 17.2 
*END

*D_NET *85 5.03049e-05
*CONN
*I *796:D I *D DFFHQNx1_ASAP7_75t_R
*I *725:Y O *D OA21x2_ASAP7_75t_R
*CAP
1 *796:D 1.60986e-05
2 *725:Y 6.66664e-06
3 *85:8 2.27653e-05
4 *796:D *297:24 4.75943e-06
5 *85:8 *725:B 1.49407e-08
*RES
1 *725:Y *85:8 37.779 
2 *85:8 *796:D 41.3527 
*END

*D_NET *86 8.57706e-05
*CONN
*I *797:D I *D DFFHQNx1_ASAP7_75t_R
*I *730:Y O *D OA22x2_ASAP7_75t_R
*CAP
1 *797:D 0
2 *730:Y 2.05008e-05
3 *86:10 2.05008e-05
4 *86:10 *102:10 9.94583e-06
5 *86:10 *351:45 3.37784e-05
6 *86:10 *360:22 0
7 *86:10 *427:22 1.04475e-06
8 *49:23 *86:10 0
*RES
1 *730:Y *86:10 48.9006 
2 *86:10 *797:D 34.4 
*END

*D_NET *87 4.34161e-05
*CONN
*I *798:D I *D DFFHQNx1_ASAP7_75t_R
*I *735:Y O *D OA22x2_ASAP7_75t_R
*CAP
1 *798:D 0
2 *735:Y 1.44007e-05
3 *87:10 1.44007e-05
4 *87:10 *352:33 1.19738e-05
5 *87:10 *460:26 2.6409e-06
*RES
1 *735:Y *87:10 42.5924 
2 *87:10 *798:D 34.4 
*END

*D_NET *88 1.88039e-05
*CONN
*I *799:D I *D DFFHQNx1_ASAP7_75t_R
*I *742:Y O *D OA222x2_ASAP7_75t_R
*CAP
1 *799:D 0
2 *742:Y 3.95218e-06
3 *88:8 3.95218e-06
4 *88:8 *742:C2 7.931e-07
5 *88:8 *206:10 9.67964e-06
6 *88:8 *300:31 4.26751e-07
*RES
1 *742:Y *88:8 37.779 
2 *88:8 *799:D 34.4 
*END

*D_NET *89 7.46937e-05
*CONN
*I *800:D I *D DFFHQNx1_ASAP7_75t_R
*I *743:Y O *D OA222x2_ASAP7_75t_R
*CAP
1 *800:D 2.17541e-05
2 *743:Y 3.98979e-06
3 *89:8 2.57439e-05
4 *800:D *441:74 1.29965e-05
5 *89:8 *217:12 7.21596e-07
6 *89:8 *441:74 9.48786e-06
*RES
1 *743:Y *89:8 37.779 
2 *89:8 *800:D 43.492 
*END

*D_NET *90 6.8696e-05
*CONN
*I *801:D I *D DFFHQNx1_ASAP7_75t_R
*I *745:Y O *D OA222x2_ASAP7_75t_R
*CAP
1 *801:D 2.17479e-05
2 *745:Y 2.17479e-05
3 *801:D *273:16 0
4 *801:D *279:14 2.52003e-05
*RES
1 *745:Y *801:D 44.5617 
*END

*D_NET *91 1.83934e-05
*CONN
*I *802:D I *D DFFHQNx1_ASAP7_75t_R
*I *746:Y O *D OA222x2_ASAP7_75t_R
*CAP
1 *802:D 3.61261e-06
2 *746:Y 4.19398e-06
3 *91:8 7.80659e-06
4 *91:8 *224:14 2.22736e-06
5 *91:8 *511:10 5.52807e-07
6 *71:12 *802:D 0
*RES
1 *746:Y *91:8 37.779 
2 *91:8 *802:D 36.0045 
*END

*D_NET *92 3.09106e-05
*CONN
*I *803:D I *D DFFHQNx1_ASAP7_75t_R
*I *748:Y O *D OA222x2_ASAP7_75t_R
*CAP
1 *803:D 7.66806e-06
2 *748:Y 4.23093e-06
3 *92:8 1.1899e-05
4 *92:8 *441:10 3.11431e-06
5 *92:8 *487:139 8.64018e-07
6 *31:14 *803:D 3.13426e-06
7 *31:22 *92:8 0
*RES
1 *748:Y *92:8 37.779 
2 *92:8 *803:D 38.1438 
*END

*D_NET *93 8.23029e-05
*CONN
*I *804:D I *D DFFHQNx1_ASAP7_75t_R
*I *749:Y O *D OA222x2_ASAP7_75t_R
*CAP
1 *804:D 0
2 *749:Y 2.83177e-05
3 *93:10 2.83177e-05
4 *93:10 *749:C2 8.13589e-06
5 *93:10 *236:24 9.09803e-07
6 *93:10 *274:179 9.56878e-06
7 *93:10 *487:108 7.05311e-06
8 *26:27 *93:10 0
*RES
1 *749:Y *93:10 46.871 
2 *93:10 *804:D 34.4 
*END

*D_NET *94 1.02749e-05
*CONN
*I *805:D I *D DFFHQNx1_ASAP7_75t_R
*I *750:Y O *D OA222x2_ASAP7_75t_R
*CAP
1 *805:D 0
2 *750:Y 5.13746e-06
3 *94:8 5.13746e-06
*RES
1 *750:Y *94:8 37.779 
2 *94:8 *805:D 34.4 
*END

*D_NET *95 2.3815e-05
*CONN
*I *806:D I *D DFFHQNx1_ASAP7_75t_R
*I *751:Y O *D OA222x2_ASAP7_75t_R
*CAP
1 *806:D 0
2 *751:Y 2.14671e-06
3 *95:8 2.14671e-06
4 *95:8 *105:20 9.76081e-06
5 *95:8 *250:10 9.76081e-06
*RES
1 *751:Y *95:8 37.779 
2 *95:8 *806:D 34.4 
*END

*D_NET *96 5.70123e-05
*CONN
*I *807:D I *D DFFHQNx1_ASAP7_75t_R
*I *753:Y O *D OA222x2_ASAP7_75t_R
*CAP
1 *807:D 0
2 *753:Y 1.8167e-05
3 *96:10 1.8167e-05
4 *96:10 *113:10 9.86163e-06
5 *96:10 *154:14 0
6 *96:10 *281:6 1.08167e-05
7 *96:10 *292:45 0
*RES
1 *753:Y *96:10 43.6621 
2 *96:10 *807:D 34.4 
*END

*D_NET *97 6.70488e-05
*CONN
*I *808:D I *D DFFHQNx1_ASAP7_75t_R
*I *754:Y O *D OA222x2_ASAP7_75t_R
*CAP
1 *808:D 2.05389e-05
2 *754:Y 5.07277e-06
3 *97:8 2.56116e-05
4 *808:D *291:20 2.20493e-06
5 *97:8 *470:10 5.79724e-07
6 *55:10 *97:8 1.30409e-05
7 *61:14 *808:D 0
*RES
1 *754:Y *97:8 38.9053 
2 *97:8 *808:D 42.4224 
*END

*D_NET *98 9.58129e-05
*CONN
*I *809:D I *D DFFHQNx1_ASAP7_75t_R
*I *755:Y O *D OA222x2_ASAP7_75t_R
*CAP
1 *809:D 1.76436e-05
2 *755:Y 1.45342e-05
3 *98:8 3.21777e-05
4 *809:D *294:30 3.68565e-06
5 *98:8 *253:26 6.05801e-06
6 *98:8 *489:70 4.48222e-08
7 *98:8 *492:58 1.64197e-05
8 *98:8 *492:71 5.24926e-06
*RES
1 *755:Y *98:8 46.2265 
2 *98:8 *809:D 41.3527 
*END

*D_NET *99 8.05637e-05
*CONN
*I *810:D I *D DFFHQNx1_ASAP7_75t_R
*I *756:Y O *D OA222x2_ASAP7_75t_R
*CAP
1 *810:D 2.87273e-05
2 *756:Y 5.05675e-06
3 *99:8 3.3784e-05
4 *810:D *810:CLK 0
5 *810:D *484:208 3.9103e-06
6 *99:8 *489:83 9.08543e-06
7 *99:8 *492:71 0
*RES
1 *756:Y *99:8 37.779 
2 *99:8 *810:D 44.5617 
*END

*D_NET *100 4.09646e-05
*CONN
*I *811:D I *D DFFHQNx1_ASAP7_75t_R
*I *757:Y O *D OA222x2_ASAP7_75t_R
*CAP
1 *811:D 4.70925e-06
2 *757:Y 6.59668e-06
3 *100:8 1.13059e-05
4 *100:8 *274:292 1.59429e-05
5 *100:8 *349:35 4.74375e-07
6 *100:8 *463:74 6.2751e-07
7 *84:18 *100:8 1.30795e-06
*RES
1 *757:Y *100:8 40.0317 
2 *100:8 *811:D 36.0045 
*END

*D_NET *101 2.05e-05
*CONN
*I *812:D I *D DFFHQNx1_ASAP7_75t_R
*I *758:Y O *D OA222x2_ASAP7_75t_R
*CAP
1 *812:D 0
2 *758:Y 9.10513e-06
3 *101:10 9.10513e-06
4 *101:10 *274:281 2.28976e-06
5 *101:10 *479:93 0
*RES
1 *758:Y *101:10 39.3835 
2 *101:10 *812:D 34.4 
*END

*D_NET *102 0.000109884
*CONN
*I *813:D I *D DFFHQNx1_ASAP7_75t_R
*I *760:Y O *D OA222x2_ASAP7_75t_R
*CAP
1 *813:D 0
2 *760:Y 0
3 *102:10 1.61981e-05
4 *102:6 1.61981e-05
5 *102:10 *282:14 1.3677e-05
6 *102:10 *350:33 0
7 *102:10 *351:45 6.76305e-06
8 *102:10 *468:23 2.34615e-05
9 *51:20 *102:10 2.36401e-05
10 *86:10 *102:10 9.94583e-06
*RES
1 *760:Y *102:6 34.4 
2 *102:6 *102:10 37.474 
3 *102:10 *813:D 17.2 
*END

*D_NET *103 1.8685e-05
*CONN
*I *814:D I *D DFFHQNx1_ASAP7_75t_R
*I *762:Y O *D OA222x2_ASAP7_75t_R
*CAP
1 *814:D 3.6513e-06
2 *762:Y 4.32478e-06
3 *103:8 7.97608e-06
4 *814:D *230:51 5.0551e-07
5 *103:8 *352:33 0
6 *103:8 *439:18 2.22736e-06
*RES
1 *762:Y *103:8 37.779 
2 *103:8 *814:D 36.0045 
*END

*D_NET *104 9.41031e-05
*CONN
*I *711:A2 I *D AO21x1_ASAP7_75t_R
*I *516:Y O *D BUFx2_ASAP7_75t_R
*CAP
1 *711:A2 0
2 *516:Y 4.61754e-05
3 *104:6 4.61754e-05
4 *104:6 *147:219 6.7842e-07
5 *104:6 *464:88 1.07377e-06
*RES
1 *516:Y *104:6 40.1975 
2 *104:6 *711:A2 17.2 
*END

*D_NET *105 0.000441607
*CONN
*I *751:A2 I *D OA222x2_ASAP7_75t_R
*I *518:Y O *D BUFx2_ASAP7_75t_R
*CAP
1 *751:A2 0
2 *518:Y 0
3 *105:20 2.99467e-05
4 *105:14 3.85585e-05
5 *105:8 0.000137301
6 *105:6 0.000128689
7 *105:8 *301:8 6.05419e-06
8 *105:8 *301:38 7.3874e-07
9 *105:8 *414:10 0
10 *105:8 *472:22 2.31174e-05
11 *105:8 *484:86 0
12 *105:14 *464:62 2.35969e-05
13 *105:20 *707:B 0
14 *105:20 *751:B2 5.62196e-06
15 *105:20 *147:43 2.65328e-06
16 *105:20 *250:10 5.49614e-06
17 *105:20 *274:60 1.08167e-05
18 *105:20 *274:70 3.89037e-06
19 *105:20 *301:38 5.68657e-06
20 *105:20 *453:18 1.44167e-06
21 *105:20 *485:26 4.75943e-06
22 *105:20 *485:39 1.6833e-06
23 *67:28 *105:8 1.79408e-06
24 *95:8 *105:20 9.76081e-06
*RES
1 *518:Y *105:6 34.4 
2 *105:6 *105:8 107.002 
3 *105:8 *105:14 41.3527 
4 *105:14 *105:20 40.1161 
5 *105:20 *751:A2 17.2 
*END

*D_NET *106 0.000522847
*CONN
*I *556:A1 I *D OA21x2_ASAP7_75t_R
*I *567:A1 I *D AO221x1_ASAP7_75t_R
*I *519:Y O *D INVx1_ASAP7_75t_R
*CAP
1 *556:A1 5.06829e-06
2 *567:A1 0
3 *519:Y 0
4 *106:25 4.43424e-05
5 *106:16 5.2752e-05
6 *106:8 4.27177e-05
7 *106:6 2.92399e-05
8 *556:A1 *556:B 1.2768e-05
9 *106:8 *336:13 3.19434e-05
10 *106:8 *353:13 2.04429e-05
11 *106:8 *378:10 1.84167e-05
12 *106:8 *396:8 8.73816e-05
13 *106:8 *461:10 4.45472e-06
14 *106:16 *940:A 9.08513e-06
15 *106:16 *377:12 4.65189e-06
16 *106:16 *377:20 8.19887e-06
17 *106:16 *378:10 1.00648e-06
18 *106:16 *461:18 3.97187e-06
19 *106:16 *461:31 6.97416e-06
20 *106:25 *143:10 0
21 *106:25 *230:10 3.81511e-05
22 *106:25 *377:20 1.12901e-05
23 *106:25 *378:31 7.73984e-06
24 *106:25 *461:31 7.39043e-05
25 *106:25 *461:56 0
26 *3:12 *106:25 6.05082e-06
27 *20:10 *106:25 0
28 *22:12 *106:25 2.29474e-06
*RES
1 *519:Y *106:6 34.4 
2 *106:6 *106:8 42.8006 
3 *106:8 *106:16 44.9585 
4 *106:16 *567:A1 34.4 
5 *106:16 *106:25 42.8006 
6 *106:25 *556:A1 38.1438 
*END

*D_NET *107 0.000818794
*CONN
*I *707:A2 I *D AO21x1_ASAP7_75t_R
*I *520:Y O *D BUFx2_ASAP7_75t_R
*CAP
1 *707:A2 0
2 *520:Y 5.56175e-06
3 *107:20 8.32057e-07
4 *107:14 8.61724e-05
5 *107:12 8.53404e-05
6 *107:10 3.39977e-05
7 *107:8 3.95594e-05
8 *107:8 *1026:A 9.08513e-06
9 *107:10 *208:28 1.38195e-05
10 *107:10 *334:10 9.4467e-06
11 *107:10 *345:27 3.9742e-05
12 *107:10 *464:8 0
13 *107:10 *464:19 0
14 *107:10 *464:172 0
15 *107:14 *110:14 4.55438e-06
16 *107:14 *117:16 6.37991e-07
17 *107:14 *147:43 4.80422e-06
18 *107:14 *147:47 1.09711e-06
19 *107:14 *274:42 2.79393e-05
20 *107:14 *274:50 2.72142e-05
21 *107:14 *274:52 0.000217038
22 *107:14 *292:26 5.77282e-06
23 *107:14 *292:45 1.97582e-06
24 *107:14 *293:22 8.32162e-08
25 *107:14 *301:12 2.21227e-05
26 *107:14 *366:26 2.88759e-06
27 *107:14 *420:14 0
28 *107:14 *424:38 5.28707e-05
29 *107:14 *464:70 1.82344e-05
30 *107:20 *707:B 5.4219e-06
31 *107:20 *453:22 1.73917e-06
32 *64:18 *107:10 0.000100844
*RES
1 *520:Y *107:8 37.0741 
2 *107:8 *107:10 41.7681 
3 *107:10 *107:12 17.2 
4 *107:12 *107:14 51.0794 
5 *107:14 *107:20 36.1834 
6 *107:20 *707:A2 17.2 
*END

*D_NET *108 0.000236706
*CONN
*I *522:A2 I *D OA21x2_ASAP7_75t_R
*I *521:Y O *D INVx1_ASAP7_75t_R
*CAP
1 *522:A2 0
2 *521:Y 6.28333e-06
3 *108:14 3.9848e-05
4 *108:8 4.61314e-05
5 *108:8 *778:A 2.97289e-06
6 *108:14 *570:A2 3.90258e-06
7 *108:14 *700:A1 6.45454e-06
8 *108:14 *344:21 1.2903e-05
9 *108:14 *344:31 2.03526e-06
10 *108:14 *474:19 2.53282e-06
11 *108:14 *504:30 3.65369e-06
12 *108:14 *504:34 5.10479e-06
13 *570:A1 *108:14 7.80667e-06
14 *24:24 *108:8 2.57557e-05
15 *60:10 *108:14 1.93393e-05
16 *65:44 *108:14 1.30071e-05
17 *68:14 *108:14 5.85387e-06
18 *79:12 *108:8 3.31215e-05
*RES
1 *521:Y *108:8 44.0269 
2 *108:8 *108:14 45.8858 
3 *108:14 *522:A2 17.2 
*END

*D_NET *109 0.000272521
*CONN
*I *580:A1 I *D OA21x2_ASAP7_75t_R
*I *526:A1 I *D OAI21x1_ASAP7_75t_R
*I *573:A2 I *D OA21x2_ASAP7_75t_R
*I *522:Y O *D OA21x2_ASAP7_75t_R
*CAP
1 *580:A1 2.28838e-05
2 *526:A1 0
3 *573:A2 1.55303e-05
4 *522:Y 1.40995e-05
5 *109:29 3.76195e-05
6 *109:18 4.74476e-05
7 *109:10 3.1281e-05
8 *573:A2 *594:A 2.741e-06
9 *573:A2 *594:B 8.03705e-06
10 *573:A2 *594:C 2.26052e-06
11 *573:A2 *351:6 5.18012e-05
12 *580:A1 *580:A2 5.58601e-06
13 *580:A1 *110:22 6.7842e-07
14 *580:A1 *110:30 1.44733e-06
15 *580:A1 *112:10 2.43699e-07
16 *580:A1 *135:12 1.12894e-06
17 *580:A1 *158:16 3.05118e-08
18 *580:A1 *164:10 0
19 *580:A1 *168:10 0
20 *580:A1 *473:70 1.80486e-06
21 *109:10 *113:10 2.98814e-08
22 *109:10 *154:14 2.57812e-06
23 *109:10 *157:12 1.30795e-06
24 *109:10 *463:28 1.23835e-05
25 *109:18 *113:10 0
26 *109:18 *152:6 6.7842e-07
27 *109:18 *154:14 2.71368e-06
28 *109:18 *430:27 0
29 *109:18 *463:28 2.68255e-06
30 *109:29 *135:12 2.28839e-06
31 *109:29 *164:10 0
32 *109:29 *169:8 0
33 *109:29 *430:27 0
34 *109:29 *473:70 5.24059e-07
35 *573:B *573:A2 2.71368e-06
*RES
1 *522:Y *109:10 42.7625 
2 *109:10 *109:18 43.8321 
3 *109:18 *573:A2 49.3751 
4 *109:18 *109:29 10.137 
5 *109:29 *526:A1 34.4 
6 *109:29 *580:A1 48.2808 
*END

*D_NET *110 0.00063255
*CONN
*I *580:A2 I *D OA21x2_ASAP7_75t_R
*I *526:A2 I *D OAI21x1_ASAP7_75t_R
*I *523:Y O *D OR3x1_ASAP7_75t_R
*CAP
1 *580:A2 5.86224e-06
2 *526:A2 0
3 *523:Y 7.0511e-06
4 *110:30 1.68471e-05
5 *110:22 3.49795e-05
6 *110:18 7.00854e-05
7 *110:16 5.78153e-05
8 *110:14 2.38693e-05
9 *110:8 3.09204e-05
10 *110:8 *422:25 5.22376e-07
11 *110:14 *420:14 1.49407e-08
12 *110:14 *484:72 0
13 *110:18 *571:A1 4.57263e-07
14 *110:18 *134:16 9.41947e-07
15 *110:18 *346:37 3.79093e-06
16 *110:18 *351:14 1.77416e-05
17 *110:18 *416:18 2.47265e-05
18 *110:18 *492:18 0.00010876
19 *110:22 *153:16 1.66584e-05
20 *110:22 *347:8 2.79145e-05
21 *110:30 *548:D 6.17507e-06
22 *110:30 *135:8 2.20146e-05
23 *110:30 *168:10 5.06565e-06
24 *110:30 *430:27 1.49407e-08
25 *110:30 *473:70 7.6161e-06
26 *570:A1 *110:18 1.26641e-06
27 *575:A1 *110:18 9.75148e-06
28 *580:A1 *580:A2 5.58601e-06
29 *580:A1 *110:22 6.7842e-07
30 *580:A1 *110:30 1.44733e-06
31 *22:32 *110:14 1.44551e-05
32 *62:25 *110:18 1.10561e-06
33 *63:8 *110:14 4.73333e-05
34 *65:22 *110:18 2.98441e-05
35 *68:14 *110:18 2.66819e-05
36 *107:14 *110:14 4.55438e-06
*RES
1 *523:Y *110:8 38.1438 
2 *110:8 *110:14 37.3051 
3 *110:14 *110:16 17.2 
4 *110:16 *110:18 60.7281 
5 *110:18 *110:22 27.3617 
6 *110:22 *110:30 47.0411 
7 *110:30 *526:A2 17.2 
8 *110:22 *580:A2 20.9438 
*END

*D_NET *111 0.000417074
*CONN
*I *578:B I *D OA21x2_ASAP7_75t_R
*I *525:A2 I *D OA21x2_ASAP7_75t_R
*I *524:Y O *D OA21x2_ASAP7_75t_R
*CAP
1 *578:B 4.22653e-06
2 *525:A2 0
3 *524:Y 1.5439e-05
4 *111:23 2.85395e-05
5 *111:21 6.76871e-05
6 *111:12 1.53542e-06
7 *111:6 6.03484e-05
8 *578:B *578:A2 2.03526e-06
9 *578:B *157:12 3.48165e-06
10 *111:6 *525:A1 1.23489e-06
11 *111:6 *416:26 9.75645e-06
12 *111:6 *427:37 5.96787e-07
13 *111:12 *168:10 8.28056e-06
14 *111:12 *430:27 8.28056e-06
15 *111:21 *112:10 4.37244e-06
16 *111:21 *427:37 1.67832e-06
17 *111:21 *427:46 5.96787e-07
18 *111:23 *113:10 1.13547e-05
19 *111:23 *156:8 7.89306e-06
20 *111:23 *163:10 7.53741e-05
21 *111:23 *426:10 4.90467e-06
22 *111:23 *427:48 9.69607e-05
23 *56:38 *111:21 2.4974e-06
*RES
1 *524:Y *111:6 23.0831 
2 *111:6 *111:12 37.2158 
3 *111:12 *525:A2 17.2 
4 *111:6 *111:21 32.7099 
5 *111:21 *111:23 37.7321 
6 *111:23 *578:B 37.0741 
*END

*D_NET *112 0.000155935
*CONN
*I *526:B I *D OAI21x1_ASAP7_75t_R
*I *580:B I *D OA21x2_ASAP7_75t_R
*I *525:Y O *D OA21x2_ASAP7_75t_R
*CAP
1 *526:B 0
2 *580:B 0
3 *525:Y 1.54669e-05
4 *112:25 1.26656e-05
5 *112:12 1.26656e-05
6 *112:10 1.54669e-05
7 *112:10 *158:16 2.81258e-05
8 *112:10 *168:10 0
9 *112:10 *427:37 4.37244e-06
10 *112:10 *427:46 6.7842e-07
11 *112:25 *115:12 1.16945e-06
12 *112:25 *158:8 1.3968e-05
13 *112:25 *163:10 2.30306e-05
14 *112:25 *164:10 2.30306e-05
15 *112:25 *428:35 6.7842e-07
16 *580:A1 *112:10 2.43699e-07
17 *111:21 *112:10 4.37244e-06
*RES
1 *525:Y *112:10 47.2111 
2 *112:10 *112:12 17.2 
3 *112:12 *580:B 17.2 
4 *112:12 *112:25 47.0977 
5 *112:25 *526:B 17.2 
*END

*D_NET *113 0.000858328
*CONN
*I *544:A2 I *D AO211x2_ASAP7_75t_R
*I *969:A I *D BUFx3_ASAP7_75t_R
*I *526:Y O *D OAI21x1_ASAP7_75t_R
*CAP
1 *544:A2 6.30673e-06
2 *969:A 0
3 *526:Y 0
4 *113:41 3.55974e-05
5 *113:35 6.02447e-05
6 *113:22 1.75032e-05
7 *113:16 4.79619e-05
8 *113:10 7.69061e-05
9 *113:8 5.10731e-05
10 *113:4 3.55798e-05
11 *544:A2 *544:A1 3.3921e-06
12 *544:A2 *120:12 1.5968e-06
13 *544:A2 *176:6 1.77209e-05
14 *113:10 *117:10 6.08189e-05
15 *113:10 *156:8 0.000112743
16 *113:10 *157:12 3.36331e-07
17 *113:10 *163:10 9.6346e-06
18 *113:10 *163:18 1.04812e-06
19 *113:10 *164:10 1.62383e-05
20 *113:16 *489:14 3.98541e-05
21 *113:22 *247:18 3.16603e-06
22 *113:22 *292:12 2.98693e-05
23 *113:22 *292:20 9.67723e-06
24 *113:22 *464:172 1.27445e-05
25 *113:22 *484:48 6.27545e-06
26 *113:35 *995:A 9.16822e-06
27 *113:35 *116:43 7.13691e-06
28 *113:35 *429:28 6.90847e-06
29 *113:35 *473:70 0
30 *113:41 *119:8 8.07092e-06
31 *113:41 *135:14 4.35405e-05
32 *113:41 *139:101 1.90426e-05
33 *113:41 *211:16 4.32593e-05
34 *113:41 *433:16 3.68526e-05
35 *113:41 *462:98 2.6575e-06
36 *990:A *113:16 4.15535e-06
37 *96:10 *113:10 9.86163e-06
38 *109:10 *113:10 2.98814e-08
39 *109:18 *113:10 0
40 *111:23 *113:10 1.13547e-05
*RES
1 *526:Y *113:4 17.2 
2 *113:4 *113:8 18.8045 
3 *113:8 *113:10 51.2481 
4 *113:10 *113:16 48.8403 
5 *113:16 *113:22 34.9662 
6 *113:22 *969:A 17.2 
7 *113:4 *113:35 49.2352 
8 *113:35 *113:41 42.5151 
9 *113:41 *544:A2 39.2134 
*END

*D_NET *114 0.000181307
*CONN
*I *533:A I *D AND5x2_ASAP7_75t_R
*I *527:Y O *D INVx1_ASAP7_75t_R
*CAP
1 *533:A 1.48427e-05
2 *527:Y 0
3 *114:10 4.43188e-05
4 *114:6 2.94761e-05
5 *533:A *439:77 1.35593e-05
6 *114:10 *120:8 1.29769e-05
7 *114:10 *120:23 1.19068e-05
8 *114:10 *122:14 3.81172e-06
9 *114:10 *130:38 3.89241e-06
10 *114:10 *131:30 1.47383e-05
11 *114:10 *131:41 1.59665e-05
12 *114:10 *139:95 3.26255e-06
13 *114:10 *211:14 1.93482e-06
14 *114:10 *417:26 3.65518e-06
15 *114:10 *462:98 1.80057e-06
16 *114:10 *483:108 5.16441e-06
17 *114:10 *506:87 0
*RES
1 *527:Y *114:6 34.4 
2 *114:6 *114:10 46.4846 
3 *114:10 *533:A 26.292 
*END

*D_NET *115 0.00057488
*CONN
*I *533:B I *D AND5x2_ASAP7_75t_R
*I *980:A I *D BUFx3_ASAP7_75t_R
*I *528:Y O *D INVx1_ASAP7_75t_R
*CAP
1 *533:B 5.26606e-06
2 *980:A 6.8703e-06
3 *528:Y 0
4 *115:43 2.17883e-05
5 *115:35 3.60253e-05
6 *115:18 6.83203e-05
7 *115:12 8.36743e-05
8 *115:4 4.17273e-05
9 *533:B *171:16 3.3921e-06
10 *980:A *418:16 8.20846e-06
11 *115:12 *158:16 1.3681e-05
12 *115:12 *164:10 1.36113e-05
13 *115:12 *428:35 1.75616e-05
14 *115:18 *211:30 7.54554e-06
15 *115:18 *412:30 5.7435e-05
16 *115:18 *425:12 0
17 *115:18 *425:22 0.000110842
18 *115:18 *486:59 3.74016e-08
19 *115:35 *1075:A 6.06409e-06
20 *115:35 *117:33 6.13296e-06
21 *115:35 *210:45 1.61303e-05
22 *115:35 *428:20 0
23 *115:43 *602:B 7.30711e-06
24 *115:43 *171:10 1.29603e-05
25 *115:43 *510:10 3.92018e-06
26 *48:10 *115:43 2.24447e-05
27 *59:10 *115:18 2.76514e-06
28 *112:25 *115:12 1.16945e-06
*RES
1 *528:Y *115:4 17.2 
2 *115:4 *115:12 46.3274 
3 *115:12 *115:18 42.69 
4 *115:18 *980:A 39.2134 
5 *115:4 *115:35 45.9147 
6 *115:35 *115:43 48.1674 
7 *115:43 *533:B 19.8741 
*END

*D_NET *116 0.000673627
*CONN
*I *533:C I *D AND5x2_ASAP7_75t_R
*I *979:A I *D BUFx3_ASAP7_75t_R
*I *529:Y O *D INVx1_ASAP7_75t_R
*CAP
1 *533:C 3.63532e-06
2 *979:A 0
3 *529:Y 3.61451e-05
4 *116:43 3.68545e-05
5 *116:41 4.37889e-05
6 *116:28 1.18936e-05
7 *116:24 3.73399e-05
8 *116:18 3.70529e-05
9 *116:14 2.31011e-05
10 *116:8 5.82093e-05
11 *533:C *533:E 6.7842e-07
12 *116:8 *504:26 9.01281e-06
13 *116:14 *117:31 5.01287e-06
14 *116:14 *211:101 2.83449e-06
15 *116:14 *427:48 1.182e-05
16 *116:14 *485:72 1.34329e-05
17 *116:18 *428:8 4.84588e-06
18 *116:28 *249:12 2.38942e-05
19 *116:28 *407:16 4.16547e-06
20 *116:28 *473:44 5.24622e-05
21 *116:41 *428:8 1.79936e-05
22 *116:43 *117:33 1.89747e-06
23 *116:43 *210:45 5.49558e-05
24 *116:43 *428:8 3.69262e-05
25 *116:43 *428:16 8.30225e-06
26 *116:43 *429:28 2.84943e-06
27 *116:43 *433:8 1.88468e-06
28 *116:43 *473:64 7.89306e-06
29 *116:43 *489:8 2.03326e-05
30 *116:43 *510:10 3.70528e-05
31 *791:D *116:14 3.65131e-06
32 *48:10 *116:43 5.98612e-07
33 *48:18 *116:18 4.83862e-06
34 *48:18 *116:41 1.93451e-05
35 *48:18 *116:43 2.9617e-06
36 *65:6 *116:8 1.84067e-05
37 *65:10 *116:8 1.04206e-05
38 *113:35 *116:43 7.13691e-06
*RES
1 *529:Y *116:8 48.8403 
2 *116:8 *116:14 34.1197 
3 *116:14 *116:18 18.8895 
4 *116:18 *116:24 45.6313 
5 *116:24 *116:28 34.6581 
6 *116:28 *979:A 17.2 
7 *116:18 *116:41 43.8321 
8 *116:41 *116:43 41.6743 
9 *116:43 *533:C 36.0045 
*END

*D_NET *117 0.000621128
*CONN
*I *533:D I *D AND5x2_ASAP7_75t_R
*I *978:A I *D BUFx3_ASAP7_75t_R
*I *530:Y O *D INVx1_ASAP7_75t_R
*CAP
1 *533:D 0
2 *978:A 1.68203e-05
3 *530:Y 0
4 *117:33 4.21365e-05
5 *117:31 5.86251e-05
6 *117:16 4.37329e-05
7 *117:10 5.75878e-05
8 *117:4 4.71638e-05
9 *978:A *416:12 1.21934e-06
10 *117:10 *777:B 4.79132e-07
11 *117:10 *154:14 0
12 *117:10 *485:57 7.50787e-06
13 *117:16 *147:47 8.39114e-05
14 *117:16 *274:52 3.69026e-06
15 *117:16 *292:45 9.19373e-06
16 *117:16 *505:14 2.84283e-05
17 *117:31 *530:A 0
18 *117:33 *596:B 3.17647e-06
19 *117:33 *157:35 1.18369e-05
20 *117:33 *170:10 6.68427e-06
21 *117:33 *210:45 1.26829e-06
22 *117:33 *211:101 6.99648e-05
23 *117:33 *277:22 1.88168e-06
24 *117:33 *425:30 7.28654e-06
25 *117:33 *425:41 2.04445e-05
26 *117:33 *427:48 1.49407e-08
27 *117:33 *428:16 1.30925e-05
28 *117:33 *489:8 6.14482e-06
29 *63:8 *978:A 4.33594e-06
30 *107:14 *117:16 6.37991e-07
31 *113:10 *117:10 6.08189e-05
32 *115:35 *117:33 6.13296e-06
33 *116:14 *117:31 5.01287e-06
34 *116:43 *117:33 1.89747e-06
*RES
1 *530:Y *117:4 17.2 
2 *117:4 *117:10 40.8051 
3 *117:10 *117:16 49.1178 
4 *117:16 *978:A 41.8787 
5 *117:4 *117:31 24.1527 
6 *117:31 *117:33 46.7428 
7 *117:33 *533:D 34.4 
*END

*D_NET *118 0.000407785
*CONN
*I *704:A2 I *D AO221x2_ASAP7_75t_R
*I *531:Y O *D BUFx2_ASAP7_75t_R
*CAP
1 *704:A2 3.65344e-06
2 *531:Y 0
3 *118:8 7.11826e-05
4 *118:6 6.75292e-05
5 *704:A2 *292:64 6.7842e-07
6 *118:8 *247:18 0.000140626
7 *118:8 *248:8 1.18371e-05
8 *118:8 *388:8 0
9 *118:8 *464:8 0
10 *118:8 *488:8 0.000112278
*RES
1 *531:Y *118:6 34.4 
2 *118:6 *118:8 80.5327 
3 *118:8 *704:A2 36.0045 
*END

*D_NET *119 0.000593343
*CONN
*I *977:A I *D BUFx3_ASAP7_75t_R
*I *533:E I *D AND5x2_ASAP7_75t_R
*I *532:Y O *D NOR2x1_ASAP7_75t_R
*CAP
1 *977:A 0
2 *533:E 2.76232e-05
3 *532:Y 0
4 *119:43 2.56394e-05
5 *119:39 5.39213e-05
6 *119:31 4.81684e-05
7 *119:16 4.80115e-05
8 *119:8 5.34752e-05
9 *119:4 5.29734e-05
10 *119:8 *131:49 7.66202e-06
11 *119:8 *139:101 4.83467e-05
12 *119:8 *407:24 2.93178e-05
13 *119:8 *473:44 3.05118e-08
14 *119:8 *488:24 1.138e-06
15 *119:16 *210:45 2.33833e-06
16 *119:16 *407:32 3.06466e-05
17 *119:16 *417:30 2.5993e-06
18 *119:16 *462:98 7.1989e-07
19 *119:16 *506:85 2.82542e-06
20 *119:16 *510:10 2.19482e-06
21 *119:31 *613:A1 2.0895e-06
22 *119:31 *249:12 1.48672e-05
23 *119:31 *407:16 9.51841e-07
24 *119:31 *407:24 8.2174e-07
25 *119:31 *473:44 4.22247e-05
26 *119:39 *705:B1 9.33789e-06
27 *119:39 *483:108 1.30336e-05
28 *119:43 *971:A 1.84022e-05
29 *119:43 *139:48 3.68565e-06
30 *119:43 *207:18 1.29186e-06
31 *119:43 *409:6 1.08167e-05
32 *119:43 *409:12 5.41446e-06
33 *533:C *533:E 6.7842e-07
34 *13:8 *119:43 2.40241e-05
35 *113:41 *119:8 8.07092e-06
*RES
1 *532:Y *119:4 17.2 
2 *119:4 *119:8 49.582 
3 *119:8 *119:16 42.1708 
4 *119:16 *533:E 46.701 
5 *119:4 *119:31 34.5164 
6 *119:31 *119:39 49.067 
7 *119:39 *119:43 36.9885 
8 *119:43 *977:A 17.2 
*END

*D_NET *120 0.000220771
*CONN
*I *613:A2 I *D AO21x2_ASAP7_75t_R
*I *544:A1 I *D AO211x2_ASAP7_75t_R
*I *533:Y O *D AND5x2_ASAP7_75t_R
*CAP
1 *613:A2 4.74954e-06
2 *544:A1 5.59417e-06
3 *533:Y 2.78847e-06
4 *120:23 2.38323e-05
5 *120:12 2.73979e-05
6 *120:8 5.50951e-06
7 *120:8 *462:98 4.70574e-06
8 *120:23 *131:30 2.5957e-05
9 *120:23 *131:41 1.45685e-05
10 *120:23 *462:83 2.29436e-05
11 *120:23 *462:98 5.2852e-05
12 *544:A2 *544:A1 3.3921e-06
13 *544:A2 *120:12 1.5968e-06
14 *114:10 *120:8 1.29769e-05
15 *114:10 *120:23 1.19068e-05
*RES
1 *533:Y *120:8 38.9053 
2 *120:8 *120:12 18.8045 
3 *120:12 *544:A1 19.8741 
4 *120:12 *120:23 43.1056 
5 *120:23 *613:A2 36.0045 
*END

*D_NET *121 0.000555717
*CONN
*I *538:C I *D OA211x2_ASAP7_75t_R
*I *539:B2 I *D AOI221x1_ASAP7_75t_R
*I *534:Y O *D AND2x2_ASAP7_75t_R
*CAP
1 *538:C 0
2 *539:B2 0
3 *534:Y 1.05382e-05
4 *121:51 1.58607e-05
5 *121:41 2.81996e-05
6 *121:28 1.46452e-05
7 *121:22 5.58489e-05
8 *121:16 8.81728e-05
9 *121:10 4.51683e-05
10 *121:10 *130:14 3.91179e-05
11 *121:10 *338:20 4.33879e-05
12 *121:16 *130:26 7.95715e-05
13 *121:16 *445:56 1.18649e-05
14 *121:22 *338:8 4.35576e-08
15 *121:22 *435:28 3.11132e-05
16 *121:28 *126:8 3.69948e-06
17 *121:28 *176:10 2.07915e-06
18 *121:41 *125:10 1.41724e-06
19 *121:41 *126:8 2.77616e-06
20 *121:41 *158:38 1.97946e-05
21 *121:41 *176:10 2.58598e-05
22 *121:51 *122:29 0
23 *121:51 *123:41 1.62289e-06
24 *121:51 *158:38 9.48077e-06
25 *121:51 *433:52 4.89215e-06
26 *35:25 *121:10 1.01999e-05
27 *41:18 *121:10 1.03619e-05
*RES
1 *534:Y *121:10 49.2919 
2 *121:10 *121:16 49.7671 
3 *121:16 *121:22 42.675 
4 *121:22 *121:28 37.2158 
5 *121:28 *539:B2 17.2 
6 *121:28 *121:41 48.3941 
7 *121:41 *121:51 45.2949 
8 *121:51 *538:C 17.2 
*END

*D_NET *122 0.00029119
*CONN
*I *603:A1 I *D OA21x2_ASAP7_75t_R
*I *538:A1 I *D OA211x2_ASAP7_75t_R
*I *535:Y O *D OR2x2_ASAP7_75t_R
*CAP
1 *603:A1 0
2 *538:A1 0
3 *535:Y 2.53984e-05
4 *122:29 1.7647e-05
5 *122:14 5.66166e-05
6 *122:8 6.4368e-05
7 *122:8 *739:B 6.1473e-07
8 *122:8 *139:95 8.13414e-06
9 *122:8 *139:101 2.76348e-05
10 *122:14 *123:28 1.03895e-05
11 *122:14 *130:38 8.44199e-06
12 *122:14 *139:95 9.16986e-06
13 *122:14 *182:8 2.90209e-08
14 *122:14 *284:18 1.85141e-06
15 *122:14 *417:26 5.75943e-07
16 *122:14 *433:35 1.01907e-05
17 *122:14 *439:77 4.64819e-06
18 *122:14 *506:87 3.53424e-06
19 *122:14 *506:121 1.49407e-08
20 *122:29 *603:A2 3.65131e-06
21 *122:29 *123:41 3.36331e-07
22 *122:29 *124:12 1.32601e-05
23 *122:29 *433:35 7.63254e-07
24 *122:29 *463:133 2.01079e-05
25 *114:10 *122:14 3.81172e-06
26 *121:51 *122:29 0
*RES
1 *535:Y *122:8 44.5617 
2 *122:8 *122:14 47.2142 
3 *122:14 *538:A1 17.2 
4 *122:14 *122:29 47.0411 
5 *122:29 *603:A1 17.2 
*END

*D_NET *123 0.000515773
*CONN
*I *603:A2 I *D OA21x2_ASAP7_75t_R
*I *538:A2 I *D OA211x2_ASAP7_75t_R
*I *536:Y O *D OA21x2_ASAP7_75t_R
*CAP
1 *603:A2 5.28237e-06
2 *538:A2 0
3 *536:Y 1.63653e-06
4 *123:41 2.4204e-05
5 *123:28 3.691e-06
6 *123:20 6.22981e-05
7 *123:18 4.25879e-05
8 *123:12 8.71767e-05
9 *123:8 8.59109e-05
10 *603:A2 *603:B 1.55843e-05
11 *603:A2 *124:12 3.89037e-06
12 *123:8 *134:8 1.02072e-05
13 *123:8 *211:76 9.94583e-06
14 *123:12 *581:A 2.03526e-06
15 *123:12 *595:A 1.07377e-06
16 *123:12 *595:B 2.71839e-06
17 *123:12 *595:C 5.39744e-05
18 *123:12 *1071:C 7.72307e-07
19 *123:12 *170:8 1.35684e-06
20 *123:12 *349:8 0
21 *123:12 *351:24 3.3921e-06
22 *123:18 *425:41 5.76364e-06
23 *123:20 *158:22 3.78859e-05
24 *123:20 *425:47 0
25 *123:28 *182:8 3.65131e-06
26 *123:28 *439:77 1.23016e-06
27 *123:28 *506:121 2.43887e-07
28 *123:41 *124:12 1.99802e-05
29 *123:41 *158:22 1.32796e-05
30 *123:41 *230:39 0
31 *121:51 *123:41 1.62289e-06
32 *122:14 *123:28 1.03895e-05
33 *122:29 *603:A2 3.65131e-06
34 *122:29 *123:41 3.36331e-07
*RES
1 *536:Y *123:8 37.779 
2 *123:8 *123:12 49.8243 
3 *123:12 *123:18 36.3711 
4 *123:18 *123:20 16.6657 
5 *123:20 *123:28 39.0169 
6 *123:28 *538:A2 17.2 
7 *123:20 *123:41 47.067 
8 *123:41 *603:A2 23.0831 
*END

*D_NET *124 9.25561e-05
*CONN
*I *603:B I *D OA21x2_ASAP7_75t_R
*I *538:B I *D OA211x2_ASAP7_75t_R
*I *537:Y O *D OA21x2_ASAP7_75t_R
*CAP
1 *603:B 3.52316e-06
2 *538:B 0
3 *537:Y 0
4 *124:12 7.6401e-06
5 *124:4 1.11633e-05
6 *124:12 *463:133 4.70422e-06
7 *603:A2 *603:B 1.55843e-05
8 *603:A2 *124:12 3.89037e-06
9 *44:18 *603:B 9.9223e-06
10 *44:18 *124:12 2.88806e-06
11 *122:29 *124:12 1.32601e-05
12 *123:41 *124:12 1.99802e-05
*RES
1 *537:Y *124:4 17.2 
2 *124:4 *124:12 44.4236 
3 *124:12 *538:B 17.2 
4 *124:4 *603:B 24.1527 
*END

*D_NET *125 9.03162e-05
*CONN
*I *539:C I *D AOI221x1_ASAP7_75t_R
*I *538:Y O *D OA211x2_ASAP7_75t_R
*CAP
1 *539:C 0
2 *538:Y 1.02642e-05
3 *125:10 1.02642e-05
4 *125:10 *158:38 1.32074e-05
5 *125:10 *176:10 2.30418e-05
6 *125:10 *176:14 5.85387e-06
7 *125:10 *230:39 2.62675e-05
8 *121:41 *125:10 1.41724e-06
*RES
1 *538:Y *125:10 47.1544 
2 *125:10 *539:C 34.4 
*END

*D_NET *126 0.000124026
*CONN
*I *544:C I *D AO211x2_ASAP7_75t_R
*I *1065:A I *D BUFx3_ASAP7_75t_R
*I *539:Y O *D AOI221x1_ASAP7_75t_R
*CAP
1 *544:C 5.1602e-06
2 *1065:A 2.11561e-05
3 *539:Y 1.38129e-05
4 *126:8 4.01291e-05
5 *544:C *130:32 9.56006e-06
6 *544:C *176:6 9.56006e-06
7 *1065:A *131:12 1.28257e-05
8 *1065:A *176:10 5.06311e-07
9 *1065:A *230:37 6.7842e-07
10 *1065:A *230:39 0
11 *1065:A *417:18 4.9137e-07
12 *126:8 *176:10 7.93842e-07
13 *126:8 *417:18 5.33881e-07
14 *126:8 *433:41 2.3426e-06
15 *121:28 *126:8 3.69948e-06
16 *121:41 *126:8 2.77616e-06
*RES
1 *539:Y *126:8 45.6633 
2 *126:8 *1065:A 47.0977 
3 *126:8 *544:C 40.2831 
*END

*D_NET *127 0.000282274
*CONN
*I *699:A2 I *D AO21x1_ASAP7_75t_R
*I *540:Y O *D BUFx2_ASAP7_75t_R
*CAP
1 *699:A2 2.51761e-06
2 *540:Y 1.02559e-05
3 *127:10 0.000120204
4 *127:8 0.000127942
5 *699:A2 *699:B 5.85387e-06
6 *699:A2 *244:10 6.7842e-07
7 *127:8 *540:A 1.76928e-06
8 *127:10 *244:10 4.59644e-06
9 *127:10 *310:13 0
10 *127:10 *313:13 0
11 *127:10 *379:10 0
12 *127:10 *424:42 0
13 *127:10 *424:46 0
14 *127:10 *464:37 8.45637e-06
15 *127:10 *464:43 0
*RES
1 *540:Y *127:8 39.2134 
2 *127:8 *127:10 95.7382 
3 *127:10 *699:A2 36.0045 
*END

*D_NET *128 0.000272677
*CONN
*I *542:A2 I *D OA21x2_ASAP7_75t_R
*I *627:C I *D OA211x2_ASAP7_75t_R
*I *541:Y O *D OA21x2_ASAP7_75t_R
*CAP
1 *542:A2 4.95075e-06
2 *627:C 8.77494e-06
3 *541:Y 0
4 *128:33 2.43759e-05
5 *128:20 4.97343e-05
6 *128:12 4.72559e-05
7 *128:4 2.57217e-05
8 *627:C *197:10 4.32973e-06
9 *627:C *197:27 3.3921e-06
10 *627:C *445:27 1.4939e-05
11 *128:12 *130:8 0
12 *128:12 *202:14 4.97876e-07
13 *128:12 *285:28 4.41181e-06
14 *128:20 *197:27 2.95693e-06
15 *128:20 *446:10 2.78959e-06
16 *128:20 *486:41 0
17 *128:33 *130:8 0
18 *128:33 *285:28 4.73129e-05
19 *128:33 *421:18 8.10464e-06
20 *30:18 *128:33 1.95023e-05
21 *32:26 *128:12 3.62704e-06
*RES
1 *541:Y *128:4 17.2 
2 *128:4 *128:12 39.4773 
3 *128:12 *128:20 48.8516 
4 *128:20 *627:C 23.6179 
5 *128:4 *128:33 36.2059 
6 *128:33 *542:A2 36.5393 
*END

*D_NET *129 7.47892e-05
*CONN
*I *543:A2 I *D OAI21x1_ASAP7_75t_R
*I *542:Y O *D OA21x2_ASAP7_75t_R
*CAP
1 *543:A2 5.17496e-06
2 *542:Y 1.74382e-05
3 *129:8 2.26132e-05
4 *129:8 *137:12 9.48496e-06
5 *129:8 *205:10 6.10236e-08
6 *129:8 *397:31 0
7 *129:8 *421:62 6.94376e-06
8 *129:8 *486:43 1.0899e-06
9 *129:8 *513:12 9.4492e-06
10 *26:10 *129:8 5.82688e-07
11 *27:22 *543:A2 1.95129e-06
*RES
1 *542:Y *129:8 48.4791 
2 *129:8 *543:A2 37.0741 
*END

*D_NET *130 0.000616106
*CONN
*I *676:A I *D INVx1_ASAP7_75t_R
*I *544:B I *D AO211x2_ASAP7_75t_R
*I *543:Y O *D OAI21x1_ASAP7_75t_R
*CAP
1 *676:A 0
2 *544:B 0
3 *543:Y 1.42152e-05
4 *130:38 1.28485e-06
5 *130:32 9.69103e-05
6 *130:30 0.000101873
7 *130:26 4.80251e-05
8 *130:20 4.33895e-05
9 *130:14 5.65063e-05
10 *130:8 6.91095e-05
11 *130:14 *202:14 1.28682e-05
12 *130:14 *204:22 5.13209e-07
13 *130:14 *285:28 7.36391e-07
14 *130:14 *338:20 3.23659e-06
15 *130:20 *446:10 3.88042e-07
16 *130:26 *338:8 0
17 *130:26 *445:56 1.92889e-06
18 *130:26 *462:52 5.48616e-06
19 *130:30 *678:B 2.48065e-06
20 *130:32 *678:B 5.65766e-06
21 *130:32 *737:B 2.90269e-07
22 *130:32 *131:74 0
23 *130:32 *176:6 4.72696e-06
24 *544:C *130:32 9.56006e-06
25 *41:12 *130:14 3.12984e-06
26 *41:18 *130:20 2.76514e-06
27 *114:10 *130:38 3.89241e-06
28 *121:10 *130:14 3.91179e-05
29 *121:16 *130:26 7.95715e-05
30 *122:14 *130:38 8.44199e-06
31 *128:12 *130:8 0
32 *128:33 *130:8 0
*RES
1 *543:Y *130:8 40.2831 
2 *130:8 *130:14 45.6061 
3 *130:14 *130:20 35.4325 
4 *130:20 *130:26 34.2489 
5 *130:26 *130:30 19.8741 
6 *130:30 *130:32 34.7636 
7 *130:32 *130:38 37.2158 
8 *130:38 *544:B 17.2 
9 *130:30 *676:A 17.2 
*END

*D_NET *131 0.000623022
*CONN
*I *658:A I *D AND3x4_ASAP7_75t_R
*I *737:A1 I *D AO21x2_ASAP7_75t_R
*I *739:A1 I *D AO21x2_ASAP7_75t_R
*I *1075:A I *D BUFx3_ASAP7_75t_R
*I *966:A I *D BUFx6f_ASAP7_75t_R
*I *544:Y O *D AO211x2_ASAP7_75t_R
*CAP
1 *658:A 0
2 *737:A1 0
3 *739:A1 0
4 *1075:A 2.88124e-05
5 *966:A 0
6 *544:Y 0
7 *131:74 1.68613e-05
8 *131:63 2.15709e-05
9 *131:49 4.6378e-05
10 *131:41 2.43216e-05
11 *131:30 2.70265e-05
12 *131:24 3.9861e-05
13 *131:18 3.09515e-05
14 *131:12 4.3874e-05
15 *131:4 2.37106e-05
16 *1075:A *535:A 2.03526e-06
17 *1075:A *428:20 2.11853e-06
18 *131:12 *176:6 1.84581e-05
19 *131:12 *230:39 0
20 *131:12 *417:18 2.08535e-06
21 *131:12 *486:57 3.05118e-08
22 *131:18 *1048:A 5.54065e-06
23 *131:18 *276:8 3.56177e-06
24 *131:18 *483:108 7.45606e-06
25 *131:18 *506:87 7.45606e-06
26 *131:24 *211:6 5.62196e-06
27 *131:24 *211:14 1.32074e-05
28 *131:24 *409:16 2.71839e-06
29 *131:30 *705:B1 1.62517e-06
30 *131:30 *277:33 9.39348e-06
31 *131:30 *462:83 1.1211e-07
32 *131:30 *463:125 1.24454e-05
33 *131:30 *473:44 5.49212e-07
34 *131:30 *483:108 2.98814e-07
35 *131:30 *500:22 1.68025e-06
36 *131:49 *139:101 1.04475e-06
37 *131:49 *407:24 8.00328e-06
38 *131:63 *176:6 6.39911e-06
39 *131:74 *139:75 4.41654e-05
40 *131:74 *230:31 1.12894e-06
41 *131:74 *230:39 1.91759e-05
42 *131:74 *500:10 1.95009e-05
43 *1065:A *131:12 1.28257e-05
44 *39:30 *131:24 2.40241e-05
45 *48:16 *1075:A 2.03526e-06
46 *114:10 *131:30 1.47383e-05
47 *114:10 *131:41 1.59665e-05
48 *115:35 *1075:A 6.06409e-06
49 *119:8 *131:49 7.66202e-06
50 *120:23 *131:30 2.5957e-05
51 *120:23 *131:41 1.45685e-05
52 *130:32 *131:74 0
*RES
1 *544:Y *131:4 17.2 
2 *131:4 *131:12 45.9714 
3 *131:12 *131:18 34.1197 
4 *131:18 *131:24 41.3527 
5 *131:24 *131:30 37.2756 
6 *131:30 *966:A 17.2 
7 *131:24 *131:41 24.4361 
8 *131:41 *131:49 44.1686 
9 *131:49 *1075:A 32.7099 
10 *131:41 *739:A1 17.2 
11 *131:4 *131:63 2.67412 
12 *131:63 *737:A1 17.2 
13 *131:63 *131:74 35.0796 
14 *131:74 *658:A 34.4 
*END

*D_NET *132 0.000496001
*CONN
*I *553:A I *D AND4x1_ASAP7_75t_R
*I *545:Y O *D AND4x1_ASAP7_75t_R
*CAP
1 *553:A 1.19231e-05
2 *545:Y 5.36344e-06
3 *132:16 3.38696e-05
4 *132:10 7.24315e-05
5 *132:8 5.58485e-05
6 *553:A *402:8 3.82984e-06
7 *553:A *436:55 0
8 *553:A *487:58 3.36331e-07
9 *132:8 *451:25 3.65131e-06
10 *132:10 *541:A2 2.99383e-06
11 *132:10 *200:12 1.34605e-05
12 *132:10 *201:14 4.15123e-05
13 *132:10 *204:10 1.32544e-05
14 *132:10 *204:22 5.17584e-06
15 *132:10 *211:149 1.23427e-05
16 *132:10 *211:157 3.23787e-06
17 *132:10 *211:166 0.000172117
18 *132:10 *338:24 3.05118e-08
19 *132:10 *447:40 1.64764e-06
20 *132:16 *211:145 7.15685e-06
21 *32:12 *132:10 0
22 *35:10 *553:A 3.58184e-05
*RES
1 *545:Y *132:8 37.0741 
2 *132:8 *132:10 62.5114 
3 *132:10 *132:16 42.4224 
4 *132:16 *553:A 46.7897 
*END

*D_NET *133 0.000242939
*CONN
*I *553:B I *D AND4x1_ASAP7_75t_R
*I *546:Y O *D AND4x1_ASAP7_75t_R
*CAP
1 *553:B 0
2 *546:Y 1.84839e-05
3 *133:30 1.64441e-05
4 *133:22 4.07735e-05
5 *133:16 4.28616e-05
6 *133:10 3.70161e-05
7 *133:10 *477:33 5.62196e-06
8 *133:10 *477:41 1.94229e-07
9 *133:10 *478:16 3.04626e-06
10 *133:16 *785:CLK 3.3547e-05
11 *133:22 *139:22 8.73959e-06
12 *133:22 *140:8 3.68287e-06
13 *133:22 *449:8 1.66706e-05
14 *133:22 *463:207 5.28509e-06
15 *133:30 *139:22 1.40419e-08
16 *133:30 *486:19 3.05118e-08
17 *133:30 *491:33 0
18 *36:25 *133:22 3.05118e-08
19 *36:33 *133:22 2.11853e-06
20 *38:31 *133:30 8.37888e-06
21 *70:25 *133:10 0
*RES
1 *546:Y *133:10 46.1415 
2 *133:10 *133:16 44.5617 
3 *133:16 *133:22 35.1326 
4 *133:22 *133:30 42.5641 
5 *133:30 *553:B 17.2 
*END

*D_NET *134 0.000351716
*CONN
*I *548:E I *D AND5x1_ASAP7_75t_R
*I *547:Y O *D AND4x1_ASAP7_75t_R
*CAP
1 *548:E 4.45946e-06
2 *547:Y 0
3 *134:16 1.79377e-05
4 *134:8 4.81435e-05
5 *134:6 3.46652e-05
6 *548:E *548:D 7.14604e-06
7 *548:E *472:41 5.62196e-06
8 *134:8 *211:64 5.64295e-05
9 *134:8 *211:76 7.34814e-06
10 *134:8 *347:14 1.14973e-05
11 *134:8 *351:18 8.04271e-05
12 *134:8 *418:37 9.81516e-06
13 *134:8 *424:70 1.89125e-06
14 *134:8 *474:19 2.93428e-06
15 *134:16 *347:8 1.32196e-05
16 *134:16 *472:41 2.68255e-06
17 *56:22 *134:8 1.66587e-05
18 *62:25 *134:16 1.96892e-05
19 *110:18 *134:16 9.41947e-07
20 *123:8 *134:8 1.02072e-05
*RES
1 *547:Y *134:6 34.4 
2 *134:6 *134:8 41.6743 
3 *134:8 *134:16 44.9018 
4 *134:16 *548:E 38.1438 
*END

*D_NET *135 0.000654972
*CONN
*I *553:C I *D AND4x1_ASAP7_75t_R
*I *548:Y O *D AND5x1_ASAP7_75t_R
*CAP
1 *553:C 0
2 *548:Y 1.55561e-05
3 *135:20 1.7226e-06
4 *135:14 0.000147226
5 *135:12 0.000150088
6 *135:8 2.01403e-05
7 *135:8 *548:D 9.22553e-06
8 *135:8 *593:A 9.08513e-06
9 *135:8 *473:70 2.21643e-05
10 *135:12 *164:10 5.21627e-06
11 *135:14 *210:41 2.46851e-06
12 *135:14 *211:16 1.58556e-05
13 *135:14 *211:20 1.22034e-05
14 *135:14 *211:126 7.36727e-05
15 *135:14 *277:22 0
16 *135:14 *429:12 2.10696e-06
17 *135:14 *462:79 2.03479e-05
18 *135:14 *486:15 4.39685e-05
19 *135:14 *486:59 0
20 *135:14 *487:62 2.17492e-05
21 *135:14 *506:91 0
22 *135:20 *211:145 6.60103e-06
23 *135:20 *436:8 6.60103e-06
24 *580:A1 *135:12 1.12894e-06
25 *109:29 *135:12 2.28839e-06
26 *110:30 *135:8 2.20146e-05
27 *113:41 *135:14 4.35405e-05
*RES
1 *548:Y *135:8 47.7706 
2 *135:8 *135:12 21.7992 
3 *135:12 *135:14 62.767 
4 *135:14 *135:20 36.7465 
5 *135:20 *553:C 17.2 
*END

*D_NET *136 0.00017819
*CONN
*I *552:A2 I *D AOI21x1_ASAP7_75t_R
*I *549:Y O *D AO21x1_ASAP7_75t_R
*CAP
1 *552:A2 2.65128e-06
2 *549:Y 1.52318e-05
3 *136:18 3.28406e-05
4 *136:10 4.54212e-05
5 *552:A2 *450:6 1.00777e-05
6 *552:A2 *482:94 4.0942e-06
7 *136:10 *549:A2 1.40419e-08
8 *136:10 *461:85 0
9 *136:10 *512:10 2.05929e-06
10 *136:18 *338:39 0
11 *136:18 *487:98 1.80989e-06
12 *27:41 *136:10 4.20951e-06
13 *40:10 *136:10 1.02642e-06
14 *40:14 *136:18 5.87541e-05
*RES
1 *549:Y *136:10 42.4702 
2 *136:10 *136:18 47.1776 
3 *136:18 *552:A2 37.0741 
*END

*D_NET *137 0.000344465
*CONN
*I *551:D I *D AND4x1_ASAP7_75t_R
*I *630:A2 I *D AO221x1_ASAP7_75t_R
*I *550:Y O *D AO21x1_ASAP7_75t_R
*CAP
1 *551:D 0
2 *630:A2 3.09689e-05
3 *550:Y 9.43244e-06
4 *137:14 3.31332e-05
5 *137:12 3.59325e-05
6 *137:8 4.32006e-05
7 *630:A2 *630:A1 3.65131e-06
8 *630:A2 *421:43 2.10248e-05
9 *630:A2 *447:18 1.01813e-05
10 *137:8 *550:B 2.13304e-06
11 *137:12 *138:10 0
12 *137:12 *139:18 1.20232e-05
13 *137:12 *397:31 0
14 *137:12 *421:62 3.59004e-06
15 *551:B *630:A2 1.29877e-05
16 *551:B *137:14 1.2768e-05
17 *769:A *137:12 8.45554e-07
18 *1078:A *630:A2 4.07069e-05
19 *27:22 *137:12 2.19685e-06
20 *29:6 *630:A2 1.29877e-05
21 *29:6 *137:14 1.10364e-05
22 *29:8 *630:A2 7.58545e-06
23 *40:22 *137:12 1.4426e-05
24 *41:8 *137:12 5.2641e-06
25 *73:8 *137:12 8.9045e-06
26 *129:8 *137:12 9.48496e-06
*RES
1 *550:Y *137:8 37.609 
2 *137:8 *137:12 48.1741 
3 *137:12 *137:14 3.74377 
4 *137:14 *630:A2 43.4064 
5 *137:14 *551:D 17.2 
*END

*D_NET *138 0.000262276
*CONN
*I *552:B I *D AOI21x1_ASAP7_75t_R
*I *551:Y O *D AND4x1_ASAP7_75t_R
*CAP
1 *552:B 0
2 *551:Y 1.56381e-05
3 *138:22 3.12316e-05
4 *138:16 4.32481e-05
5 *138:10 2.76546e-05
6 *138:10 *397:31 1.2903e-05
7 *138:16 *209:22 1.3659e-05
8 *138:16 *441:85 4.39764e-05
9 *138:22 *749:A1 4.74168e-08
10 *138:22 *139:10 1.78906e-05
11 *138:22 *339:24 0
12 *138:22 *450:6 8.22078e-06
13 *138:22 *450:10 2.05574e-06
14 *138:22 *450:25 4.83914e-06
15 *138:22 *482:105 1.29559e-06
16 *27:14 *138:16 1.13731e-05
17 *27:14 *138:22 7.31605e-06
18 *27:22 *138:10 6.33206e-07
19 *29:6 *138:10 1.96943e-05
20 *42:6 *138:22 5.98994e-07
21 *137:12 *138:10 0
*RES
1 *551:Y *138:10 44.7884 
2 *138:10 *138:16 46.701 
3 *138:16 *138:22 37.612 
4 *138:22 *552:B 17.2 
*END

*D_NET *139 0.00159363
*CONN
*I *553:D I *D AND4x1_ASAP7_75t_R
*I *737:A2 I *D AO21x2_ASAP7_75t_R
*I *739:A2 I *D AO21x2_ASAP7_75t_R
*I *1071:B I *D AND3x4_ASAP7_75t_R
*I *658:B I *D AND3x4_ASAP7_75t_R
*I *971:A I *D BUFx3_ASAP7_75t_R
*I *972:A I *D BUFx3_ASAP7_75t_R
*I *552:Y O *D AOI21x1_ASAP7_75t_R
*CAP
1 *553:D 0
2 *737:A2 2.49569e-06
3 *739:A2 0
4 *1071:B 1.62614e-05
5 *658:B 0
6 *971:A 5.56788e-06
7 *972:A 6.11788e-06
8 *552:Y 1.93029e-05
9 *139:109 3.10524e-05
10 *139:101 4.89643e-05
11 *139:95 4.23011e-05
12 *139:89 3.10102e-05
13 *139:83 5.24913e-05
14 *139:75 4.65e-05
15 *139:48 1.89543e-05
16 *139:40 4.33022e-05
17 *139:34 3.77992e-05
18 *139:24 0.000125695
19 *139:22 0.000147052
20 *139:18 7.19878e-05
21 *139:14 5.94289e-05
22 *139:10 5.53974e-05
23 *737:A2 *207:55 1.94252e-06
24 *737:A2 *230:39 3.78214e-06
25 *737:A2 *415:8 2.08284e-06
26 *971:A *207:18 2.66992e-06
27 *972:A *230:10 0
28 *972:A *461:56 1.63901e-05
29 *1071:B *443:66 1.05315e-06
30 *139:10 *482:78 8.66929e-06
31 *139:18 *667:B 3.17951e-05
32 *139:18 *421:62 5.16902e-07
33 *139:18 *463:207 0
34 *139:18 *478:10 3.88459e-07
35 *139:22 *667:A2 3.16328e-06
36 *139:22 *140:8 3.68287e-06
37 *139:22 *449:8 2.03412e-05
38 *139:24 *1049:A 5.19552e-07
39 *139:24 *185:25 7.37131e-06
40 *139:24 *487:12 2.01337e-05
41 *139:24 *487:58 6.0363e-05
42 *139:34 *1049:A 2.55481e-06
43 *139:34 *230:31 8.36476e-06
44 *139:34 *500:10 7.94335e-06
45 *139:40 *1049:A 3.56648e-06
46 *139:40 *210:26 5.63883e-06
47 *139:40 *211:122 1.08634e-05
48 *139:40 *230:10 3.34798e-05
49 *139:40 *230:31 1.03772e-05
50 *139:40 *277:56 6.10236e-08
51 *139:40 *484:309 4.34638e-05
52 *139:48 *207:14 1.96943e-05
53 *139:48 *207:18 2.31575e-05
54 *139:48 *230:10 8.06436e-06
55 *139:48 *484:309 8.33296e-06
56 *139:75 *207:55 1.94302e-05
57 *139:75 *500:10 1.85628e-06
58 *139:83 *417:18 1.83502e-06
59 *139:83 *486:15 0
60 *139:83 *486:59 1.57646e-06
61 *139:89 *176:6 4.2691e-05
62 *139:95 *739:B 9.425e-07
63 *139:101 *609:A 6.72662e-07
64 *139:101 *172:17 0
65 *139:101 *433:16 1.45498e-05
66 *139:101 *462:102 1.2232e-05
67 *139:101 *488:24 1.49407e-08
68 *139:109 *171:18 7.95021e-06
69 *139:109 *433:26 3.3921e-06
70 *139:109 *443:66 2.20493e-06
71 *784:D *139:14 9.75645e-06
72 *19:8 *139:14 4.97209e-06
73 *22:12 *972:A 0
74 *36:33 *139:22 0
75 *40:22 *139:18 2.19685e-06
76 *48:10 *139:109 8.23647e-06
77 *73:8 *139:18 5.45505e-06
78 *113:41 *139:101 1.90426e-05
79 *114:10 *139:95 3.26255e-06
80 *119:8 *139:101 4.83467e-05
81 *119:43 *971:A 1.84022e-05
82 *119:43 *139:48 3.68565e-06
83 *122:8 *139:95 8.13414e-06
84 *122:8 *139:101 2.76348e-05
85 *122:14 *139:95 9.16986e-06
86 *131:49 *139:101 1.04475e-06
87 *131:74 *139:75 4.41654e-05
88 *133:22 *139:22 8.73959e-06
89 *133:30 *139:22 1.40419e-08
90 *137:12 *139:18 1.20232e-05
91 *138:22 *139:10 1.78906e-05
*RES
1 *552:Y *139:10 47.0977 
2 *139:10 *139:14 36.9885 
3 *139:14 *139:18 35.7845 
4 *139:18 *139:22 40.7323 
5 *139:22 *139:24 47.0646 
6 *139:24 *139:34 42.5641 
7 *139:34 *139:40 44.6534 
8 *139:40 *139:48 49.5168 
9 *139:48 *972:A 40.0317 
10 *139:40 *971:A 39.7482 
11 *139:34 *658:B 17.2 
12 *139:24 *139:75 34.752 
13 *139:75 *139:83 42.6324 
14 *139:83 *139:89 45.6313 
15 *139:89 *139:95 23.8446 
16 *139:95 *139:101 48.3405 
17 *139:101 *139:109 44.1686 
18 *139:109 *1071:B 42.4224 
19 *139:95 *739:A2 17.2 
20 *139:75 *737:A2 38.2483 
21 *139:22 *553:D 17.2 
*END

*D_NET *140 0.00072218
*CONN
*I *561:C I *D AND3x1_ASAP7_75t_R
*I *555:A2 I *D AO21x1_ASAP7_75t_R
*I *553:Y O *D AND4x1_ASAP7_75t_R
*CAP
1 *561:C 0
2 *555:A2 0
3 *553:Y 7.01999e-07
4 *140:33 2.00922e-05
5 *140:24 1.98616e-05
6 *140:14 0.000124999
7 *140:12 0.000122321
8 *140:8 3.79783e-05
9 *140:12 *214:22 9.20239e-06
10 *140:12 *300:37 2.56817e-05
11 *140:12 *337:12 4.66823e-06
12 *140:12 *337:25 3.76935e-06
13 *140:12 *337:29 5.49212e-07
14 *140:12 *436:8 2.18135e-06
15 *140:12 *491:14 1.84847e-05
16 *140:12 *491:33 2.55866e-06
17 *140:14 *208:39 4.4382e-06
18 *140:14 *449:30 0.000113333
19 *140:14 *449:34 4.32593e-05
20 *140:14 *461:60 0
21 *140:24 *555:A1 5.19475e-06
22 *140:24 *246:8 5.88556e-06
23 *140:24 *277:33 2.71466e-06
24 *140:24 *417:14 1.40879e-06
25 *140:33 *208:8 6.10236e-07
26 *140:33 *378:39 1.30795e-06
27 *140:33 *484:305 1.2102e-06
28 *13:10 *140:33 4.79114e-05
29 *22:14 *140:14 4.28137e-05
30 *22:14 *140:24 4.37815e-05
31 *34:10 *140:12 2.84374e-06
32 *38:31 *140:12 5.05114e-06
33 *38:37 *140:14 0
34 *133:22 *140:8 3.68287e-06
35 *139:22 *140:8 3.68287e-06
*RES
1 *553:Y *140:8 35.4697 
2 *140:8 *140:12 49.9575 
3 *140:12 *140:14 38.7424 
4 *140:14 *140:24 45.7386 
5 *140:24 *555:A2 17.2 
6 *140:14 *140:33 34.0011 
7 *140:33 *561:C 34.4 
*END

*D_NET *141 7.42258e-05
*CONN
*I *661:A2 I *D AO21x1_ASAP7_75t_R
*I *554:Y O *D BUFx2_ASAP7_75t_R
*CAP
1 *661:A2 0
2 *554:Y 2.05602e-05
3 *141:6 2.05602e-05
4 *141:6 *554:A 2.25106e-05
5 *141:6 *147:97 3.89037e-06
6 *141:6 *214:6 6.70433e-06
*RES
1 *554:Y *141:6 33.7796 
2 *141:6 *661:A2 17.2 
*END

*D_NET *142 0.000146718
*CONN
*I *556:B I *D OA21x2_ASAP7_75t_R
*I *555:Y O *D AO21x1_ASAP7_75t_R
*CAP
1 *556:B 1.48246e-05
2 *555:Y 2.88507e-05
3 *142:10 4.36753e-05
4 *556:B *556:A2 1.66584e-05
5 *556:B *655:A2 5.41446e-06
6 *556:B *484:305 5.85387e-06
7 *142:10 *555:B 6.7842e-07
8 *142:10 *655:A2 2.90209e-08
9 *142:10 *404:37 2.11853e-06
10 *142:10 *409:27 8.14898e-06
11 *142:10 *483:97 3.3921e-06
12 *556:A1 *556:B 1.2768e-05
13 *13:10 *142:10 3.62704e-06
14 *22:6 *556:B 6.7842e-07
*RES
1 *555:Y *142:10 47.3775 
2 *142:10 *556:B 45.6313 
*END

*D_NET *143 0.00017214
*CONN
*I *557:B I *D NOR2x1_ASAP7_75t_R
*I *556:Y O *D OA21x2_ASAP7_75t_R
*CAP
1 *557:B 8.67746e-06
2 *556:Y 0
3 *143:10 4.03235e-05
4 *143:6 3.1646e-05
5 *143:10 *679:A1 8.23647e-06
6 *143:10 *364:8 7.53559e-06
7 *143:10 *461:54 1.48539e-05
8 *143:10 *461:56 3.61626e-06
9 *1045:A *143:10 1.43405e-05
10 *3:8 *557:B 1.60115e-05
11 *3:12 *143:10 3.27202e-06
12 *20:10 *143:10 2.36271e-05
13 *106:25 *143:10 0
*RES
1 *556:Y *143:6 34.4 
2 *143:6 *143:10 47.0478 
3 *143:10 *557:B 23.0831 
*END

*D_NET *144 0.000161785
*CONN
*I *1025:A I *D BUFx3_ASAP7_75t_R
*I *559:B I *D NOR2x1_ASAP7_75t_R
*I *558:Y O *D NAND2x1_ASAP7_75t_R
*CAP
1 *1025:A 9.21534e-06
2 *559:B 9.26272e-06
3 *558:Y 9.26831e-06
4 *144:29 4.20935e-05
5 *144:10 5.14092e-05
6 *559:B *567:B1 1.31716e-05
7 *559:B *482:12 6.86929e-06
8 *144:10 *558:B 0
9 *144:10 *567:B1 8.33296e-06
10 *144:10 *230:18 3.05118e-08
11 *144:10 *378:10 5.52807e-07
12 *144:29 *567:A2 1.52651e-06
13 *144:29 *567:B1 2.71839e-06
14 *144:29 *377:12 3.16603e-06
15 *144:29 *377:20 1.52651e-06
16 *1:8 *1025:A 2.6409e-06
17 *1:8 *144:29 0
18 *21:12 *559:B 0
19 *21:12 *144:10 0
*RES
1 *558:Y *144:10 41.073 
2 *144:10 *559:B 43.7188 
3 *144:10 *144:29 49.5168 
4 *144:29 *1025:A 40.2831 
*END

*D_NET *145 0.00026498
*CONN
*I *1024:A I *D BUFx3_ASAP7_75t_R
*I *654:B I *D NAND2x1_ASAP7_75t_R
*I *560:Y O *D INVx1_ASAP7_75t_R
*CAP
1 *1024:A 6.32188e-06
2 *654:B 0
3 *560:Y 2.5177e-05
4 *145:22 2.35993e-05
5 *145:16 4.20406e-05
6 *145:10 3.72964e-05
7 *1024:A *452:8 1.31727e-05
8 *1024:A *462:22 1.43399e-05
9 *1024:A *462:37 3.04043e-06
10 *1024:A *463:172 6.10236e-08
11 *145:10 *679:A1 5.19552e-07
12 *145:10 *679:A2 4.92332e-06
13 *145:10 *213:8 8.07019e-06
14 *145:10 *229:8 7.5985e-06
15 *145:10 *461:35 6.7842e-07
16 *145:16 *1014:A 9.31704e-06
17 *145:16 *1053:A 2.01337e-05
18 *145:22 *207:8 2.97289e-06
19 *145:22 *287:18 3.05118e-08
20 *145:22 *463:164 3.81335e-05
21 *145:22 *463:172 3.22044e-06
22 *145:22 *482:16 4.33281e-06
*RES
1 *560:Y *145:10 46.3079 
2 *145:10 *145:16 43.492 
3 *145:16 *145:22 38.9367 
4 *145:22 *654:B 17.2 
5 *145:16 *1024:A 41.158 
*END

*D_NET *146 0.000226286
*CONN
*I *566:A1 I *D OA21x2_ASAP7_75t_R
*I *561:Y O *D AND3x1_ASAP7_75t_R
*CAP
1 *566:A1 0
2 *561:Y 3.31085e-05
3 *146:14 2.15021e-05
4 *146:8 5.46106e-05
5 *146:8 *564:A2 6.7842e-07
6 *146:8 *378:39 4.35248e-05
7 *146:14 *147:51 8.17262e-06
8 *146:14 *147:57 2.20028e-06
9 *146:14 *246:8 5.09657e-05
10 *146:14 *292:58 5.50799e-06
11 *146:14 *484:16 1.27782e-06
12 *21:31 *146:14 4.73699e-06
*RES
1 *561:Y *146:8 48.8403 
2 *146:8 *146:14 37.8671 
3 *146:14 *566:A1 17.2 
*END

*D_NET *147 0.00331319
*CONN
*I *723:B I *D AO21x1_ASAP7_75t_R
*I *711:B I *D AO21x1_ASAP7_75t_R
*I *564:A2 I *D AOI21x1_ASAP7_75t_R
*I *689:B I *D NAND2x1_ASAP7_75t_R
*I *687:A2 I *D AOI22x1_ASAP7_75t_R
*I *690:B I *D AO21x1_ASAP7_75t_R
*I *694:B I *D NAND2x1_ASAP7_75t_R
*I *695:B I *D AO21x1_ASAP7_75t_R
*I *665:B I *D AO21x1_ASAP7_75t_R
*I *661:B I *D AO21x1_ASAP7_75t_R
*I *672:A2 I *D AOI22x1_ASAP7_75t_R
*I *679:B I *D AO21x1_ASAP7_75t_R
*I *707:B I *D AO21x1_ASAP7_75t_R
*I *562:Y O *D AND2x2_ASAP7_75t_R
*CAP
1 *723:B 0
2 *711:B 0
3 *564:A2 3.29518e-06
4 *689:B 0
5 *687:A2 0
6 *690:B 4.93115e-06
7 *694:B 2.23539e-06
8 *695:B 0
9 *665:B 3.21034e-06
10 *661:B 0
11 *672:A2 0
12 *679:B 0
13 *707:B 8.87205e-06
14 *562:Y 0
15 *147:242 3.35228e-05
16 *147:236 4.25332e-05
17 *147:230 5.19868e-05
18 *147:228 5.17214e-05
19 *147:219 1.29502e-05
20 *147:217 3.89082e-05
21 *147:199 4.77813e-06
22 *147:186 1.93058e-05
23 *147:182 9.26206e-05
24 *147:176 0.000110845
25 *147:174 5.83394e-05
26 *147:161 4.5341e-05
27 *147:159 3.58612e-05
28 *147:142 4.01333e-05
29 *147:131 2.02118e-05
30 *147:127 3.30451e-05
31 *147:123 5.44088e-05
32 *147:108 5.5131e-05
33 *147:97 1.12584e-05
34 *147:89 9.67006e-05
35 *147:76 0.00010097
36 *147:74 4.27312e-05
37 *147:72 9.63053e-05
38 *147:65 3.76703e-06
39 *147:57 0.000137561
40 *147:51 4.64416e-05
41 *147:47 0.000168829
42 *147:45 0.000163171
43 *147:43 1.78389e-05
44 *147:22 4.19901e-05
45 *147:16 3.50913e-05
46 *147:12 5.23348e-05
47 *147:6 6.72257e-05
48 *665:B *665:A2 2.71839e-06
49 *665:B *275:6 2.71839e-06
50 *690:B *238:6 2.90209e-08
51 *690:B *367:6 3.05302e-06
52 *707:B *251:10 1.49407e-08
53 *707:B *453:22 7.76918e-07
54 *707:B *464:62 0
55 *707:B *464:70 4.30517e-07
56 *147:12 *291:20 7.86466e-06
57 *147:12 *454:12 0
58 *147:12 *464:80 6.04134e-06
59 *147:16 *274:74 4.0941e-05
60 *147:16 *293:30 1.70708e-06
61 *147:16 *453:18 6.97852e-07
62 *147:16 *453:22 9.94583e-06
63 *147:16 *484:96 5.67735e-06
64 *147:16 *484:102 2.22736e-06
65 *147:16 *484:121 2.53248e-06
66 *147:22 *464:74 5.19552e-07
67 *147:22 *464:78 5.0551e-07
68 *147:43 *251:10 1.49407e-08
69 *147:43 *274:52 2.1602e-05
70 *147:43 *274:60 2.43887e-07
71 *147:43 *293:22 6.9486e-06
72 *147:43 *485:39 1.39665e-05
73 *147:43 *489:31 1.36947e-05
74 *147:47 *274:52 1.45628e-05
75 *147:47 *293:22 2.12806e-05
76 *147:47 *463:16 3.25311e-05
77 *147:47 *489:23 6.14633e-06
78 *147:47 *489:31 1.60173e-06
79 *147:47 *504:40 4.71559e-06
80 *147:47 *505:14 7.5157e-06
81 *147:51 *246:8 8.2962e-06
82 *147:51 *277:33 1.05033e-05
83 *147:51 *292:58 6.87516e-06
84 *147:57 *274:28 5.24976e-05
85 *147:57 *292:58 1.17606e-06
86 *147:57 *462:22 0.000100409
87 *147:57 *463:16 4.98688e-07
88 *147:65 *207:10 7.50486e-06
89 *147:65 *213:8 7.40834e-06
90 *147:72 *274:28 6.32591e-06
91 *147:72 *274:120 1.08465e-06
92 *147:72 *462:22 3.63794e-05
93 *147:72 *463:172 2.18921e-06
94 *147:72 *482:20 2.35629e-05
95 *147:72 *482:35 3.40947e-05
96 *147:72 *482:50 1.24855e-05
97 *147:76 *274:122 2.53992e-06
98 *147:76 *482:52 1.24935e-05
99 *147:76 *499:8 6.65157e-06
100 *147:89 *274:122 5.82688e-07
101 *147:89 *340:12 0
102 *147:89 *429:12 6.15224e-05
103 *147:89 *461:60 0
104 *147:89 *482:52 2.51784e-06
105 *147:89 *487:62 1.85761e-06
106 *147:97 *461:77 1.27344e-05
107 *147:108 *665:A1 1.91241e-06
108 *147:108 *275:12 6.10236e-08
109 *147:108 *340:12 0
110 *147:108 *461:77 9.11384e-07
111 *147:108 *461:85 2.942e-05
112 *147:123 *961:A 8.9147e-07
113 *147:123 *338:45 2.76514e-06
114 *147:123 *461:85 3.53647e-05
115 *147:127 *220:8 9.80084e-07
116 *147:127 *304:11 0
117 *147:127 *461:85 3.63611e-05
118 *147:127 *461:102 2.05883e-06
119 *147:131 *695:A2 2.88806e-06
120 *147:142 *695:A2 4.49469e-06
121 *147:142 *148:10 5.79724e-07
122 *147:142 *368:12 0
123 *147:142 *461:102 0
124 *147:159 *148:10 3.05118e-08
125 *147:161 *690:A1 1.66921e-05
126 *147:161 *343:20 0
127 *147:161 *438:21 0
128 *147:174 *438:21 0
129 *147:174 *490:8 0
130 *147:176 *231:12 9.87737e-05
131 *147:182 *231:12 1.91179e-05
132 *147:182 *231:20 2.2815e-06
133 *147:182 *397:54 7.21208e-07
134 *147:182 *434:10 7.3874e-07
135 *147:182 *487:139 2.06416e-05
136 *147:186 *687:A1 2.66207e-05
137 *147:186 *288:10 7.89622e-06
138 *147:186 *288:27 7.63254e-07
139 *147:186 *441:20 1.59615e-06
140 *147:199 *480:10 4.69884e-06
141 *147:217 *710:A 7.71949e-06
142 *147:217 *347:40 8.2174e-07
143 *147:217 *454:12 0
144 *147:217 *464:80 1.77579e-05
145 *147:217 *464:88 0
146 *147:217 *484:138 0
147 *147:217 *484:140 0
148 *147:228 *712:C 1.3659e-05
149 *147:228 *347:34 4.83849e-06
150 *147:230 *756:A1 0
151 *147:230 *809:CLK 1.11195e-05
152 *147:230 *256:10 0
153 *147:230 *258:14 1.49407e-08
154 *147:230 *274:314 1.51061e-06
155 *147:230 *455:14 2.35515e-05
156 *147:230 *455:22 1.03167e-05
157 *147:230 *456:27 1.12894e-06
158 *147:230 *457:16 0
159 *147:230 *484:140 6.48596e-07
160 *147:230 *484:153 9.41993e-06
161 *147:230 *484:208 5.41505e-05
162 *147:236 *158:64 2.06245e-05
163 *147:236 *349:20 1.10955e-06
164 *147:242 *724:B2 1.12894e-06
165 *147:242 *757:B1 4.57263e-07
166 *147:242 *1019:A 5.22376e-07
167 *147:242 *274:308 5.78395e-06
168 *147:242 *296:12 1.96231e-05
169 *147:242 *296:27 6.10236e-08
170 *147:242 *457:41 3.09749e-06
171 *147:242 *479:67 2.25196e-06
172 *147:242 *484:208 2.83874e-07
173 *147:242 *484:225 8.51621e-07
174 *147:242 *506:45 1.44555e-05
175 *1043:A *147:186 7.38746e-06
176 *5:12 *147:76 1.34329e-05
177 *14:10 *147:159 3.16603e-06
178 *14:10 *147:161 5.79724e-07
179 *14:18 *147:142 1.49407e-08
180 *14:18 *147:159 3.58142e-06
181 *14:22 *147:159 5.0551e-07
182 *15:6 *147:199 2.90209e-08
183 *18:10 *147:76 6.72662e-07
184 *18:10 *147:89 5.21026e-06
185 *22:14 *147:47 7.23981e-06
186 *37:14 *147:89 4.99165e-05
187 *37:22 *147:89 8.94645e-06
188 *60:16 *147:16 1.00899e-06
189 *60:16 *147:47 0
190 *104:6 *147:219 6.7842e-07
191 *105:20 *707:B 0
192 *105:20 *147:43 2.65328e-06
193 *107:14 *147:43 4.80422e-06
194 *107:14 *147:47 1.09711e-06
195 *107:20 *707:B 5.4219e-06
196 *117:16 *147:47 8.39114e-05
197 *141:6 *147:97 3.89037e-06
198 *146:8 *564:A2 6.7842e-07
199 *146:14 *147:51 8.17262e-06
200 *146:14 *147:57 2.20028e-06
*RES
1 *562:Y *147:6 34.4 
2 *147:6 *147:12 35.6958 
3 *147:12 *147:16 37.474 
4 *147:16 *147:22 40.2831 
5 *147:22 *707:B 40.5381 
6 *147:22 *147:43 47.6301 
7 *147:43 *147:45 17.2 
8 *147:45 *147:47 58.8711 
9 *147:47 *147:51 26.4922 
10 *147:51 *147:57 40.5543 
11 *147:57 *147:65 38.0039 
12 *147:65 *679:B 17.2 
13 *147:57 *147:72 47.1835 
14 *147:72 *147:74 17.2 
15 *147:74 *147:76 34.6347 
16 *147:76 *672:A2 34.4 
17 *147:76 *147:89 47.6016 
18 *147:89 *147:97 45.1373 
19 *147:97 *661:B 17.2 
20 *147:89 *147:108 35.7326 
21 *147:108 *665:B 36.5393 
22 *147:108 *147:123 33.3334 
23 *147:123 *147:127 47.0478 
24 *147:127 *147:131 19.3393 
25 *147:131 *695:B 17.2 
26 *147:131 *147:142 29.4196 
27 *147:142 *694:B 35.4697 
28 *147:142 *147:159 45.3516 
29 *147:159 *147:161 14.0792 
30 *147:161 *690:B 37.609 
31 *147:161 *147:174 34.5643 
32 *147:174 *147:176 16.6657 
33 *147:176 *147:182 42.3145 
34 *147:182 *147:186 33.7796 
35 *147:186 *687:A2 17.2 
36 *147:176 *147:199 37.0653 
37 *147:199 *689:B 17.2 
38 *147:51 *564:A2 36.0045 
39 *147:6 *147:217 48.1741 
40 *147:217 *147:219 2.1393 
41 *147:219 *711:B 17.2 
42 *147:219 *147:228 23.6179 
43 *147:228 *147:230 36.8874 
44 *147:230 *147:236 38.0794 
45 *147:236 *147:242 41.5844 
46 *147:242 *723:B 17.2 
*END

*D_NET *148 0.000300737
*CONN
*I *750:A2 I *D OA222x2_ASAP7_75t_R
*I *563:Y O *D BUFx2_ASAP7_75t_R
*CAP
1 *750:A2 0
2 *563:Y 1.41868e-05
3 *148:22 3.87467e-06
4 *148:14 7.82958e-05
5 *148:10 8.8608e-05
6 *148:10 *563:A 1.76928e-06
7 *148:14 *274:195 3.06694e-06
8 *148:14 *411:12 2.83687e-05
9 *148:14 *487:131 5.04787e-07
10 *148:14 *491:68 2.96428e-05
11 *148:14 *491:91 7.05579e-06
12 *148:22 *236:18 6.90481e-06
13 *148:22 *289:37 1.56807e-06
14 *148:22 *290:21 9.95138e-06
15 *148:22 *441:45 7.35354e-06
16 *27:33 *148:14 5.31103e-06
17 *27:56 *148:14 1.36643e-05
18 *147:142 *148:10 5.79724e-07
19 *147:159 *148:10 3.05118e-08
*RES
1 *563:Y *148:10 41.1845 
2 *148:10 *148:14 47.5013 
3 *148:14 *148:22 39.0735 
4 *148:22 *750:A2 17.2 
*END

*D_NET *149 0.000112175
*CONN
*I *566:A2 I *D OA21x2_ASAP7_75t_R
*I *564:Y O *D AOI21x1_ASAP7_75t_R
*CAP
1 *566:A2 4.49333e-06
2 *564:Y 8.81143e-06
3 *149:8 1.33048e-05
4 *566:A2 *150:6 8.65792e-06
5 *566:A2 *484:16 2.12481e-06
6 *149:8 *208:16 1.89808e-05
7 *149:8 *246:8 1.96286e-06
8 *149:8 *483:93 4.19572e-05
9 *2:10 *566:A2 2.20493e-06
10 *2:10 *149:8 9.67723e-06
*RES
1 *564:Y *149:8 48.4791 
2 *149:8 *566:A2 38.6786 
*END

*D_NET *150 0.000109683
*CONN
*I *566:B I *D OA21x2_ASAP7_75t_R
*I *565:Y O *D INVx1_ASAP7_75t_R
*CAP
1 *566:B 0
2 *565:Y 1.31879e-05
3 *150:6 1.31879e-05
4 *150:6 *565:A 2.79851e-06
5 *150:6 *483:14 2.29378e-05
6 *150:6 *484:16 4.78391e-05
7 *566:A2 *150:6 8.65792e-06
8 *2:10 *150:6 1.07377e-06
*RES
1 *565:Y *150:6 33.7796 
2 *150:6 *566:B 17.2 
*END

*D_NET *151 4.78905e-05
*CONN
*I *571:A2 I *D OA21x2_ASAP7_75t_R
*I *570:Y O *D OA21x2_ASAP7_75t_R
*CAP
1 *571:A2 0
2 *570:Y 1.4117e-05
3 *151:10 1.4117e-05
4 *151:10 *154:14 0
5 *151:10 *430:27 1.60829e-05
6 *65:44 *151:10 3.57357e-06
*RES
1 *570:Y *151:10 42.7058 
2 *151:10 *571:A2 34.4 
*END

*D_NET *152 0.000172407
*CONN
*I *572:B I *D XOR2x2_ASAP7_75t_R
*I *571:Y O *D OA21x2_ASAP7_75t_R
*CAP
1 *572:B 0
2 *571:Y 5.05617e-05
3 *152:12 3.4253e-06
4 *152:6 5.3987e-05
5 *152:6 *416:16 2.40119e-05
6 *152:6 *492:24 4.07052e-06
7 *152:12 *424:70 1.45085e-05
8 *571:B *152:6 6.78535e-06
9 *63:8 *152:12 1.43778e-05
10 *109:18 *152:6 6.7842e-07
*RES
1 *571:Y *152:6 38.0582 
2 *152:6 *152:12 39.4685 
3 *152:12 *572:B 17.2 
*END

*D_NET *153 0.000123686
*CONN
*I *574:B I *D XOR2x2_ASAP7_75t_R
*I *573:Y O *D OA21x2_ASAP7_75t_R
*CAP
1 *574:B 0
2 *573:Y 1.03578e-05
3 *153:16 1.05852e-05
4 *153:8 2.0943e-05
5 *153:8 *416:18 1.67519e-05
6 *153:8 *430:27 4.10544e-05
7 *153:16 *574:A 2.55346e-06
8 *153:16 *347:8 1.52651e-06
9 *153:16 *416:18 5.74232e-07
10 *153:16 *424:78 7.64042e-07
11 *62:25 *153:16 1.91724e-06
12 *110:22 *153:16 1.66584e-05
*RES
1 *573:Y *153:8 48.4791 
2 *153:8 *153:16 43.0989 
3 *153:16 *574:B 34.4 
*END

*D_NET *154 0.000161887
*CONN
*I *578:A1 I *D OA21x2_ASAP7_75t_R
*I *575:Y O *D OA211x2_ASAP7_75t_R
*CAP
1 *578:A1 0
2 *575:Y 1.05681e-05
3 *154:14 3.972e-05
4 *154:8 5.02881e-05
5 *154:8 *485:51 0
6 *154:14 *777:B 2.65244e-05
7 *154:14 *292:45 3.26909e-06
8 *154:14 *463:28 6.69035e-06
9 *154:14 *504:26 1.49407e-08
10 *65:16 *154:14 0
11 *65:61 *154:14 1.952e-05
12 *96:10 *154:14 0
13 *109:10 *154:14 2.57812e-06
14 *109:18 *154:14 2.71368e-06
15 *117:10 *154:14 0
16 *151:10 *154:14 0
*RES
1 *575:Y *154:8 38.1438 
2 *154:8 *154:14 46.3713 
3 *154:14 *578:A1 17.2 
*END

*D_NET *155 0.000105847
*CONN
*I *577:B I *D AO21x1_ASAP7_75t_R
*I *576:Y O *D OR2x2_ASAP7_75t_R
*CAP
1 *577:B 1.31998e-05
2 *576:Y 2.29678e-05
3 *155:8 3.61676e-05
4 *577:B *345:8 1.41808e-05
5 *577:B *413:12 1.63901e-05
6 *577:B *423:8 0
7 *577:B *464:23 2.94057e-06
*RES
1 *576:Y *155:8 43.492 
2 *155:8 *577:B 47.8026 
*END

*D_NET *156 0.000348812
*CONN
*I *578:A2 I *D OA21x2_ASAP7_75t_R
*I *577:Y O *D AO21x1_ASAP7_75t_R
*CAP
1 *578:A2 5.95918e-06
2 *577:Y 0
3 *156:8 5.68166e-05
4 *156:6 5.08574e-05
5 *578:A2 *157:12 5.19552e-07
6 *156:8 *274:42 2.48762e-06
7 *156:8 *345:8 3.51509e-05
8 *156:8 *413:12 1.11296e-05
9 *156:8 *427:48 1.16177e-05
10 *156:8 *484:54 1.1529e-05
11 *156:8 *484:60 0
12 *156:8 *485:72 5.67747e-07
13 *156:8 *492:12 5.97063e-06
14 *156:8 *504:20 1.30795e-06
15 *578:B *578:A2 2.03526e-06
16 *777:A *156:8 1.48961e-05
17 *64:16 *156:8 1.47929e-05
18 *66:12 *156:8 2.53742e-06
19 *111:23 *156:8 7.89306e-06
20 *113:10 *156:8 0.000112743
*RES
1 *577:Y *156:6 34.4 
2 *156:6 *156:8 58.5693 
3 *156:8 *578:A2 37.609 
*END

*D_NET *157 0.00130871
*CONN
*I *584:A1 I *D OA21x2_ASAP7_75t_R
*I *1059:A I *D BUFx3_ASAP7_75t_R
*I *600:A1 I *D OAI21x1_ASAP7_75t_R
*I *1058:A I *D BUFx3_ASAP7_75t_R
*I *578:Y O *D OA21x2_ASAP7_75t_R
*CAP
1 *584:A1 4.86938e-06
2 *1059:A 2.50495e-06
3 *600:A1 0
4 *1058:A 0
5 *578:Y 0
6 *157:89 1.57581e-05
7 *157:65 2.10141e-05
8 *157:61 2.89802e-05
9 *157:53 7.97436e-05
10 *157:49 0.000107886
11 *157:45 5.72235e-05
12 *157:35 5.85523e-05
13 *157:31 2.68861e-05
14 *157:22 1.2659e-05
15 *157:16 6.92031e-05
16 *157:12 7.56819e-05
17 *157:4 2.198e-05
18 *584:A1 *160:14 1.38838e-05
19 *584:A1 *467:18 5.85387e-06
20 *1059:A *461:155 6.7842e-07
21 *1059:A *461:163 2.52755e-07
22 *157:16 *346:16 2.82007e-05
23 *157:16 *424:66 2.50787e-05
24 *157:16 *463:22 1.25301e-05
25 *157:16 *463:30 1.59164e-05
26 *157:16 *489:23 0
27 *157:16 *506:91 0.000136418
28 *157:22 *414:10 4.03568e-05
29 *157:22 *424:32 9.08513e-06
30 *157:22 *471:29 3.88115e-06
31 *157:22 *485:16 3.05118e-08
32 *157:35 *211:101 6.20988e-05
33 *157:35 *427:48 3.04601e-05
34 *157:35 *428:35 1.47231e-05
35 *157:45 *417:30 6.18868e-06
36 *157:45 *425:22 5.24101e-07
37 *157:45 *486:59 2.79665e-06
38 *157:49 *163:10 6.54319e-05
39 *157:49 *416:49 5.85595e-05
40 *157:49 *416:62 7.65079e-06
41 *157:49 *425:49 1.49525e-05
42 *157:49 *426:10 7.38773e-06
43 *157:53 *160:29 6.21348e-06
44 *157:53 *160:52 1.02633e-06
45 *157:53 *274:246 0
46 *157:53 *425:47 7.05157e-07
47 *157:53 *443:52 2.17492e-05
48 *157:53 *462:112 0
49 *157:61 *461:163 1.26378e-06
50 *157:61 *463:133 3.59323e-06
51 *157:65 *625:A1 0
52 *157:65 *171:38 2.83737e-06
53 *157:65 *180:22 2.68933e-07
54 *157:65 *183:10 3.47607e-06
55 *157:65 *230:39 0
56 *157:65 *271:10 3.28696e-07
57 *157:65 *463:133 3.84098e-06
58 *157:65 *463:141 2.57437e-05
59 *157:65 *497:8 0
60 *157:89 *167:8 9.31704e-06
61 *157:89 *416:62 6.36172e-06
62 *157:89 *425:49 1.80322e-05
63 *157:89 *431:31 0
64 *157:89 *467:18 9.93857e-06
65 *578:A2 *157:12 5.19552e-07
66 *578:B *157:12 3.48165e-06
67 *60:16 *157:16 0
68 *61:10 *157:22 1.87942e-05
69 *61:31 *157:22 2.53282e-06
70 *79:12 *157:22 9.31704e-06
71 *109:10 *157:12 1.30795e-06
72 *113:10 *157:12 3.36331e-07
73 *117:33 *157:35 1.18369e-05
*RES
1 *578:Y *157:4 17.2 
2 *157:4 *157:12 42.7606 
3 *157:12 *157:16 48.1506 
4 *157:16 *157:22 33.6717 
5 *157:22 *1058:A 17.2 
6 *157:4 *157:31 18.8045 
7 *157:31 *157:35 48.6434 
8 *157:35 *157:45 33.2513 
9 *157:45 *157:49 47.7987 
10 *157:49 *157:53 41.0082 
11 *157:53 *157:61 38.2943 
12 *157:61 *157:65 34.6581 
13 *157:65 *600:A1 34.4 
14 *157:61 *1059:A 18.8045 
15 *157:49 *157:89 43.926 
16 *157:89 *584:A1 38.1438 
*END

*D_NET *158 0.00139861
*CONN
*I *587:A2 I *D OA21x2_ASAP7_75t_R
*I *1055:A I *D BUFx3_ASAP7_75t_R
*I *629:A1 I *D OA211x2_ASAP7_75t_R
*I *604:A1 I *D OA21x2_ASAP7_75t_R
*I *580:Y O *D OA21x2_ASAP7_75t_R
*CAP
1 *587:A2 1.93496e-05
2 *1055:A 0
3 *629:A1 2.40381e-05
4 *604:A1 0
5 *580:Y 6.43371e-06
6 *158:70 7.88588e-07
7 *158:64 0.000111951
8 *158:62 0.000111162
9 *158:60 2.14929e-05
10 *158:56 5.26852e-05
11 *158:38 3.53149e-05
12 *158:32 2.42379e-05
13 *158:22 6.86767e-05
14 *158:18 0.000117716
15 *158:16 3.00575e-05
16 *158:8 2.50328e-05
17 *587:A2 *587:B 1.95129e-06
18 *587:A2 *1066:A 1.4164e-05
19 *587:A2 *1067:A 4.74894e-06
20 *587:A2 *349:12 2.76402e-07
21 *587:A2 *431:31 1.41856e-05
22 *587:A2 *443:29 1.70708e-06
23 *587:A2 *502:10 3.18889e-06
24 *629:A1 *629:A2 2.88806e-06
25 *629:A1 *629:C 3.85237e-05
26 *629:A1 *176:14 4.2449e-06
27 *158:16 *164:10 7.00661e-06
28 *158:16 *417:30 1.86294e-06
29 *158:16 *425:22 1.29145e-05
30 *158:18 *162:12 0
31 *158:18 *163:10 3.97103e-05
32 *158:18 *164:10 2.90181e-05
33 *158:18 *416:45 1.49407e-08
34 *158:18 *506:12 1.89415e-06
35 *158:22 *416:45 3.96944e-06
36 *158:22 *425:47 0
37 *158:22 *506:85 0.000106559
38 *158:32 *435:36 1.44811e-05
39 *158:38 *433:41 0
40 *158:38 *463:133 0
41 *158:56 *1066:A 6.00625e-05
42 *158:56 *1067:A 1.3659e-05
43 *158:56 *162:12 0
44 *158:56 *163:10 2.26042e-05
45 *158:56 *506:12 2.79688e-06
46 *158:60 *349:12 1.18149e-05
47 *158:60 *443:29 1.08539e-05
48 *158:64 *274:300 8.3604e-06
49 *158:64 *348:22 7.58134e-05
50 *158:64 *349:14 1.57087e-06
51 *158:64 *349:20 5.41076e-06
52 *158:64 *412:51 1.52008e-05
53 *158:64 *469:39 2.90144e-05
54 *158:64 *486:91 1.34476e-05
55 *158:64 *506:14 2.71785e-06
56 *158:64 *506:45 1.02633e-06
57 *158:70 *464:103 1.93482e-06
58 *580:A1 *158:16 3.05118e-08
59 *56:38 *158:16 0
60 *112:10 *158:16 2.81258e-05
61 *112:25 *158:8 1.3968e-05
62 *115:12 *158:16 1.3681e-05
63 *121:41 *158:38 1.97946e-05
64 *121:51 *158:38 9.48077e-06
65 *123:20 *158:22 3.78859e-05
66 *123:41 *158:22 1.32796e-05
67 *125:10 *158:38 1.32074e-05
68 *147:236 *158:64 2.06245e-05
*RES
1 *580:Y *158:8 38.1438 
2 *158:8 *158:16 49.2643 
3 *158:16 *158:18 14.0792 
4 *158:18 *158:22 44.7417 
5 *158:22 *158:32 45.6224 
6 *158:32 *158:38 27.7956 
7 *158:38 *604:A1 17.2 
8 *158:38 *629:A1 33.7796 
9 *158:18 *158:56 44.779 
10 *158:56 *158:60 21.0483 
11 *158:60 *158:62 17.2 
12 *158:62 *158:64 49.1314 
13 *158:64 *158:70 35.057 
14 *158:70 *1055:A 17.2 
15 *158:60 *587:A2 48.4277 
*END

*D_NET *159 0.000204123
*CONN
*I *584:A2 I *D OA21x2_ASAP7_75t_R
*I *607:A I *D OR2x2_ASAP7_75t_R
*I *582:Y O *D OR2x2_ASAP7_75t_R
*CAP
1 *584:A2 1.24443e-05
2 *607:A 8.87247e-06
3 *582:Y 0
4 *159:25 3.59807e-05
5 *159:8 5.56687e-05
6 *159:6 2.32599e-05
7 *584:A2 *160:14 8.1964e-06
8 *584:A2 *161:10 1.74219e-05
9 *584:A2 *425:49 7.24542e-06
10 *584:A2 *431:40 0
11 *607:A *607:B 5.19552e-07
12 *607:A *266:14 4.83862e-06
13 *607:A *467:10 0
14 *159:8 *762:B1 0
15 *159:8 *266:14 1.61537e-05
16 *159:8 *431:46 4.45472e-06
17 *159:8 *460:32 0
18 *159:8 *460:40 1.34466e-06
19 *159:8 *466:26 0
20 *159:8 *467:10 0
21 *159:8 *482:155 3.78951e-06
22 *159:25 *350:6 0
23 *159:25 *416:62 2.03526e-06
24 *46:25 *159:8 1.89747e-06
*RES
1 *582:Y *159:6 34.4 
2 *159:6 *159:8 20.274 
3 *159:8 *607:A 39.8333 
4 *159:8 *159:25 43.492 
5 *159:25 *584:A2 47.2678 
*END

*D_NET *160 0.000390104
*CONN
*I *610:A1 I *D OA211x2_ASAP7_75t_R
*I *598:C I *D OR3x1_ASAP7_75t_R
*I *584:B I *D OA21x2_ASAP7_75t_R
*I *583:Y O *D OA21x2_ASAP7_75t_R
*CAP
1 *610:A1 0
2 *598:C 4.54565e-06
3 *584:B 0
4 *583:Y 3.00445e-05
5 *160:52 1.35799e-05
6 *160:33 2.1638e-05
7 *160:29 5.59455e-05
8 *160:27 3.53168e-05
9 *160:14 2.35134e-05
10 *160:8 4.35143e-05
11 *598:C *598:B 1.95129e-06
12 *160:8 *431:25 6.25562e-06
13 *160:14 *727:A1 6.7842e-07
14 *160:14 *161:10 5.22376e-07
15 *160:14 *431:40 1.12894e-06
16 *160:14 *467:18 2.71368e-06
17 *160:27 *727:A1 8.146e-06
18 *160:27 *727:B 5.41446e-06
19 *160:27 *161:10 2.6409e-06
20 *160:29 *462:112 1.93613e-05
21 *160:29 *462:125 4.31093e-06
22 *160:33 *432:10 5.49402e-06
23 *160:33 *432:21 4.77194e-05
24 *160:33 *462:102 5.45769e-06
25 *160:52 *610:A2 6.7842e-07
26 *160:52 *181:28 7.63254e-07
27 *160:52 *270:14 2.25196e-06
28 *160:52 *274:246 2.02493e-06
29 *160:52 *462:125 8.35078e-07
30 *160:52 *506:125 5.62196e-06
31 *584:A1 *160:14 1.38838e-05
32 *584:A2 *160:14 8.1964e-06
33 *985:A *160:8 8.65792e-06
34 *47:12 *160:27 4.35576e-08
35 *47:20 *598:C 1.40419e-08
36 *157:53 *160:29 6.21348e-06
37 *157:53 *160:52 1.02633e-06
*RES
1 *583:Y *160:8 46.701 
2 *160:8 *160:14 27.0252 
3 *160:14 *584:B 17.2 
4 *160:14 *160:27 42.7606 
5 *160:27 *160:29 10.8219 
6 *160:29 *160:33 34.9397 
7 *160:33 *598:C 36.5393 
8 *160:29 *160:52 41.3693 
9 *160:52 *610:A1 17.2 
*END

*D_NET *161 8.00207e-05
*CONN
*I *585:B I *D XNOR2x2_ASAP7_75t_R
*I *584:Y O *D OA21x2_ASAP7_75t_R
*CAP
1 *585:B 0
2 *584:Y 2.14538e-05
3 *161:10 2.14538e-05
4 *161:10 *425:49 1.6528e-05
5 *584:A2 *161:10 1.74219e-05
6 *160:14 *161:10 5.22376e-07
7 *160:27 *161:10 2.6409e-06
*RES
1 *584:Y *161:10 46.9844 
2 *161:10 *585:B 34.4 
*END

*D_NET *162 0.000358895
*CONN
*I *587:B I *D OA21x2_ASAP7_75t_R
*I *586:Y O *D AND3x1_ASAP7_75t_R
*CAP
1 *587:B 3.04921e-06
2 *586:Y 0
3 *162:12 2.76175e-05
4 *162:6 7.34097e-05
5 *162:4 4.88414e-05
6 *587:B *1066:A 1.02586e-05
7 *587:B *502:10 1.20203e-06
8 *587:B *502:14 2.12276e-06
9 *162:6 *579:A 9.75645e-06
10 *162:6 *588:A 2.27522e-06
11 *162:6 *165:16 5.43988e-05
12 *162:6 *348:6 6.3811e-05
13 *162:6 *416:30 3.44943e-05
14 *162:6 *417:53 8.48643e-06
15 *162:6 *442:35 6.19506e-06
16 *162:6 *442:39 7.46313e-06
17 *162:12 *168:10 0
18 *162:12 *416:45 1.6287e-06
19 *162:12 *506:12 1.62854e-06
20 *587:A2 *587:B 1.95129e-06
21 *56:30 *162:6 3.04311e-07
22 *158:18 *162:12 0
23 *158:56 *162:12 0
*RES
1 *586:Y *162:4 17.2 
2 *162:4 *162:6 37.9726 
3 *162:6 *162:12 49.6055 
4 *162:12 *587:B 19.8741 
*END

*D_NET *163 0.000439826
*CONN
*I *594:B I *D OR3x1_ASAP7_75t_R
*I *587:Y O *D OA21x2_ASAP7_75t_R
*CAP
1 *594:B 7.19894e-06
2 *587:Y 8.61229e-07
3 *163:18 2.33841e-05
4 *163:10 5.42524e-05
5 *163:8 3.89284e-05
6 *594:B *594:A 2.46422e-05
7 *594:B *351:6 3.42414e-06
8 *163:8 *501:14 5.41446e-06
9 *163:8 *502:14 5.41446e-06
10 *163:10 *164:10 9.0596e-06
11 *163:10 *428:41 1.2583e-05
12 *163:18 *594:A 2.03526e-06
13 *163:18 *1051:A 0
14 *163:18 *164:10 7.75665e-06
15 *573:A2 *594:B 8.03705e-06
16 *111:23 *163:10 7.53741e-05
17 *112:25 *163:10 2.30306e-05
18 *113:10 *163:10 9.6346e-06
19 *113:10 *163:18 1.04812e-06
20 *157:49 *163:10 6.54319e-05
21 *158:18 *163:10 3.97103e-05
22 *158:56 *163:10 2.26042e-05
*RES
1 *587:Y *163:8 36.0045 
2 *163:8 *163:10 50.1218 
3 *163:10 *163:18 42.0859 
4 *163:18 *594:B 40.8179 
*END

*D_NET *164 0.000275603
*CONN
*I *594:A I *D OR3x1_ASAP7_75t_R
*I *588:Y O *D AND4x1_ASAP7_75t_R
*CAP
1 *594:A 1.13611e-05
2 *588:Y 5.08325e-06
3 *164:10 4.77729e-05
4 *164:8 4.1495e-05
5 *594:A *594:C 1.44053e-05
6 *164:10 *407:32 1.70708e-06
7 *164:10 *417:53 7.89181e-07
8 *164:10 *428:41 1.26336e-05
9 *573:A2 *594:A 2.741e-06
10 *580:A1 *164:10 0
11 *594:B *594:A 2.46422e-05
12 *56:38 *164:10 0
13 *109:29 *164:10 0
14 *112:25 *164:10 2.30306e-05
15 *113:10 *164:10 1.62383e-05
16 *115:12 *164:10 1.36113e-05
17 *135:12 *164:10 5.21627e-06
18 *158:16 *164:10 7.00661e-06
19 *158:18 *164:10 2.90181e-05
20 *163:10 *164:10 9.0596e-06
21 *163:18 *594:A 2.03526e-06
22 *163:18 *164:10 7.75665e-06
*RES
1 *588:Y *164:8 36.0045 
2 *164:8 *164:10 36.6058 
3 *164:10 *594:A 43.492 
*END

*D_NET *165 0.000356821
*CONN
*I *592:B I *D OA211x2_ASAP7_75t_R
*I *589:Y O *D OR3x1_ASAP7_75t_R
*CAP
1 *592:B 0
2 *589:Y 7.40645e-06
3 *165:22 3.17983e-05
4 *165:16 4.85085e-05
5 *165:10 2.41166e-05
6 *165:10 *524:A1 6.7842e-07
7 *165:10 *211:64 2.27924e-05
8 *165:10 *474:19 2.30847e-05
9 *165:16 *983:A 1.55103e-05
10 *165:16 *430:16 6.7842e-07
11 *165:22 *592:A1 1.15169e-05
12 *165:22 *168:8 8.17002e-07
13 *165:22 *416:26 7.84338e-06
14 *165:22 *428:66 6.21468e-06
15 *165:22 *428:79 9.18577e-06
16 *165:22 *430:10 5.18761e-05
17 *165:22 *430:16 2.62001e-05
18 *165:22 *431:8 3.17281e-06
19 *165:22 *443:46 5.16782e-06
20 *59:16 *165:10 5.85387e-06
21 *162:6 *165:16 5.43988e-05
*RES
1 *589:Y *165:10 43.8888 
2 *165:10 *165:16 48.8403 
3 *165:16 *165:22 49.0454 
4 *165:22 *592:B 17.2 
*END

*D_NET *166 0.000227611
*CONN
*I *591:B I *D OR3x1_ASAP7_75t_R
*I *590:Y O *D INVx1_ASAP7_75t_R
*CAP
1 *591:B 0
2 *590:Y 0
3 *166:20 1.46152e-05
4 *166:12 6.02841e-05
5 *166:6 4.56689e-05
6 *166:12 *597:A2 1.56713e-06
7 *166:12 *172:6 2.52755e-07
8 *166:12 *433:26 1.34329e-05
9 *166:12 *462:102 1.54963e-05
10 *166:12 *488:24 5.13666e-05
11 *166:20 *597:A2 5.62196e-06
12 *166:20 *167:8 1.4939e-05
13 *166:20 *416:62 0
14 *166:20 *501:27 1.35684e-06
15 *47:12 *166:12 5.19552e-07
16 *47:12 *166:20 2.48948e-06
*RES
1 *590:Y *166:6 34.4 
2 *166:6 *166:12 46.9591 
3 *166:12 *166:20 44.7034 
4 *166:20 *591:B 17.2 
*END

*D_NET *167 9.30598e-05
*CONN
*I *592:C I *D OA211x2_ASAP7_75t_R
*I *591:Y O *D OR3x1_ASAP7_75t_R
*CAP
1 *592:C 5.23045e-06
2 *591:Y 2.39433e-05
3 *167:8 2.91737e-05
4 *592:C *168:8 1.82733e-06
5 *592:C *431:31 7.53304e-06
6 *167:8 *168:8 5.4457e-07
7 *167:8 *501:14 5.51397e-07
8 *157:89 *167:8 9.31704e-06
9 *166:20 *167:8 1.4939e-05
*RES
1 *591:Y *167:8 47.7706 
2 *167:8 *592:C 38.2855 
*END

*D_NET *168 0.000278914
*CONN
*I *593:A I *D INVx1_ASAP7_75t_R
*I *592:Y O *D OA211x2_ASAP7_75t_R
*CAP
1 *593:A 5.56175e-06
2 *592:Y 1.74846e-05
3 *168:10 5.95889e-05
4 *168:8 7.15118e-05
5 *168:8 *592:A1 2.90209e-08
6 *168:10 *417:53 0
7 *168:10 *428:55 1.93482e-06
8 *168:10 *430:10 4.06503e-05
9 *168:10 *430:16 3.20851e-05
10 *168:10 *430:27 1.81803e-05
11 *580:A1 *168:10 0
12 *592:C *168:8 1.82733e-06
13 *56:38 *168:10 6.26715e-06
14 *110:30 *168:10 5.06565e-06
15 *111:12 *168:10 8.28056e-06
16 *112:10 *168:10 0
17 *135:8 *593:A 9.08513e-06
18 *162:12 *168:10 0
19 *165:22 *168:8 8.17002e-07
20 *167:8 *168:8 5.4457e-07
*RES
1 *592:Y *168:8 41.3527 
2 *168:8 *168:10 45.6164 
3 *168:10 *593:A 37.0741 
*END

*D_NET *169 5.29618e-05
*CONN
*I *594:C I *D OR3x1_ASAP7_75t_R
*I *593:Y O *D INVx1_ASAP7_75t_R
*CAP
1 *594:C 9.5929e-06
2 *593:Y 5.71642e-06
3 *169:8 1.53093e-05
4 *169:8 *430:27 5.67735e-06
5 *573:A2 *594:C 2.26052e-06
6 *594:A *594:C 1.44053e-05
7 *109:29 *169:8 0
*RES
1 *593:Y *169:8 38.9053 
2 *169:8 *594:C 40.2831 
*END

*D_NET *170 0.000249406
*CONN
*I *602:B I *D OR2x2_ASAP7_75t_R
*I *596:B I *D OR2x2_ASAP7_75t_R
*I *595:Y O *D OR3x1_ASAP7_75t_R
*CAP
1 *602:B 1.81239e-05
2 *596:B 3.54978e-06
3 *595:Y 2.01086e-05
4 *170:10 3.70324e-05
5 *170:8 3.54673e-05
6 *596:B *425:30 7.66617e-06
7 *596:B *426:10 8.06593e-06
8 *596:B *427:48 2.04934e-06
9 *602:B *171:10 5.62196e-06
10 *170:8 *595:C 4.15203e-05
11 *170:8 *1071:C 1.35684e-06
12 *170:8 *506:12 1.07377e-06
13 *170:10 *425:41 2.94282e-06
14 *170:10 *426:10 4.53522e-05
15 *170:10 *506:81 9.49809e-07
16 *115:43 *602:B 7.30711e-06
17 *117:33 *596:B 3.17647e-06
18 *117:33 *170:10 6.68427e-06
19 *123:12 *170:8 1.35684e-06
*RES
1 *595:Y *170:8 46.701 
2 *170:8 *170:10 16.3318 
3 *170:10 *596:B 39.4685 
4 *170:10 *602:B 44.0269 
*END

*D_NET *171 0.000562649
*CONN
*I *600:A2 I *D OAI21x1_ASAP7_75t_R
*I *625:A2 I *D OA211x2_ASAP7_75t_R
*I *596:Y O *D OR2x2_ASAP7_75t_R
*CAP
1 *600:A2 0
2 *625:A2 0
3 *596:Y 1.02124e-05
4 *171:38 1.96645e-05
5 *171:30 3.25967e-05
6 *171:26 3.22092e-05
7 *171:18 5.4104e-05
8 *171:16 4.28979e-05
9 *171:10 1.82833e-05
10 *171:10 *510:10 1.87318e-05
11 *171:16 *439:34 3.9103e-06
12 *171:16 *439:77 1.35684e-06
13 *171:18 *179:16 1.09138e-05
14 *171:18 *439:40 7.55095e-06
15 *171:18 *488:24 0.000116546
16 *171:26 *180:6 3.87556e-05
17 *171:26 *270:14 8.06436e-06
18 *171:26 *462:125 5.79724e-07
19 *171:30 *601:B 1.34271e-05
20 *171:30 *174:14 2.6409e-06
21 *171:30 *175:6 1.06092e-05
22 *171:30 *180:6 2.79389e-05
23 *171:38 *625:A1 6.7842e-07
24 *171:38 *625:B 4.23705e-06
25 *171:38 *174:14 1.66828e-05
26 *171:38 *271:10 3.47854e-06
27 *533:B *171:16 3.3921e-06
28 *602:B *171:10 5.62196e-06
29 *48:10 *171:10 1.30795e-06
30 *48:10 *171:18 3.25086e-05
31 *115:43 *171:10 1.29603e-05
32 *139:109 *171:18 7.95021e-06
33 *157:65 *171:38 2.83737e-06
*RES
1 *596:Y *171:10 42.7625 
2 *171:10 *171:16 39.2134 
3 *171:16 *171:18 40.548 
4 *171:18 *171:26 48.4472 
5 *171:26 *171:30 29.501 
6 *171:30 *171:38 48.4472 
7 *171:38 *625:A2 17.2 
8 *171:30 *600:A2 17.2 
*END

*D_NET *172 0.000127083
*CONN
*I *609:C I *D OR3x1_ASAP7_75t_R
*I *599:A I *D AND2x2_ASAP7_75t_R
*I *597:Y O *D OA21x2_ASAP7_75t_R
*CAP
1 *609:C 0
2 *599:A 0
3 *597:Y 1.29072e-05
4 *172:17 2.26896e-05
5 *172:6 3.55968e-05
6 *172:6 *599:B 5.0977e-06
7 *172:17 *599:B 7.21308e-06
8 *172:17 *173:10 5.52652e-06
9 *172:17 *182:14 0
10 *172:17 *432:21 1.25222e-05
11 *172:17 *439:77 8.75628e-06
12 *172:17 *462:102 0
13 *47:28 *172:17 8.06436e-06
14 *47:36 *172:17 8.45637e-06
15 *139:101 *172:17 0
16 *166:12 *172:6 2.52755e-07
*RES
1 *597:Y *172:6 24.1527 
2 *172:6 *599:A 17.2 
3 *172:6 *172:17 38.8801 
4 *172:17 *609:C 34.4 
*END

*D_NET *173 8.45227e-05
*CONN
*I *599:B I *D AND2x2_ASAP7_75t_R
*I *598:Y O *D OR3x1_ASAP7_75t_R
*CAP
1 *599:B 1.47218e-05
2 *598:Y 1.28079e-05
3 *173:10 2.75297e-05
4 *599:B *174:8 3.35384e-06
5 *599:B *270:14 5.65351e-06
6 *173:10 *432:21 5.67747e-07
7 *173:10 *461:174 1.10561e-06
8 *47:28 *173:10 6.7842e-07
9 *47:36 *173:10 2.66797e-07
10 *172:6 *599:B 5.0977e-06
11 *172:17 *599:B 7.21308e-06
12 *172:17 *173:10 5.52652e-06
*RES
1 *598:Y *173:10 42.7625 
2 *173:10 *599:B 45.0965 
*END

*D_NET *174 0.000254662
*CONN
*I *625:B I *D OA211x2_ASAP7_75t_R
*I *600:B I *D OAI21x1_ASAP7_75t_R
*I *599:Y O *D AND2x2_ASAP7_75t_R
*CAP
1 *625:B 2.21572e-05
2 *600:B 0
3 *599:Y 1.16315e-05
4 *174:18 2.53084e-05
5 *174:14 4.30077e-05
6 *174:8 5.1488e-05
7 *625:B *625:A1 1.32074e-05
8 *625:B *230:39 0
9 *625:B *463:141 6.89377e-06
10 *174:8 *270:14 1.25483e-05
11 *174:14 *180:6 5.01287e-06
12 *174:14 *181:28 8.06436e-06
13 *174:14 *270:14 5.79724e-07
14 *174:14 *461:174 1.19708e-05
15 *174:14 *506:131 5.94921e-06
16 *174:18 *180:22 2.07682e-06
17 *174:18 *463:141 7.8519e-06
18 *599:B *174:8 3.35384e-06
19 *171:30 *174:14 2.6409e-06
20 *171:38 *625:B 4.23705e-06
21 *171:38 *174:14 1.66828e-05
*RES
1 *599:Y *174:8 40.2831 
2 *174:8 *174:14 41.3275 
3 *174:14 *174:18 20.0158 
4 *174:18 *600:B 34.4 
5 *174:18 *625:B 48.982 
*END

*D_NET *175 8.84337e-05
*CONN
*I *970:A I *D BUFx3_ASAP7_75t_R
*I *601:B I *D XNOR2x2_ASAP7_75t_R
*I *600:Y O *D OAI21x1_ASAP7_75t_R
*CAP
1 *970:A 0
2 *601:B 4.65008e-06
3 *600:Y 4.17378e-06
4 *175:19 5.3412e-06
5 *175:6 1.41651e-05
6 *601:B *180:6 1.52651e-06
7 *601:B *352:8 1.39802e-05
8 *175:6 *352:8 1.95129e-06
9 *175:19 *461:174 2.06408e-06
10 *175:19 *506:131 1.65452e-05
11 *171:30 *601:B 1.34271e-05
12 *171:30 *175:6 1.06092e-05
*RES
1 *600:Y *175:6 20.9438 
2 *175:6 *601:B 22.0134 
3 *175:6 *175:19 40.0317 
4 *175:19 *970:A 17.2 
*END

*D_NET *176 0.000365332
*CONN
*I *629:A2 I *D OA211x2_ASAP7_75t_R
*I *604:A2 I *D OA21x2_ASAP7_75t_R
*I *602:Y O *D OR2x2_ASAP7_75t_R
*CAP
1 *629:A2 1.31805e-05
2 *604:A2 0
3 *602:Y 4.04754e-05
4 *176:14 1.88494e-05
5 *176:10 2.27287e-05
6 *176:6 5.75351e-05
7 *629:A2 *629:C 2.74873e-05
8 *629:A2 *178:10 2.03526e-06
9 *176:10 *230:39 1.19362e-05
10 *176:14 *433:52 6.28016e-06
11 *544:A2 *176:6 1.77209e-05
12 *544:C *176:6 9.56006e-06
13 *629:A1 *629:A2 2.88806e-06
14 *629:A1 *176:14 4.2449e-06
15 *1065:A *176:10 5.06311e-07
16 *121:28 *176:10 2.07915e-06
17 *121:41 *176:10 2.58598e-05
18 *125:10 *176:10 2.30418e-05
19 *125:10 *176:14 5.85387e-06
20 *126:8 *176:10 7.93842e-07
21 *130:32 *176:6 4.72696e-06
22 *131:12 *176:6 1.84581e-05
23 *131:63 *176:6 6.39911e-06
24 *139:89 *176:6 4.2691e-05
*RES
1 *602:Y *176:6 45.5457 
2 *176:6 *176:10 35.7845 
3 *176:10 *176:14 22.0134 
4 *176:14 *604:A2 17.2 
5 *176:14 *629:A2 27.3617 
*END

*D_NET *177 0.000154913
*CONN
*I *629:C I *D OA211x2_ASAP7_75t_R
*I *604:B I *D OA21x2_ASAP7_75t_R
*I *603:Y O *D OA21x2_ASAP7_75t_R
*CAP
1 *629:C 1.32503e-05
2 *604:B 0
3 *603:Y 9.1109e-06
4 *177:12 1.32503e-05
5 *177:10 9.1109e-06
6 *629:C *629:B 7.14604e-06
7 *177:10 *415:8 2.33787e-05
8 *177:10 *433:52 1.00883e-05
9 *177:10 *433:56 2.88806e-06
10 *177:10 *433:67 6.7842e-07
11 *629:A1 *629:C 3.85237e-05
12 *629:A2 *629:C 2.74873e-05
*RES
1 *603:Y *177:10 44.9585 
2 *177:10 *177:12 17.2 
3 *177:12 *604:B 17.2 
4 *177:12 *629:C 31.6403 
*END

*D_NET *178 4.12889e-05
*CONN
*I *605:B I *D XOR2x2_ASAP7_75t_R
*I *604:Y O *D OA21x2_ASAP7_75t_R
*CAP
1 *605:B 0
2 *604:Y 6.55371e-06
3 *178:10 6.55371e-06
4 *178:10 *274:234 1.30731e-05
5 *178:10 *461:151 1.30731e-05
6 *629:A2 *178:10 2.03526e-06
*RES
1 *604:Y *178:10 40.5098 
2 *178:10 *605:B 34.4 
*END

*D_NET *179 0.000250553
*CONN
*I *607:B I *D OR2x2_ASAP7_75t_R
*I *610:A2 I *D OA211x2_ASAP7_75t_R
*I *606:Y O *D OR4x1_ASAP7_75t_R
*CAP
1 *607:B 2.02246e-05
2 *610:A2 2.4572e-05
3 *606:Y 1.21151e-05
4 *179:16 4.00366e-05
5 *179:8 4.78043e-05
6 *607:B *727:A2 5.37221e-06
7 *607:B *439:28 3.05118e-08
8 *610:A2 *266:8 6.7842e-07
9 *610:A2 *439:22 2.03526e-06
10 *610:A2 *439:28 3.3921e-06
11 *179:8 *425:41 5.79724e-07
12 *179:8 *439:28 1.3687e-06
13 *179:8 *443:60 1.94229e-07
14 *179:16 *727:A2 3.65131e-06
15 *179:16 *266:8 0
16 *179:16 *439:28 9.75645e-06
17 *597:B *179:8 2.65491e-06
18 *607:A *607:B 5.19552e-07
19 *47:12 *607:B 2.41172e-05
20 *47:12 *179:8 2.31565e-05
21 *47:20 *179:8 5.52652e-06
22 *48:10 *179:16 1.11752e-05
23 *160:52 *610:A2 6.7842e-07
24 *171:18 *179:16 1.09138e-05
*RES
1 *606:Y *179:8 46.2265 
2 *179:8 *179:16 44.2252 
3 *179:16 *610:A2 46.701 
4 *179:8 *607:B 47.1544 
*END

*D_NET *180 0.00022259
*CONN
*I *611:A2 I *D OAI21x1_ASAP7_75t_R
*I *607:Y O *D OR2x2_ASAP7_75t_R
*CAP
1 *611:A2 0
2 *607:Y 2.25967e-05
3 *180:22 1.68772e-05
4 *180:14 3.40219e-05
5 *180:6 3.97414e-05
6 *180:6 *410:40 9.42272e-06
7 *180:14 *271:10 2.98961e-07
8 *180:14 *274:246 1.56362e-05
9 *180:14 *410:30 1.84515e-06
10 *180:14 *461:174 2.48464e-06
11 *180:22 *625:A1 4.03399e-07
12 *180:22 *181:20 3.65131e-06
13 *180:22 *463:141 3.05118e-08
14 *601:B *180:6 1.52651e-06
15 *157:65 *180:22 2.68933e-07
16 *171:26 *180:6 3.87556e-05
17 *171:30 *180:6 2.79389e-05
18 *174:14 *180:6 5.01287e-06
19 *174:18 *180:22 2.07682e-06
*RES
1 *607:Y *180:6 38.0582 
2 *180:6 *180:14 42.1708 
3 *180:14 *180:22 44.6769 
4 *180:22 *611:A2 17.2 
*END

*D_NET *181 0.000361695
*CONN
*I *619:A I *D NAND2x1_ASAP7_75t_R
*I *610:B I *D OA211x2_ASAP7_75t_R
*I *608:Y O *D OA21x2_ASAP7_75t_R
*CAP
1 *619:A 2.72655e-06
2 *610:B 0
3 *608:Y 0
4 *181:28 3.79715e-06
5 *181:20 5.73065e-05
6 *181:16 6.85957e-05
7 *181:10 4.09184e-05
8 *181:6 2.31054e-05
9 *619:A *624:B 1.47193e-05
10 *619:A *184:8 1.08167e-05
11 *181:10 *622:B2 5.52807e-07
12 *181:10 *274:234 1.07131e-05
13 *181:10 *274:242 1.10561e-06
14 *181:10 *433:67 1.49079e-05
15 *181:16 *624:A 1.59615e-06
16 *181:16 *624:B 1.06092e-05
17 *181:16 *184:8 3.8304e-05
18 *181:16 *230:39 1.19435e-05
19 *181:16 *415:16 1.15587e-05
20 *181:20 *183:10 0
21 *181:20 *463:139 1.66706e-05
22 *181:20 *506:125 0
23 *181:28 *506:125 5.51397e-07
24 *181:28 *506:131 8.71771e-06
25 *160:52 *181:28 7.63254e-07
26 *174:14 *181:28 8.06436e-06
27 *180:22 *181:20 3.65131e-06
*RES
1 *608:Y *181:6 34.4 
2 *181:6 *181:10 36.9108 
3 *181:10 *181:16 33.4431 
4 *181:16 *181:20 39.1278 
5 *181:20 *181:28 39.3551 
6 *181:28 *610:B 17.2 
7 *181:10 *619:A 21.4786 
*END

*D_NET *182 0.00017418
*CONN
*I *610:C I *D OA211x2_ASAP7_75t_R
*I *609:Y O *D OR3x1_ASAP7_75t_R
*CAP
1 *610:C 0
2 *609:Y 1.3893e-05
3 *182:14 2.22908e-05
4 *182:8 3.61838e-05
5 *182:8 *433:35 0
6 *182:14 *271:10 2.53282e-06
7 *182:14 *461:174 3.33491e-05
8 *182:14 *506:121 6.02149e-05
9 *182:14 *506:125 2.03526e-06
10 *122:14 *182:8 2.90209e-08
11 *123:28 *182:8 3.65131e-06
12 *172:17 *182:14 0
*RES
1 *609:Y *182:8 40.2831 
2 *182:8 *182:14 41.3311 
3 *182:14 *610:C 17.2 
*END

*D_NET *183 3.92512e-05
*CONN
*I *611:B I *D OAI21x1_ASAP7_75t_R
*I *610:Y O *D OA211x2_ASAP7_75t_R
*CAP
1 *611:B 0
2 *610:Y 1.72416e-05
3 *183:10 1.72416e-05
4 *183:10 *625:A1 0
5 *183:10 *463:139 1.29186e-06
6 *183:10 *497:8 0
7 *157:65 *183:10 3.47607e-06
8 *181:20 *183:10 0
*RES
1 *610:Y *183:10 43.0989 
2 *183:10 *611:B 34.4 
*END

*D_NET *184 0.000560216
*CONN
*I *636:A1 I *D AO21x1_ASAP7_75t_R
*I *612:B I *D XNOR2x2_ASAP7_75t_R
*I *611:Y O *D OAI21x1_ASAP7_75t_R
*CAP
1 *636:A1 7.81913e-06
2 *612:B 0
3 *611:Y 1.96482e-05
4 *184:31 3.90596e-05
5 *184:29 6.49717e-05
6 *184:20 4.30588e-06
7 *184:14 9.23643e-05
8 *184:8 7.39755e-05
9 *636:A1 *444:10 2.03526e-06
10 *184:14 *622:B2 1.45158e-05
11 *184:14 *624:B 4.92332e-06
12 *184:14 *190:6 8.146e-06
13 *184:14 *195:8 2.68933e-07
14 *184:14 *274:242 0
15 *184:14 *462:62 5.09299e-06
16 *184:20 *189:23 1.54305e-05
17 *184:20 *437:12 0
18 *184:20 *482:133 3.16603e-07
19 *184:29 *635:A1 5.0551e-07
20 *184:29 *635:A2 2.03526e-06
21 *184:29 *339:10 0
22 *184:31 *203:8 7.97185e-06
23 *184:31 *211:166 0.000114233
24 *184:31 *421:49 1.98917e-05
25 *184:31 *434:31 2.25196e-06
26 *184:31 *437:88 2.19629e-06
27 *184:31 *446:10 0
28 *184:31 *447:55 7.37004e-06
29 *619:A *184:8 1.08167e-05
30 *35:25 *184:31 1.76563e-06
31 *181:16 *184:8 3.8304e-05
*RES
1 *611:Y *184:8 48.8403 
2 *184:8 *184:14 43.1267 
3 *184:14 *184:20 39.4685 
4 *184:20 *612:B 17.2 
5 *184:14 *184:29 30.5706 
6 *184:29 *184:31 38.8585 
7 *184:31 *636:A1 38.1438 
*END

*D_NET *185 0.000377577
*CONN
*I *677:C I *D NOR3x1_ASAP7_75t_R
*I *675:A I *D AND2x2_ASAP7_75t_R
*I *1076:A I *D BUFx3_ASAP7_75t_R
*I *613:Y O *D AO21x2_ASAP7_75t_R
*CAP
1 *677:C 3.61221e-06
2 *675:A 0
3 *1076:A 7.76411e-06
4 *613:Y 2.52827e-05
5 *185:25 2.96991e-05
6 *185:21 3.9498e-05
7 *185:10 1.54616e-05
8 *185:6 2.67935e-05
9 *677:C *210:58 1.82739e-05
10 *677:C *461:151 1.97634e-05
11 *185:6 *740:A 5.09299e-06
12 *185:6 *210:18 2.74995e-05
13 *185:6 *210:26 2.01337e-05
14 *185:6 *277:56 1.59615e-06
15 *185:6 *463:131 8.146e-06
16 *185:6 *500:14 1.72341e-05
17 *185:10 *210:58 4.64633e-06
18 *185:10 *461:132 2.68812e-07
19 *185:10 *461:151 4.37752e-06
20 *185:21 *210:58 2.06553e-05
21 *185:21 *461:151 2.19878e-05
22 *185:25 *675:B 3.46317e-06
23 *185:25 *225:8 1.20471e-05
24 *185:25 *487:12 7.80667e-06
25 *185:25 *487:58 1.79882e-05
26 *39:30 *185:25 1.11142e-05
27 *139:24 *185:25 7.37131e-06
*RES
1 *613:Y *185:6 43.4064 
2 *185:6 *185:10 18.8895 
3 *185:10 *1076:A 40.2831 
4 *185:10 *185:21 7.88432 
5 *185:21 *185:25 46.0806 
6 *185:25 *675:A 17.2 
7 *185:21 *677:C 41.158 
*END

*D_NET *186 0.000165795
*CONN
*I *632:A2 I *D AO21x1_ASAP7_75t_R
*I *616:B I *D NAND2x1_ASAP7_75t_R
*I *615:Y O *D AO21x1_ASAP7_75t_R
*CAP
1 *632:A2 0
2 *616:B 3.86217e-06
3 *615:Y 0
4 *186:29 1.18094e-05
5 *186:10 2.94503e-05
6 *186:4 3.73975e-05
7 *616:B *199:18 1.10364e-05
8 *186:10 *197:27 2.20966e-06
9 *186:10 *198:16 1.2903e-05
10 *186:10 *436:42 1.51763e-05
11 *186:10 *445:12 7.9646e-06
12 *186:10 *445:27 1.95303e-05
13 *186:29 *444:10 6.7842e-07
14 *186:29 *446:10 1.32095e-05
15 *35:25 *186:29 5.67747e-07
*RES
1 *615:Y *186:4 17.2 
2 *186:4 *186:10 35.5011 
3 *186:10 *616:B 37.609 
4 *186:4 *186:29 42.1143 
5 *186:29 *632:A2 17.2 
*END

*D_NET *187 0.000315321
*CONN
*I *622:A2 I *D OAI22x1_ASAP7_75t_R
*I *620:A I *D AND2x2_ASAP7_75t_R
*I *617:C I *D AND3x1_ASAP7_75t_R
*I *616:Y O *D NAND2x1_ASAP7_75t_R
*CAP
1 *622:A2 0
2 *620:A 0
3 *617:C 1.4011e-05
4 *616:Y 0
5 *187:28 2.99787e-05
6 *187:20 2.05825e-05
7 *187:12 3.58092e-05
8 *187:6 3.11945e-05
9 *617:C *190:29 3.68287e-06
10 *617:C *437:35 3.89493e-05
11 *187:12 *189:23 4.16358e-05
12 *187:12 *193:8 5.51397e-07
13 *187:12 *198:16 7.84037e-07
14 *187:12 *435:70 1.64348e-06
15 *187:12 *436:42 1.67893e-05
16 *187:12 *437:20 2.35969e-05
17 *187:12 *437:88 0
18 *187:12 *446:23 0
19 *187:12 *446:31 2.84286e-06
20 *187:12 *462:56 0
21 *187:12 *462:68 1.49407e-08
22 *187:12 *482:141 8.06436e-06
23 *187:20 *193:8 9.30483e-06
24 *187:20 *410:26 1.12894e-06
25 *187:20 *437:20 2.0895e-06
26 *187:20 *462:68 3.47607e-06
27 *187:28 *683:A2 1.70708e-06
28 *187:28 *410:26 1.62225e-05
29 *187:28 *437:35 7.14604e-06
30 *187:28 *451:51 3.56177e-06
31 *187:28 *462:68 5.52807e-07
*RES
1 *616:Y *187:6 34.4 
2 *187:6 *187:12 47.8057 
3 *187:12 *187:20 39.89 
4 *187:20 *187:28 46.4496 
5 *187:28 *617:C 28.9662 
6 *187:28 *620:A 17.2 
7 *187:12 *622:A2 17.2 
*END

*D_NET *188 3.39476e-05
*CONN
*I *626:A2 I *D AO211x2_ASAP7_75t_R
*I *617:Y O *D AND3x1_ASAP7_75t_R
*CAP
1 *626:A2 0
2 *617:Y 6.96705e-06
3 *188:10 6.96705e-06
4 *188:10 *196:14 5.23571e-06
5 *188:10 *437:35 1.56713e-06
6 *188:10 *466:10 1.32106e-05
*RES
1 *617:Y *188:10 40.5098 
2 *188:10 *626:A2 34.4 
*END

*D_NET *189 0.000220196
*CONN
*I *634:A2 I *D OA21x2_ASAP7_75t_R
*I *619:B I *D NAND2x1_ASAP7_75t_R
*I *618:Y O *D OA21x2_ASAP7_75t_R
*CAP
1 *634:A2 1.16318e-05
2 *619:B 5.56025e-06
3 *618:Y 0
4 *189:23 2.55974e-05
5 *189:12 3.1145e-05
6 *189:4 3.95503e-05
7 *619:B *190:6 2.96818e-06
8 *634:A2 *437:14 2.61188e-06
9 *634:A2 *437:20 3.16328e-06
10 *189:12 *618:A1 5.19552e-07
11 *189:12 *618:A2 5.77141e-06
12 *189:12 *410:26 1.34329e-05
13 *189:12 *446:23 5.01287e-06
14 *189:12 *462:56 1.31716e-05
15 *189:23 *437:12 0
16 *189:23 *447:55 0
17 *189:23 *482:141 2.9937e-06
18 *184:20 *189:23 1.54305e-05
19 *187:12 *189:23 4.16358e-05
*RES
1 *618:Y *189:4 17.2 
2 *189:4 *189:12 49.067 
3 *189:12 *619:B 20.409 
4 *189:4 *189:23 33.5318 
5 *189:23 *634:A2 41.8876 
*END

*D_NET *190 0.000151614
*CONN
*I *622:B1 I *D OAI22x1_ASAP7_75t_R
*I *620:B I *D AND2x2_ASAP7_75t_R
*I *624:B I *D NOR2x1_ASAP7_75t_R
*I *619:Y O *D NAND2x1_ASAP7_75t_R
*CAP
1 *622:B1 0
2 *620:B 0
3 *624:B 1.15368e-05
4 *619:Y 5.61295e-06
5 *190:29 1.32182e-05
6 *190:19 2.38706e-05
7 *190:6 2.78021e-05
8 *190:19 *622:B2 8.05934e-06
9 *190:19 *195:8 0
10 *190:19 *410:26 0
11 *190:19 *437:20 2.35211e-06
12 *190:19 *437:35 1.41724e-06
13 *190:29 *193:8 2.20493e-06
14 *190:29 *193:12 9.93857e-06
15 *190:29 *196:14 0
16 *190:29 *437:35 5.52807e-07
17 *617:C *190:29 3.68287e-06
18 *619:A *624:B 1.47193e-05
19 *619:B *190:6 2.96818e-06
20 *181:16 *624:B 1.06092e-05
21 *184:14 *624:B 4.92332e-06
22 *184:14 *190:6 8.146e-06
*RES
1 *619:Y *190:6 23.0831 
2 *190:6 *624:B 26.8269 
3 *190:6 *190:19 43.4107 
4 *190:19 *190:29 43.7754 
5 *190:29 *620:B 17.2 
6 *190:19 *622:B1 17.2 
*END

*D_NET *191 0.00011632
*CONN
*I *623:A2 I *D AO21x1_ASAP7_75t_R
*I *620:Y O *D AND2x2_ASAP7_75t_R
*CAP
1 *623:A2 0
2 *620:Y 0
3 *191:12 2.48464e-05
4 *191:6 2.48464e-05
5 *191:12 *685:A1 1.87026e-05
6 *191:12 *685:A2 2.03526e-06
7 *191:12 *193:12 2.04688e-06
8 *191:12 *194:10 1.54461e-06
9 *191:12 *230:74 2.55999e-05
10 *191:12 *341:8 0
11 *191:12 *451:51 1.66977e-05
*RES
1 *620:Y *191:6 34.4 
2 *191:6 *191:12 39.9497 
3 *191:12 *623:A2 17.2 
*END

*D_NET *192 7.94818e-05
*CONN
*I *622:B2 I *D OAI22x1_ASAP7_75t_R
*I *621:Y O *D OR2x4_ASAP7_75t_R
*CAP
1 *622:B2 1.59063e-05
2 *621:Y 1.22706e-05
3 *192:8 2.81769e-05
4 *622:B2 *195:8 0
5 *622:B2 *410:26 0
6 *181:10 *622:B2 5.52807e-07
7 *184:14 *622:B2 1.45158e-05
8 *190:19 *622:B2 8.05934e-06
*RES
1 *621:Y *192:8 39.2134 
2 *192:8 *622:B2 47.3528 
*END

*D_NET *193 0.000151365
*CONN
*I *623:B I *D AO21x1_ASAP7_75t_R
*I *622:Y O *D OAI22x1_ASAP7_75t_R
*CAP
1 *623:B 0
2 *622:Y 2.61729e-05
3 *193:12 3.28628e-05
4 *193:8 5.90356e-05
5 *193:8 *622:A1 2.11853e-06
6 *193:8 *437:20 1.40419e-08
7 *193:12 *194:10 5.37569e-06
8 *193:12 *196:14 0
9 *193:12 *230:74 5.49212e-07
10 *193:12 *437:35 1.18996e-06
11 *193:12 *451:51 0
12 *193:12 *466:10 0
13 *193:12 *466:69 0
14 *187:12 *193:8 5.51397e-07
15 *187:20 *193:8 9.30483e-06
16 *190:29 *193:8 2.20493e-06
17 *190:29 *193:12 9.93857e-06
18 *191:12 *193:12 2.04688e-06
*RES
1 *622:Y *193:8 45.6313 
2 *193:8 *193:12 39.7266 
3 *193:12 *623:B 17.2 
*END

*D_NET *194 5.55861e-05
*CONN
*I *626:B I *D AO211x2_ASAP7_75t_R
*I *623:Y O *D AO21x1_ASAP7_75t_R
*CAP
1 *626:B 4.82722e-06
2 *623:Y 1.76774e-05
3 *194:10 2.25046e-05
4 *626:B *196:14 3.65663e-06
5 *194:10 *466:10 0
6 *194:10 *466:69 0
7 *191:12 *194:10 1.54461e-06
8 *193:12 *194:10 5.37569e-06
*RES
1 *623:Y *194:10 44.2536 
2 *194:10 *626:B 38.1438 
*END

*D_NET *195 4.361e-05
*CONN
*I *625:C I *D OA211x2_ASAP7_75t_R
*I *624:Y O *D NOR2x1_ASAP7_75t_R
*CAP
1 *625:C 1.15427e-05
2 *624:Y 8.27085e-06
3 *195:8 1.98135e-05
4 *625:C *196:8 3.13426e-06
5 *195:8 *274:242 5.79724e-07
6 *195:8 *437:39 0
7 *622:B2 *195:8 0
8 *184:14 *195:8 2.68933e-07
9 *190:19 *195:8 0
*RES
1 *624:Y *195:8 40.0317 
2 *195:8 *625:C 41.3527 
*END

*D_NET *196 0.000101977
*CONN
*I *626:C I *D AO211x2_ASAP7_75t_R
*I *625:Y O *D OA211x2_ASAP7_75t_R
*CAP
1 *626:C 0
2 *625:Y 7.69663e-06
3 *196:14 3.66503e-05
4 *196:8 4.43469e-05
5 *196:14 *437:39 0
6 *196:14 *437:59 0
7 *196:14 *466:10 1.25675e-06
8 *625:C *196:8 3.13426e-06
9 *626:B *196:14 3.65663e-06
10 *188:10 *196:14 5.23571e-06
11 *190:29 *196:14 0
12 *193:12 *196:14 0
*RES
1 *625:Y *196:8 38.1438 
2 *196:8 *196:14 40.3145 
3 *196:14 *626:C 17.2 
*END

*D_NET *197 0.000188984
*CONN
*I *630:B1 I *D AO221x1_ASAP7_75t_R
*I *629:B I *D OA211x2_ASAP7_75t_R
*I *627:Y O *D OA211x2_ASAP7_75t_R
*CAP
1 *630:B1 0
2 *629:B 2.28161e-06
3 *627:Y 0
4 *197:27 1.28933e-05
5 *197:10 4.8858e-05
6 *197:4 5.94697e-05
7 *197:10 *627:A2 3.90258e-06
8 *197:10 *199:10 0
9 *197:10 *410:26 0
10 *197:10 *433:67 0
11 *197:10 *445:27 5.51397e-07
12 *197:27 *198:16 1.63973e-05
13 *197:27 *445:27 1.15587e-05
14 *197:27 *446:10 5.30889e-06
15 *197:27 *446:23 7.7278e-06
16 *627:C *197:10 4.32973e-06
17 *627:C *197:27 3.3921e-06
18 *629:C *629:B 7.14604e-06
19 *128:20 *197:27 2.95693e-06
20 *186:10 *197:27 2.20966e-06
*RES
1 *627:Y *197:4 17.2 
2 *197:4 *197:10 37.6651 
3 *197:10 *629:B 36.5393 
4 *197:4 *197:27 48.3374 
5 *197:27 *630:B1 17.2 
*END

*D_NET *198 0.000144523
*CONN
*I *630:B2 I *D AO221x1_ASAP7_75t_R
*I *628:Y O *D OR2x2_ASAP7_75t_R
*CAP
1 *630:B2 6.28283e-06
2 *628:Y 6.1508e-06
3 *198:16 2.64372e-05
4 *198:8 2.63051e-05
5 *630:B2 *199:18 5.19552e-07
6 *198:8 *435:70 2.64317e-05
7 *198:8 *436:42 1.10456e-05
8 *198:16 *436:42 1.67815e-06
9 *198:16 *445:27 7.81138e-06
10 *198:16 *445:29 6.7842e-07
11 *198:16 *446:23 1.09842e-06
12 *186:10 *198:16 1.2903e-05
13 *187:12 *198:16 7.84037e-07
14 *197:27 *198:16 1.63973e-05
*RES
1 *628:Y *198:8 43.4107 
2 *198:8 *198:16 48.1674 
3 *198:16 *630:B2 37.609 
*END

*D_NET *199 0.000153572
*CONN
*I *630:C I *D AO221x1_ASAP7_75t_R
*I *629:Y O *D OA211x2_ASAP7_75t_R
*CAP
1 *630:C 0
2 *629:Y 1.95503e-05
3 *199:18 3.26493e-05
4 *199:10 5.21997e-05
5 *199:10 *627:A1 5.62196e-06
6 *199:10 *435:70 9.67723e-06
7 *199:10 *444:33 9.94583e-06
8 *199:10 *445:35 2.71368e-06
9 *199:18 *437:88 5.52807e-07
10 *199:18 *446:23 8.33296e-06
11 *199:18 *446:31 7.72307e-07
12 *616:B *199:18 1.10364e-05
13 *630:B2 *199:18 5.19552e-07
14 *197:10 *199:10 0
*RES
1 *629:Y *199:10 44.7317 
2 *199:10 *199:18 49.5168 
3 *199:18 *630:C 34.4 
*END

*D_NET *200 0.000153981
*CONN
*I *631:B I *D XOR2x2_ASAP7_75t_R
*I *630:Y O *D AO221x1_ASAP7_75t_R
*CAP
1 *631:B 0
2 *630:Y 1.03446e-05
3 *200:12 1.54151e-05
4 *200:8 2.57597e-05
5 *200:8 *421:43 4.74894e-06
6 *200:12 *201:14 1.66587e-05
7 *200:12 *204:10 1.27881e-05
8 *200:12 *204:22 2.29891e-05
9 *200:12 *447:40 2.94577e-05
10 *32:18 *200:12 2.35875e-06
11 *132:10 *200:12 1.34605e-05
*RES
1 *630:Y *200:8 38.1438 
2 *200:8 *200:12 38.6003 
3 *200:12 *631:B 17.2 
*END

*D_NET *201 0.000144703
*CONN
*I *633:A2 I *D AOI21x1_ASAP7_75t_R
*I *632:Y O *D AO21x1_ASAP7_75t_R
*CAP
1 *633:A2 0
2 *632:Y 1.70177e-05
3 *201:14 1.30215e-05
4 *201:8 3.00392e-05
5 *201:14 *541:A2 9.94583e-06
6 *201:14 *204:16 3.3921e-06
7 *201:14 *204:22 1.89962e-06
8 *201:14 *421:43 9.93857e-06
9 *35:25 *201:8 1.27782e-06
10 *132:10 *201:14 4.15123e-05
11 *200:12 *201:14 1.66587e-05
*RES
1 *632:Y *201:8 40.8179 
2 *201:8 *201:14 33.9533 
3 *201:14 *633:A2 17.2 
*END

*D_NET *202 0.000137475
*CONN
*I *636:A2 I *D AO21x1_ASAP7_75t_R
*I *633:Y O *D AOI21x1_ASAP7_75t_R
*CAP
1 *636:A2 0
2 *633:Y 5.73982e-06
3 *202:14 2.37988e-05
4 *202:8 2.95387e-05
5 *202:8 *633:A1 3.56648e-06
6 *202:14 *204:22 1.47661e-05
7 *202:14 *285:28 0
8 *202:14 *447:18 4.04904e-06
9 *32:18 *202:14 3.41722e-05
10 *32:26 *202:14 8.47826e-06
11 *128:12 *202:14 4.97876e-07
12 *130:14 *202:14 1.28682e-05
*RES
1 *633:Y *202:8 37.0741 
2 *202:8 *202:14 40.7396 
3 *202:14 *636:A2 17.2 
*END

*D_NET *203 3.66577e-05
*CONN
*I *635:A2 I *D OAI21x1_ASAP7_75t_R
*I *634:Y O *D OA21x2_ASAP7_75t_R
*CAP
1 *635:A2 2.70799e-06
2 *634:Y 6.57334e-06
3 *203:8 9.28133e-06
4 *635:A2 *635:A1 6.7842e-07
5 *203:8 *211:166 2.10239e-06
6 *203:8 *447:55 5.30715e-06
7 *184:29 *635:A2 2.03526e-06
8 *184:31 *203:8 7.97185e-06
*RES
1 *634:Y *203:8 40.0317 
2 *203:8 *635:A2 36.0045 
*END

*D_NET *204 0.000229019
*CONN
*I *636:B I *D AO21x1_ASAP7_75t_R
*I *635:Y O *D OAI21x1_ASAP7_75t_R
*CAP
1 *636:B 0
2 *635:Y 7.67302e-06
3 *204:22 2.59842e-05
4 *204:16 3.15783e-05
5 *204:10 1.32672e-05
6 *204:22 *541:A2 1.64747e-05
7 *204:22 *421:43 1.12901e-05
8 *32:18 *204:22 4.79735e-05
9 *130:14 *204:22 5.13209e-07
10 *132:10 *204:10 1.32544e-05
11 *132:10 *204:22 5.17584e-06
12 *200:12 *204:10 1.27881e-05
13 *200:12 *204:22 2.29891e-05
14 *201:14 *204:16 3.3921e-06
15 *201:14 *204:22 1.89962e-06
16 *202:14 *204:22 1.47661e-05
*RES
1 *635:Y *204:10 40.5098 
2 *204:10 *204:16 37.0741 
3 *204:16 *204:22 48.0324 
4 *204:22 *636:B 17.2 
*END

*D_NET *205 0.000429942
*CONN
*I *637:B I *D XNOR2x2_ASAP7_75t_R
*I *636:Y O *D AO21x1_ASAP7_75t_R
*CAP
1 *637:B 0
2 *636:Y 2.12531e-05
3 *205:22 3.25216e-05
4 *205:18 4.09261e-05
5 *205:10 5.26623e-05
6 *205:8 6.55108e-05
7 *205:8 *769:B 1.02895e-05
8 *205:8 *285:30 1.43515e-05
9 *205:10 *280:12 0
10 *205:10 *285:24 1.0826e-05
11 *205:10 *285:28 0
12 *205:10 *421:14 4.93044e-07
13 *205:10 *421:18 7.34922e-06
14 *205:10 *421:62 3.53529e-05
15 *205:10 *513:12 2.32884e-05
16 *205:18 *280:12 7.6881e-06
17 *205:18 *342:6 1.62312e-05
18 *205:22 *342:6 5.6694e-05
19 *205:22 *448:10 3.48165e-06
20 *652:A *205:22 2.03526e-06
21 *29:26 *205:10 2.89264e-05
22 *129:8 *205:10 6.10236e-08
*RES
1 *636:Y *205:8 42.9572 
2 *205:8 *205:10 41.6743 
3 *205:10 *205:18 42.0293 
4 *205:18 *205:22 39.6627 
5 *205:22 *637:B 17.2 
*END

*D_NET *206 0.000285954
*CONN
*I *663:A1 I *D OA21x2_ASAP7_75t_R
*I *742:B2 I *D OA222x2_ASAP7_75t_R
*I *653:Y O *D INVx1_ASAP7_75t_R
*CAP
1 *663:A1 0
2 *742:B2 7.77455e-06
3 *653:Y 1.27648e-05
4 *206:22 3.27244e-05
5 *206:14 2.80066e-05
6 *206:10 4.63884e-05
7 *206:8 5.60966e-05
8 *742:B2 *462:140 2.11853e-06
9 *206:8 *785:CLK 5.19552e-07
10 *206:10 *742:C2 5.37866e-07
11 *206:10 *300:14 2.30873e-06
12 *206:10 *300:31 1.49407e-08
13 *206:10 *449:14 2.17623e-06
14 *206:10 *449:20 5.55315e-06
15 *206:10 *462:140 3.17029e-06
16 *206:10 *463:205 9.59451e-06
17 *206:10 *463:207 6.96781e-06
18 *206:10 *491:14 0
19 *206:14 *463:188 1.04475e-06
20 *206:22 *274:111 7.47402e-07
21 *206:22 *337:29 1.62723e-06
22 *206:22 *463:188 6.81991e-06
23 *206:22 *491:14 1.87418e-05
24 *34:39 *206:10 4.74961e-06
25 *70:25 *206:8 5.09299e-06
26 *72:12 *206:10 2.07337e-05
27 *88:8 *206:10 9.67964e-06
*RES
1 *653:Y *206:8 40.2831 
2 *206:8 *206:10 37.169 
3 *206:10 *206:14 18.8045 
4 *206:14 *206:22 49.1804 
5 *206:22 *742:B2 21.4786 
6 *206:14 *663:A1 17.2 
*END

*D_NET *207 0.000783152
*CONN
*I *737:B I *D AO21x2_ASAP7_75t_R
*I *657:A I *D INVx1_ASAP7_75t_R
*I *681:B I *D OR2x4_ASAP7_75t_R
*I *655:B I *D AOI21x1_ASAP7_75t_R
*I *654:Y O *D NAND2x1_ASAP7_75t_R
*CAP
1 *737:B 2.19134e-06
2 *657:A 0
3 *681:B 2.01349e-05
4 *655:B 3.8681e-06
5 *654:Y 1.68745e-05
6 *207:55 3.53485e-05
7 *207:53 3.98703e-05
8 *207:44 2.07973e-05
9 *207:18 6.21962e-05
10 *207:14 7.43894e-05
11 *207:10 5.10478e-05
12 *207:8 4.58104e-05
13 *655:B *404:16 1.31643e-05
14 *655:B *417:14 2.22736e-06
15 *681:B *681:A 1.56713e-06
16 *681:B *404:16 2.6665e-05
17 *681:B *417:14 1.5963e-06
18 *681:B *483:108 1.03091e-06
19 *207:10 *213:8 2.92059e-05
20 *207:10 *223:16 4.38641e-05
21 *207:10 *449:40 4.51547e-06
22 *207:10 *449:66 1.23321e-06
23 *207:10 *461:56 1.04358e-06
24 *207:10 *463:12 8.03941e-05
25 *207:10 *482:216 1.93878e-05
26 *207:44 *230:10 0
27 *207:44 *415:8 5.49212e-07
28 *207:44 *461:56 0
29 *207:55 *210:18 0
30 *207:55 *230:10 0
31 *207:55 *230:31 0
32 *207:55 *415:8 0.000103174
33 *207:55 *500:10 1.49407e-08
34 *737:A2 *207:55 1.94252e-06
35 *971:A *207:18 2.66992e-06
36 *4:12 *207:8 2.03608e-06
37 *119:43 *207:18 1.29186e-06
38 *130:32 *737:B 2.90269e-07
39 *139:48 *207:14 1.96943e-05
40 *139:48 *207:18 2.31575e-05
41 *139:75 *207:55 1.94302e-05
42 *145:22 *207:8 2.97289e-06
43 *147:65 *207:10 7.50486e-06
*RES
1 *654:Y *207:8 44.5617 
2 *207:8 *207:10 41.6743 
3 *207:10 *207:14 27.3617 
4 *207:14 *207:18 34.8492 
5 *207:18 *655:B 38.9053 
6 *207:18 *681:B 48.2241 
7 *207:14 *207:44 43.4107 
8 *207:44 *657:A 17.2 
9 *207:44 *207:53 19.8741 
10 *207:53 *207:55 35.4795 
11 *207:55 *737:B 35.4697 
*END

*D_NET *208 0.000755836
*CONN
*I *674:A I *D AND2x2_ASAP7_75t_R
*I *1053:A I *D BUFx3_ASAP7_75t_R
*I *1054:A I *D BUFx3_ASAP7_75t_R
*I *655:Y O *D AOI21x1_ASAP7_75t_R
*CAP
1 *674:A 5.16422e-06
2 *1053:A 3.51748e-05
3 *1054:A 0
4 *655:Y 4.92706e-06
5 *208:43 3.84266e-05
6 *208:39 4.44461e-05
7 *208:28 1.91243e-05
8 *208:22 6.45849e-05
9 *208:16 7.35577e-05
10 *208:10 6.41273e-05
11 *208:8 4.92706e-06
12 *1053:A *463:176 6.64487e-05
13 *1053:A *463:188 6.53938e-06
14 *208:8 *484:305 1.08006e-05
15 *208:16 *246:8 2.16984e-05
16 *208:16 *378:45 8.36476e-06
17 *208:16 *417:14 2.43869e-07
18 *208:16 *463:16 1.77231e-05
19 *208:16 *483:93 1.63752e-05
20 *208:22 *274:28 6.10253e-06
21 *208:22 *292:26 7.35565e-07
22 *208:22 *483:35 0
23 *208:28 *345:27 9.20473e-06
24 *208:28 *464:23 7.72307e-07
25 *208:28 *464:172 4.34937e-06
26 *208:28 *492:8 1.32074e-05
27 *208:28 *504:12 1.79538e-05
28 *208:39 *274:20 1.0426e-05
29 *208:39 *274:24 2.78959e-06
30 *208:39 *274:105 2.08769e-06
31 *208:39 *449:34 7.77172e-06
32 *208:39 *462:22 0
33 *208:39 *463:16 2.69748e-05
34 *208:39 *482:208 1.33652e-05
35 *208:43 *274:24 1.66977e-05
36 *208:43 *482:16 1.0385e-05
37 *208:43 *482:208 5.84106e-06
38 *998:A *1053:A 1.32196e-05
39 *1007:A *1053:A 1.35736e-05
40 *22:14 *208:16 1.10494e-05
41 *22:14 *208:39 8.69247e-06
42 *107:10 *208:28 1.38195e-05
43 *140:14 *208:39 4.4382e-06
44 *140:33 *208:8 6.10236e-07
45 *145:16 *1053:A 2.01337e-05
46 *149:8 *208:16 1.89808e-05
*RES
1 *655:Y *208:8 38.2483 
2 *208:8 *208:10 17.2 
3 *208:10 *208:16 44.8616 
4 *208:16 *208:22 49.7671 
5 *208:22 *208:28 36.4308 
6 *208:28 *1054:A 17.2 
7 *208:10 *208:39 37.8156 
8 *208:39 *208:43 22.8317 
9 *208:43 *1053:A 49.8243 
10 *208:39 *674:A 36.5393 
*END

*D_NET *209 0.000497805
*CONN
*I *749:A2 I *D OA222x2_ASAP7_75t_R
*I *656:Y O *D BUFx2_ASAP7_75t_R
*CAP
1 *749:A2 0
2 *656:Y 5.66383e-05
3 *209:22 9.25582e-06
4 *209:14 9.79425e-05
5 *209:12 9.69845e-05
6 *209:6 6.49361e-05
7 *209:6 *382:6 0
8 *209:14 *274:179 1.39465e-06
9 *209:14 *304:5 5.91157e-05
10 *209:14 *339:33 1.50621e-05
11 *209:14 *482:111 2.53246e-05
12 *209:14 *487:108 9.44383e-06
13 *209:22 *749:A1 5.41446e-06
14 *209:22 *441:85 2.88806e-06
15 *209:22 *450:25 4.32973e-06
16 *209:22 *482:115 1.74236e-06
17 *27:14 *209:22 9.31704e-06
18 *29:37 *209:22 3.65803e-06
19 *29:45 *209:14 2.06978e-05
20 *138:16 *209:22 1.3659e-05
*RES
1 *656:Y *209:6 43.4064 
2 *209:6 *209:12 39.1869 
3 *209:12 *209:14 41.3397 
4 *209:14 *209:22 43.2955 
5 *209:22 *749:A2 17.2 
*END

*D_NET *210 0.000858773
*CONN
*I *678:B I *D OA211x2_ASAP7_75t_R
*I *1071:C I *D AND3x4_ASAP7_75t_R
*I *658:C I *D AND3x4_ASAP7_75t_R
*I *657:Y O *D INVx1_ASAP7_75t_R
*CAP
1 *678:B 2.82844e-05
2 *1071:C 9.63097e-06
3 *658:C 2.82831e-06
4 *657:Y 9.90335e-06
5 *210:58 4.63219e-05
6 *210:45 3.5935e-05
7 *210:41 7.57322e-05
8 *210:26 6.46486e-05
9 *210:18 2.67729e-05
10 *210:10 4.23218e-05
11 *658:C *1049:A 5.85387e-06
12 *678:B *225:14 5.95027e-06
13 *678:B *225:22 2.55346e-06
14 *678:B *274:6 5.27185e-06
15 *678:B *274:232 2.03526e-06
16 *678:B *338:14 2.90209e-08
17 *1071:C *443:66 5.85387e-06
18 *1071:C *506:81 1.12561e-05
19 *210:10 *415:8 1.6226e-05
20 *210:10 *461:132 5.60929e-06
21 *210:18 *230:31 7.92234e-06
22 *210:26 *230:31 2.68933e-07
23 *210:26 *277:56 2.23869e-05
24 *210:26 *500:14 2.0561e-05
25 *210:41 *211:16 6.38087e-06
26 *210:41 *277:56 3.22574e-06
27 *210:41 *417:18 2.83874e-07
28 *210:41 *433:14 4.32995e-05
29 *210:41 *486:13 4.06472e-06
30 *210:41 *486:59 4.98398e-05
31 *210:45 *425:41 1.47043e-05
32 *210:45 *428:16 2.95693e-06
33 *210:45 *443:66 4.38963e-06
34 *210:45 *510:10 5.63102e-06
35 *210:58 *415:8 7.34069e-05
36 *210:58 *461:132 6.76763e-07
37 *210:58 *461:151 1.1479e-05
38 *677:C *210:58 1.82739e-05
39 *115:35 *210:45 1.61303e-05
40 *116:43 *210:45 5.49558e-05
41 *117:33 *210:45 1.26829e-06
42 *119:16 *210:45 2.33833e-06
43 *123:12 *1071:C 7.72307e-07
44 *130:30 *678:B 2.48065e-06
45 *130:32 *678:B 5.65766e-06
46 *135:14 *210:41 2.46851e-06
47 *139:40 *210:26 5.63883e-06
48 *170:8 *1071:C 1.35684e-06
49 *185:6 *210:18 2.74995e-05
50 *185:6 *210:26 2.01337e-05
51 *185:10 *210:58 4.64633e-06
52 *185:21 *210:58 2.06553e-05
53 *207:55 *210:18 0
*RES
1 *657:Y *210:10 41.6361 
2 *210:10 *210:18 45.2382 
3 *210:18 *210:26 48.1674 
4 *210:26 *658:C 36.0045 
5 *210:26 *210:41 44.2226 
6 *210:41 *210:45 44.7013 
7 *210:45 *1071:C 40.8179 
8 *210:10 *210:58 43.1056 
9 *210:58 *678:B 34.3144 
*END

*D_NET *211 0.00277307
*CONN
*I *959:A I *D BUFx6f_ASAP7_75t_R
*I *666:B1 I *D AO221x1_ASAP7_75t_R
*I *662:B1 I *D AO221x1_ASAP7_75t_R
*I *704:B2 I *D AO221x2_ASAP7_75t_R
*I *729:B2 I *D AO221x2_ASAP7_75t_R
*I *712:B2 I *D AO221x1_ASAP7_75t_R
*I *708:B2 I *D AO221x1_ASAP7_75t_R
*I *658:Y O *D AND3x4_ASAP7_75t_R
*CAP
1 *959:A 7.44707e-06
2 *666:B1 0
3 *662:B1 0
4 *704:B2 8.92221e-06
5 *729:B2 0
6 *712:B2 7.31835e-06
7 *708:B2 1.30371e-05
8 *658:Y 9.52077e-07
9 *211:166 6.37022e-05
10 *211:157 1.19969e-05
11 *211:149 7.58486e-05
12 *211:145 2.92885e-05
13 *211:134 1.96762e-05
14 *211:128 4.13681e-05
15 *211:126 4.44564e-05
16 *211:122 8.26396e-05
17 *211:116 4.23715e-05
18 *211:101 3.39793e-05
19 *211:99 2.50571e-05
20 *211:92 1.05185e-05
21 *211:84 5.59388e-05
22 *211:76 7.12436e-05
23 *211:70 3.21635e-05
24 *211:64 3.20342e-05
25 *211:36 5.05606e-05
26 *211:30 9.80866e-05
27 *211:24 0.00010795
28 *211:20 8.53248e-05
29 *211:16 0.000102252
30 *211:14 3.49652e-05
31 *211:6 8.80333e-06
32 *704:B2 *345:27 3.65131e-06
33 *708:B2 *256:10 2.83188e-05
34 *708:B2 *346:47 1.36155e-06
35 *708:B2 *489:62 3.05118e-08
36 *708:B2 *489:70 1.33043e-05
37 *712:B2 *712:C 5.85387e-06
38 *712:B2 *256:10 2.28457e-05
39 *712:B2 *485:127 5.85387e-06
40 *712:B2 *489:70 2.42138e-05
41 *959:A *397:10 3.13426e-06
42 *959:A *451:39 6.78445e-06
43 *211:6 *409:16 3.67067e-06
44 *211:14 *409:16 1.27802e-05
45 *211:16 *433:14 1.71849e-05
46 *211:16 *486:59 4.61286e-07
47 *211:20 *346:39 0
48 *211:20 *472:33 3.59242e-05
49 *211:20 *486:59 2.96719e-06
50 *211:24 *412:30 1.49407e-08
51 *211:24 *496:16 3.56929e-05
52 *211:30 *347:26 4.61909e-05
53 *211:30 *412:30 1.70323e-05
54 *211:30 *463:55 1.60761e-06
55 *211:30 *470:43 1.1211e-07
56 *211:30 *472:29 3.55626e-07
57 *211:30 *472:33 0
58 *211:30 *486:59 4.76605e-06
59 *211:36 *346:39 0
60 *211:36 *347:26 0
61 *211:36 *470:37 7.29552e-06
62 *211:64 *524:A1 7.31605e-06
63 *211:64 *412:30 1.63179e-05
64 *211:64 *424:70 5.12124e-06
65 *211:64 *474:19 9.07642e-06
66 *211:70 *493:22 1.3659e-05
67 *211:76 *351:18 7.72241e-06
68 *211:76 *351:26 4.42016e-05
69 *211:76 *351:43 1.26811e-05
70 *211:76 *418:37 1.97337e-05
71 *211:76 *463:95 0
72 *211:76 *467:24 1.94886e-06
73 *211:76 *468:31 1.06791e-06
74 *211:84 *274:254 0
75 *211:84 *284:6 1.24672e-08
76 *211:92 *729:B1 6.7842e-07
77 *211:92 *351:45 6.31056e-06
78 *211:92 *427:8 5.85387e-06
79 *211:92 *427:12 2.59836e-05
80 *211:92 *468:23 1.02359e-06
81 *211:92 *468:31 4.80936e-06
82 *211:101 *427:48 1.12894e-06
83 *211:101 *485:72 2.05596e-05
84 *211:101 *489:8 2.73415e-06
85 *211:116 *483:108 1.15905e-05
86 *211:116 *506:87 9.72458e-07
87 *211:122 *1049:A 5.19552e-07
88 *211:122 *230:31 8.46959e-06
89 *211:122 *409:16 1.20516e-05
90 *211:126 *429:12 2.21398e-05
91 *211:126 *462:79 9.51221e-05
92 *211:134 *436:8 1.37182e-05
93 *211:145 *436:8 8.37651e-06
94 *211:145 *436:12 1.07377e-06
95 *211:157 *666:B2 1.58649e-05
96 *211:157 *449:122 9.13351e-07
97 *211:166 *288:10 0
98 *211:166 *397:25 0
99 *211:166 *447:55 1.34466e-06
100 *211:166 *451:33 7.90851e-06
101 *11:10 *211:24 7.02214e-07
102 *32:12 *211:166 0
103 *34:31 *211:134 5.19552e-07
104 *35:10 *211:134 1.20637e-05
105 *35:10 *211:145 4.1837e-05
106 *35:25 *211:166 0
107 *36:10 *211:134 1.13245e-05
108 *38:20 *211:157 1.3988e-05
109 *38:31 *211:145 1.04442e-06
110 *38:31 *211:149 1.54613e-05
111 *38:31 *211:157 2.31409e-07
112 *39:30 *211:122 0
113 *41:12 *211:157 6.19506e-06
114 *41:18 *211:157 7.79295e-06
115 *53:28 *211:30 4.9535e-06
116 *55:10 *211:30 5.85981e-06
117 *56:30 *211:76 1.69693e-06
118 *56:49 *211:76 2.33013e-06
119 *59:10 *211:24 0
120 *113:41 *211:16 4.32593e-05
121 *114:10 *211:14 1.93482e-06
122 *115:18 *211:30 7.54554e-06
123 *116:14 *211:101 2.83449e-06
124 *117:33 *211:101 6.99648e-05
125 *123:8 *211:76 9.94583e-06
126 *131:24 *211:6 5.62196e-06
127 *131:24 *211:14 1.32074e-05
128 *132:10 *211:149 1.23427e-05
129 *132:10 *211:157 3.23787e-06
130 *132:10 *211:166 0.000172117
131 *132:16 *211:145 7.15685e-06
132 *134:8 *211:64 5.64295e-05
133 *134:8 *211:76 7.34814e-06
134 *135:14 *211:16 1.58556e-05
135 *135:14 *211:20 1.22034e-05
136 *135:14 *211:126 7.36727e-05
137 *135:20 *211:145 6.60103e-06
138 *139:40 *211:122 1.08634e-05
139 *157:35 *211:101 6.20988e-05
140 *165:10 *211:64 2.27924e-05
141 *184:31 *211:166 0.000114233
142 *203:8 *211:166 2.10239e-06
143 *210:41 *211:16 6.38087e-06
*RES
1 *658:Y *211:6 18.8045 
2 *211:6 *211:14 38.8008 
3 *211:14 *211:16 15.3671 
4 *211:16 *211:20 40.3589 
5 *211:20 *211:24 29.7774 
6 *211:24 *211:30 48.1879 
7 *211:30 *211:36 44.5726 
8 *211:36 *708:B2 46.5541 
9 *211:36 *712:B2 44.5458 
10 *211:24 *211:64 40.2225 
11 *211:64 *211:70 38.1438 
12 *211:70 *211:76 43.3464 
13 *211:76 *211:84 42.9929 
14 *211:84 *211:92 45.4561 
15 *211:92 *729:B2 17.2 
16 *211:16 *211:99 17.2 
17 *211:99 *211:101 34.447 
18 *211:101 *704:B2 39.7482 
19 *211:6 *211:116 38.3422 
20 *211:116 *211:122 35.8073 
21 *211:122 *211:126 47.5013 
22 *211:126 *211:128 17.2 
23 *211:128 *211:134 34.2065 
24 *211:134 *662:B1 17.2 
25 *211:128 *211:145 36.9373 
26 *211:145 *211:149 23.958 
27 *211:149 *211:157 46.0281 
28 *211:157 *666:B1 34.4 
29 *211:149 *211:166 69.2694 
30 *211:166 *959:A 41.3527 
*END

*D_NET *212 0.000580372
*CONN
*I *748:A2 I *D OA222x2_ASAP7_75t_R
*I *659:Y O *D BUFx2_ASAP7_75t_R
*CAP
1 *748:A2 0
2 *659:Y 0
3 *212:20 1.66817e-05
4 *212:12 0.000131875
5 *212:10 0.000159135
6 *212:6 4.39422e-05
7 *212:10 *231:10 0
8 *212:10 *308:19 3.32579e-06
9 *212:10 *368:12 0
10 *212:12 *231:12 1.72795e-05
11 *212:12 *231:20 9.76886e-05
12 *212:12 *238:14 9.34796e-06
13 *212:12 *274:206 7.46355e-05
14 *212:12 *397:54 8.87929e-06
15 *212:20 *274:214 2.84568e-06
16 *212:20 *280:12 7.84772e-07
17 *212:20 *288:27 3.90258e-06
18 *212:20 *397:27 1.79737e-06
19 *212:20 *487:139 8.25126e-06
20 *31:22 *212:20 0
*RES
1 *659:Y *212:6 34.4 
2 *212:6 *212:10 47.5171 
3 *212:10 *212:12 51.0794 
4 *212:12 *212:20 45.8952 
5 *212:20 *748:A2 17.2 
*END

*D_NET *213 0.000461777
*CONN
*I *746:A2 I *D OA222x2_ASAP7_75t_R
*I *660:Y O *D BUFx2_ASAP7_75t_R
*CAP
1 *746:A2 5.13245e-06
2 *660:Y 0
3 *213:8 0.000166356
4 *213:6 0.000161224
5 *746:A2 *452:20 7.36575e-06
6 *746:A2 *482:216 1.36155e-06
7 *213:8 *223:16 4.77874e-05
8 *213:8 *229:8 2.53634e-05
9 *213:8 *274:24 8.19692e-07
10 *213:8 *322:13 0
11 *213:8 *364:8 0
12 *213:8 *463:12 1.12894e-06
13 *213:8 *482:16 0
14 *4:12 *213:8 5.52807e-07
15 *145:10 *213:8 8.07019e-06
16 *147:65 *213:8 7.40834e-06
17 *207:10 *213:8 2.92059e-05
*RES
1 *660:Y *213:6 34.4 
2 *213:6 *213:8 139.665 
3 *213:8 *746:A2 37.609 
*END

*D_NET *214 0.000498055
*CONN
*I *662:C I *D AO221x1_ASAP7_75t_R
*I *661:Y O *D AO21x1_ASAP7_75t_R
*CAP
1 *662:C 0
2 *661:Y 4.61186e-05
3 *214:22 4.50786e-06
4 *214:14 7.50837e-05
5 *214:12 7.40914e-05
6 *214:6 4.96342e-05
7 *214:6 *220:20 4.41457e-06
8 *214:6 *279:8 2.16334e-05
9 *214:6 *461:77 5.19552e-07
10 *214:12 *279:14 8.8197e-07
11 *214:14 *429:12 2.22187e-05
12 *214:14 *461:60 1.32556e-05
13 *214:14 *506:106 0.000160383
14 *214:22 *337:12 8.32517e-06
15 *37:22 *214:12 0
16 *37:30 *214:12 4.26751e-07
17 *38:31 *214:22 6.53364e-07
18 *140:12 *214:22 9.20239e-06
19 *141:6 *214:6 6.70433e-06
*RES
1 *661:Y *214:6 39.1278 
2 *214:6 *214:12 36.7465 
3 *214:12 *214:14 34.1972 
4 *214:14 *214:22 38.7548 
5 *214:22 *662:C 17.2 
*END

*D_NET *215 0.000235829
*CONN
*I *663:B I *D OA21x2_ASAP7_75t_R
*I *662:Y O *D AO221x1_ASAP7_75t_R
*CAP
1 *663:B 0
2 *662:Y 1.26522e-05
3 *215:10 3.38562e-05
4 *215:8 4.65085e-05
5 *215:10 *463:205 1.12894e-06
6 *215:10 *463:207 9.23589e-05
7 *215:10 *476:10 3.25708e-06
8 *215:10 *499:20 0
9 *34:39 *215:8 1.02506e-06
10 *70:10 *215:10 1.54305e-05
11 *70:25 *215:10 2.74927e-05
12 *72:12 *215:10 2.11907e-06
*RES
1 *662:Y *215:8 39.2134 
2 *215:8 *215:10 36.6058 
3 *215:10 *663:B 34.4 
*END

*D_NET *216 0.00054696
*CONN
*I *666:A1 I *D AO221x1_ASAP7_75t_R
*I *743:C2 I *D OA222x2_ASAP7_75t_R
*I *664:Y O *D INVx1_ASAP7_75t_R
*CAP
1 *666:A1 0
2 *743:C2 8.22943e-06
3 *664:Y 2.14531e-05
4 *216:41 4.18529e-06
5 *216:33 5.2479e-05
6 *216:18 6.77982e-05
7 *216:16 2.74767e-05
8 *216:8 3.76548e-05
9 *743:C2 *743:A2 4.09784e-06
10 *743:C2 *743:C1 8.13589e-06
11 *216:8 *664:A 1.05512e-05
12 *216:16 *279:14 5.85387e-06
13 *216:16 *279:22 1.03403e-05
14 *216:18 *279:22 1.00467e-06
15 *216:18 *487:85 1.42649e-05
16 *216:33 *217:18 0.000127312
17 *216:33 *338:39 2.38641e-07
18 *216:33 *340:12 7.13311e-06
19 *216:33 *487:85 4.38963e-06
20 *216:33 *487:98 4.6335e-06
21 *216:41 *666:A2 9.26176e-06
22 *216:41 *666:C 7.9747e-06
23 *216:41 *285:34 0
24 *651:A *216:8 2.61188e-06
25 *37:41 *216:16 3.05118e-08
26 *37:47 *216:16 2.4974e-06
27 *39:12 *216:33 0.000107352
28 *42:10 *216:16 0
29 *42:10 *216:18 0
*RES
1 *664:Y *216:8 44.5617 
2 *216:8 *216:16 44.8451 
3 *216:16 *216:18 7.88432 
4 *216:18 *743:C2 39.2134 
5 *216:18 *216:33 45.7797 
6 *216:33 *216:41 37.7595 
7 *216:41 *666:A1 17.2 
*END

*D_NET *217 0.000594053
*CONN
*I *666:C I *D AO221x1_ASAP7_75t_R
*I *665:Y O *D AO21x1_ASAP7_75t_R
*CAP
1 *666:C 8.85637e-06
2 *665:Y 4.94836e-05
3 *217:18 5.29353e-05
4 *217:12 5.09402e-05
5 *217:6 5.63448e-05
6 *217:6 *665:A2 1.82541e-05
7 *217:6 *743:A2 2.22316e-05
8 *217:6 *275:6 0
9 *217:12 *220:16 3.05118e-08
10 *217:12 *441:74 5.43721e-07
11 *217:18 *666:A2 0
12 *217:18 *285:34 2.19482e-06
13 *217:18 *338:39 1.24672e-08
14 *217:18 *340:12 0.000168937
15 *550:A1 *666:C 2.72798e-05
16 *89:8 *217:12 7.21596e-07
17 *216:33 *217:18 0.000127312
18 *216:41 *666:C 7.9747e-06
*RES
1 *665:Y *217:6 38.0582 
2 *217:6 *217:12 38.0606 
3 *217:12 *217:18 47.0474 
4 *217:18 *666:C 42.4224 
*END

*D_NET *218 0.000101628
*CONN
*I *667:B I *D OA21x2_ASAP7_75t_R
*I *666:Y O *D AO221x1_ASAP7_75t_R
*CAP
1 *667:B 1.65585e-05
2 *666:Y 1.15426e-05
3 *218:8 2.81011e-05
4 *667:B *491:56 2.98961e-07
5 *218:8 *550:B 1.00854e-05
6 *550:A2 *218:8 3.24655e-06
7 *139:18 *667:B 3.17951e-05
*RES
1 *666:Y *218:8 39.2134 
2 *218:8 *667:B 45.6633 
*END

*D_NET *219 0.000160452
*CONN
*I *672:B2 I *D AOI22x1_ASAP7_75t_R
*I *668:Y O *D NAND2x2_ASAP7_75t_R
*CAP
1 *672:B2 0
2 *668:Y 0
3 *219:8 4.70257e-05
4 *219:6 4.70257e-05
5 *219:8 *478:10 4.13496e-06
6 *219:8 *478:16 3.08767e-06
7 *219:8 *482:52 0
8 *19:10 *219:8 9.83885e-06
9 *37:47 *219:8 2.98252e-05
10 *38:8 *219:8 3.3903e-06
11 *40:22 *219:8 2.80715e-06
12 *74:8 *219:8 1.33169e-05
*RES
1 *668:Y *219:6 34.4 
2 *219:6 *219:8 38.2953 
3 *219:8 *672:B2 34.4 
*END

*D_NET *220 0.000380218
*CONN
*I *671:B I *D OR3x1_ASAP7_75t_R
*I *669:Y O *D NOR2x1_ASAP7_75t_R
*CAP
1 *671:B 0
2 *669:Y 1.32258e-05
3 *220:20 2.20344e-05
4 *220:16 7.11267e-05
5 *220:12 9.53325e-05
6 *220:8 5.94659e-05
7 *220:8 *273:10 0
8 *220:8 *304:11 2.45021e-07
9 *220:8 *461:85 0
10 *220:12 *961:A 3.52961e-05
11 *220:16 *273:16 4.74168e-07
12 *220:16 *279:14 1.12055e-06
13 *220:16 *286:8 3.16743e-06
14 *220:16 *441:74 0
15 *220:16 *461:77 0
16 *220:20 *671:C 1.82733e-06
17 *220:20 *744:A 2.61188e-06
18 *220:20 *222:6 1.66052e-05
19 *220:20 *279:8 1.5804e-05
20 *220:20 *477:12 4.81235e-06
21 *37:14 *220:16 1.30867e-05
22 *37:30 *220:16 0
23 *37:30 *220:20 1.85565e-05
24 *147:127 *220:8 9.80084e-07
25 *214:6 *220:20 4.41457e-06
26 *217:12 *220:16 3.05118e-08
*RES
1 *669:Y *220:8 44.537 
2 *220:8 *220:12 38.0582 
3 *220:12 *220:16 48.1741 
4 *220:16 *220:20 35.384 
5 *220:20 *671:B 17.2 
*END

*D_NET *221 0.000175836
*CONN
*I *671:C I *D OR3x1_ASAP7_75t_R
*I *670:Y O *D AND3x1_ASAP7_75t_R
*CAP
1 *671:C 6.2233e-06
2 *670:Y 3.13001e-05
3 *221:10 4.25256e-05
4 *221:6 6.76024e-05
5 *221:6 *499:12 1.56984e-05
6 *221:10 *274:122 0
7 *221:10 *477:12 2.38727e-07
8 *37:30 *671:C 1.04206e-05
9 *220:20 *671:C 1.82733e-06
*RES
1 *670:Y *221:6 36.9885 
2 *221:6 *221:10 41.9793 
3 *221:10 *671:C 38.1438 
*END

*D_NET *222 8.59211e-05
*CONN
*I *672:B1 I *D AOI22x1_ASAP7_75t_R
*I *671:Y O *D OR3x1_ASAP7_75t_R
*CAP
1 *672:B1 0
2 *671:Y 3.4658e-05
3 *222:6 3.4658e-05
4 *220:20 *222:6 1.66052e-05
*RES
1 *671:Y *222:6 35.9189 
2 *222:6 *672:B1 17.2 
*END

*D_NET *223 0.000305786
*CONN
*I *746:C2 I *D OA222x2_ASAP7_75t_R
*I *674:B I *D AND2x2_ASAP7_75t_R
*I *673:Y O *D INVx1_ASAP7_75t_R
*CAP
1 *746:C2 1.19156e-05
2 *674:B 0
3 *673:Y 5.3388e-05
4 *223:16 1.50421e-05
5 *223:10 2.82049e-05
6 *223:6 5.46351e-05
7 *746:C2 *746:B1 1.12561e-05
8 *746:C2 *746:C1 5.85387e-06
9 *746:C2 *452:20 2.03526e-06
10 *746:C2 *482:216 9.30483e-06
11 *746:C2 *487:22 2.03997e-06
12 *223:6 *487:22 8.38704e-06
13 *223:10 *449:66 1.09842e-06
14 *223:10 *452:20 1.89962e-06
15 *223:16 *229:8 5.49212e-07
16 *223:16 *449:66 1.09842e-06
17 *223:16 *452:20 3.31686e-06
18 *223:16 *482:216 4.10928e-06
19 *207:10 *223:16 4.38641e-05
20 *213:8 *223:16 4.77874e-05
*RES
1 *673:Y *223:6 42.3368 
2 *223:6 *223:10 18.8895 
3 *223:10 *223:16 37.9805 
4 *223:16 *674:B 17.2 
5 *223:10 *746:C2 48.3055 
*END

*D_NET *224 0.00018826
*CONN
*I *680:B2 I *D OA33x2_ASAP7_75t_R
*I *674:Y O *D AND2x2_ASAP7_75t_R
*CAP
1 *680:B2 0
2 *674:Y 1.37072e-05
3 *224:14 3.34966e-05
4 *224:8 4.72038e-05
5 *224:14 *680:B1 6.19595e-06
6 *224:14 *228:12 3.89037e-06
7 *224:14 *452:8 7.48349e-05
8 *224:14 *487:16 6.70338e-06
9 *224:14 *511:10 0
10 *91:8 *224:14 2.22736e-06
*RES
1 *674:Y *224:8 39.2134 
2 *224:8 *224:14 49.2438 
3 *224:14 *680:B2 17.2 
*END

*D_NET *225 0.000188721
*CONN
*I *678:A2 I *D OA211x2_ASAP7_75t_R
*I *675:Y O *D AND2x2_ASAP7_75t_R
*CAP
1 *678:A2 0
2 *675:Y 2.50566e-05
3 *225:22 7.85082e-06
4 *225:14 4.22736e-05
5 *225:8 5.94794e-05
6 *225:8 *675:B 3.68287e-06
7 *225:8 *487:58 7.72307e-07
8 *225:14 *228:12 1.2571e-05
9 *225:14 *338:14 0
10 *225:14 *410:18 1.02842e-06
11 *225:14 *410:22 6.02341e-06
12 *225:14 *410:81 4.26607e-06
13 *225:14 *462:52 1.94229e-07
14 *225:22 *226:8 5.13209e-07
15 *225:22 *227:8 4.45852e-06
16 *225:22 *274:234 0
17 *225:22 *410:26 0
18 *678:B *225:14 5.95027e-06
19 *678:B *225:22 2.55346e-06
20 *185:25 *225:8 1.20471e-05
*RES
1 *675:Y *225:8 46.701 
2 *225:8 *225:14 37.0489 
3 *225:14 *225:22 41.073 
4 *225:22 *678:A2 17.2 
*END

*D_NET *226 2.5522e-05
*CONN
*I *677:B I *D NOR3x1_ASAP7_75t_R
*I *676:Y O *D INVx1_ASAP7_75t_R
*CAP
1 *677:B 2.58884e-06
2 *676:Y 6.90383e-06
3 *226:8 9.49267e-06
4 *39:26 *677:B 6.02341e-06
5 *225:22 *226:8 5.13209e-07
*RES
1 *676:Y *226:8 38.9053 
2 *226:8 *677:B 36.0045 
*END

*D_NET *227 3.59719e-05
*CONN
*I *678:A1 I *D OA211x2_ASAP7_75t_R
*I *677:Y O *D NOR3x1_ASAP7_75t_R
*CAP
1 *678:A1 0
2 *677:Y 6.49846e-06
3 *227:8 6.49846e-06
4 *227:8 *410:26 2.74606e-07
5 *227:8 *462:52 1.82419e-05
6 *225:22 *227:8 4.45852e-06
*RES
1 *677:Y *227:8 41.158 
2 *227:8 *678:A1 34.4 
*END

*D_NET *228 0.00011112
*CONN
*I *680:B3 I *D OA33x2_ASAP7_75t_R
*I *678:Y O *D OA211x2_ASAP7_75t_R
*CAP
1 *680:B3 0
2 *678:Y 0
3 *228:12 3.71472e-05
4 *228:6 3.71472e-05
5 *228:12 *675:B 7.47036e-07
6 *228:12 *680:B1 2.20493e-06
7 *228:12 *435:8 9.5466e-06
8 *228:12 *436:31 5.52807e-07
9 *228:12 *445:8 0
10 *228:12 *462:52 0
11 *228:12 *487:16 0
12 *228:12 *511:6 6.78445e-06
13 *228:12 *511:10 1.49407e-08
14 *39:20 *228:12 5.13209e-07
15 *224:14 *228:12 3.89037e-06
16 *225:14 *228:12 1.2571e-05
*RES
1 *678:Y *228:6 34.4 
2 *228:6 *228:12 44.5401 
3 *228:12 *680:B3 17.2 
*END

*D_NET *229 0.000309709
*CONN
*I *680:B1 I *D OA33x2_ASAP7_75t_R
*I *679:Y O *D AO21x1_ASAP7_75t_R
*CAP
1 *680:B1 1.31466e-05
2 *679:Y 0
3 *229:14 3.39503e-05
4 *229:8 4.41704e-05
5 *229:6 2.33667e-05
6 *680:B1 *511:10 2.017e-06
7 *229:8 *274:18 1.77116e-05
8 *229:8 *274:20 5.2648e-05
9 *229:8 *274:24 2.63389e-05
10 *229:8 *452:20 2.28376e-05
11 *229:14 *287:14 3.16096e-05
12 *145:10 *229:8 7.5985e-06
13 *213:8 *229:8 2.53634e-05
14 *223:16 *229:8 5.49212e-07
15 *224:14 *680:B1 6.19595e-06
16 *228:12 *680:B1 2.20493e-06
*RES
1 *679:Y *229:6 34.4 
2 *229:6 *229:8 33.2268 
3 *229:8 *229:14 47.7706 
4 *229:14 *680:B1 45.0151 
*END

*D_NET *230 0.00152481
*CONN
*I *731:B I *D NOR2x1_ASAP7_75t_R
*I *685:A2 I *D OA21x2_ASAP7_75t_R
*I *726:B I *D NOR2x1_ASAP7_75t_R
*I *701:B I *D NOR2x1_ASAP7_75t_R
*I *681:Y O *D OR2x4_ASAP7_75t_R
*CAP
1 *731:B 0
2 *685:A2 8.93381e-06
3 *726:B 0
4 *701:B 2.07603e-05
5 *681:Y 0
6 *230:74 5.35588e-05
7 *230:68 5.69247e-05
8 *230:62 3.38399e-05
9 *230:51 7.49842e-05
10 *230:49 7.49842e-05
11 *230:47 1.02695e-05
12 *230:39 0.000121319
13 *230:37 9.47585e-05
14 *230:31 3.21715e-05
15 *230:18 3.89276e-05
16 *230:10 7.76323e-05
17 *230:8 6.4333e-05
18 *230:4 3.17905e-05
19 *685:A2 *685:A1 1.35684e-06
20 *701:B *558:A 5.77516e-06
21 *701:B *558:B 3.65131e-06
22 *230:10 *377:20 1.29488e-05
23 *230:10 *378:10 1.84268e-06
24 *230:10 *378:23 7.56346e-05
25 *230:10 *378:31 7.73984e-06
26 *230:10 *484:305 6.44561e-06
27 *230:10 *484:309 6.77625e-06
28 *230:18 *558:B 1.79408e-06
29 *230:18 *461:18 5.47487e-06
30 *230:31 *486:13 4.87663e-06
31 *230:31 *486:57 2.2612e-06
32 *230:31 *500:10 7.26708e-06
33 *230:37 *500:10 6.7842e-07
34 *230:39 *625:A1 3.32767e-05
35 *230:39 *299:12 3.75733e-05
36 *230:39 *299:25 3.16603e-06
37 *230:39 *415:8 0
38 *230:39 *415:16 2.96459e-05
39 *230:39 *433:52 1.76438e-05
40 *230:39 *435:28 1.03945e-05
41 *230:39 *437:72 0
42 *230:39 *439:10 5.37866e-07
43 *230:39 *461:163 0
44 *230:39 *463:141 0
45 *230:39 *497:8 1.36943e-05
46 *230:47 *299:12 2.03526e-06
47 *230:47 *299:25 6.7842e-07
48 *230:47 *439:10 8.06436e-06
49 *230:51 *582:A 1.04475e-06
50 *230:51 *265:8 5.58593e-06
51 *230:51 *439:14 9.09056e-05
52 *230:51 *467:46 3.31915e-05
53 *230:62 *1063:A 1.09067e-06
54 *230:62 *269:6 5.09299e-06
55 *230:62 *272:12 0
56 *230:62 *299:25 9.63579e-06
57 *230:68 *299:25 1.34329e-05
58 *230:68 *466:69 0
59 *230:74 *437:72 6.32656e-06
60 *625:B *230:39 0
61 *737:A2 *230:39 3.78214e-06
62 *814:D *230:51 5.0551e-07
63 *972:A *230:10 0
64 *1028:A *230:47 2.01337e-05
65 *1028:A *230:51 3.68287e-06
66 *1065:A *230:37 6.7842e-07
67 *1065:A *230:39 0
68 *6:8 *230:62 9.81516e-06
69 *22:12 *230:10 2.83874e-07
70 *43:10 *230:47 2.05045e-06
71 *43:10 *230:51 7.35354e-06
72 *44:12 *230:39 3.05118e-08
73 *106:25 *230:10 3.81511e-05
74 *123:41 *230:39 0
75 *125:10 *230:39 2.62675e-05
76 *131:12 *230:39 0
77 *131:74 *230:31 1.12894e-06
78 *131:74 *230:39 1.91759e-05
79 *139:34 *230:31 8.36476e-06
80 *139:40 *230:10 3.34798e-05
81 *139:40 *230:31 1.03772e-05
82 *139:48 *230:10 8.06436e-06
83 *144:10 *230:18 3.05118e-08
84 *157:65 *230:39 0
85 *176:10 *230:39 1.19362e-05
86 *181:16 *230:39 1.19435e-05
87 *191:12 *685:A2 2.03526e-06
88 *191:12 *230:74 2.55999e-05
89 *193:12 *230:74 5.49212e-07
90 *207:44 *230:10 0
91 *207:55 *230:10 0
92 *207:55 *230:31 0
93 *210:18 *230:31 7.92234e-06
94 *210:26 *230:31 2.68933e-07
95 *211:122 *230:31 8.46959e-06
*RES
1 *681:Y *230:4 17.2 
2 *230:4 *230:8 18.8045 
3 *230:8 *230:10 60.9158 
4 *230:10 *230:18 41.623 
5 *230:18 *701:B 48.3055 
6 *230:4 *230:31 39.7266 
7 *230:31 *230:37 37.0741 
8 *230:37 *230:39 85.0381 
9 *230:39 *230:47 43.0989 
10 *230:47 *230:49 17.2 
11 *230:49 *230:51 54.0173 
12 *230:51 *726:B 17.2 
13 *230:39 *230:62 37.2756 
14 *230:62 *230:68 47.3528 
15 *230:68 *230:74 39.861 
16 *230:74 *685:A2 39.7482 
17 *230:62 *731:B 17.2 
*END

*D_NET *231 0.000757499
*CONN
*I *684:A2 I *D AO21x1_ASAP7_75t_R
*I *682:Y O *D INVx1_ASAP7_75t_R
*CAP
1 *684:A2 0
2 *682:Y 0
3 *231:28 3.45943e-06
4 *231:20 8.7649e-05
5 *231:18 8.96232e-05
6 *231:12 8.11063e-05
7 *231:10 0.000117029
8 *231:6 4.13561e-05
9 *231:10 *365:14 7.84037e-07
10 *231:12 *397:54 3.46261e-06
11 *231:18 *240:10 7.79855e-06
12 *231:20 *274:206 4.84907e-06
13 *231:20 *397:54 5.44411e-05
14 *231:20 *466:46 4.61286e-07
15 *231:20 *475:20 1.40879e-06
16 *231:20 *482:171 4.39892e-06
17 *231:20 *487:139 1.574e-05
18 *231:28 *451:39 1.04475e-06
19 *15:12 *231:18 7.74602e-06
20 *147:176 *231:12 9.87737e-05
21 *147:182 *231:12 1.91179e-05
22 *147:182 *231:20 2.2815e-06
23 *212:10 *231:10 0
24 *212:12 *231:12 1.72795e-05
25 *212:12 *231:20 9.76886e-05
*RES
1 *682:Y *231:6 34.4 
2 *231:6 *231:10 46.5785 
3 *231:10 *231:12 38.0931 
4 *231:12 *231:18 40.9703 
5 *231:18 *231:20 38.0931 
6 *231:20 *231:28 36.3144 
7 *231:28 *684:A2 17.2 
*END

*D_NET *232 2.54808e-05
*CONN
*I *684:B I *D AO21x1_ASAP7_75t_R
*I *683:Y O *D OA211x2_ASAP7_75t_R
*CAP
1 *684:B 1.99704e-06
2 *683:Y 9.49895e-06
3 *232:8 1.1496e-05
4 *684:B *451:39 2.20493e-06
5 *232:8 *451:33 0
6 *232:8 *451:39 0
7 *232:8 *482:147 2.83874e-07
*RES
1 *683:Y *232:8 40.0317 
2 *232:8 *684:B 36.0045 
*END

*D_NET *233 7.44324e-05
*CONN
*I *685:B I *D OA21x2_ASAP7_75t_R
*I *684:Y O *D AO21x1_ASAP7_75t_R
*CAP
1 *685:B 1.23962e-05
2 *684:Y 1.43207e-05
3 *233:10 2.67168e-05
4 *685:B *687:B1 2.09987e-05
5 *233:10 *341:8 0
6 *233:10 *397:10 0
7 *233:10 *451:39 0
*RES
1 *684:Y *233:10 42.171 
2 *233:10 *685:B 44.5617 
*END

*D_NET *234 3.62393e-05
*CONN
*I *687:B1 I *D AOI22x1_ASAP7_75t_R
*I *685:Y O *D OA21x2_ASAP7_75t_R
*CAP
1 *687:B1 7.6203e-06
2 *685:Y 7.6203e-06
3 *685:B *687:B1 2.09987e-05
*RES
1 *685:Y *687:B1 40.8179 
*END

*D_NET *235 4.53341e-05
*CONN
*I *687:B2 I *D AOI22x1_ASAP7_75t_R
*I *686:Y O *D NAND2x2_ASAP7_75t_R
*CAP
1 *687:B2 3.21236e-06
2 *686:Y 1.69219e-05
3 *235:8 2.01342e-05
4 *235:8 *341:8 0
5 *235:8 *341:16 0
6 *235:8 *397:10 0
7 *76:10 *235:8 5.06565e-06
*RES
1 *686:Y *235:8 47.3528 
2 *235:8 *687:B2 36.0045 
*END

*D_NET *236 0.000424337
*CONN
*I *691:A1 I *D AO22x2_ASAP7_75t_R
*I *749:C2 I *D OA222x2_ASAP7_75t_R
*I *688:Y O *D INVx1_ASAP7_75t_R
*CAP
1 *691:A1 7.65725e-06
2 *749:C2 2.76098e-06
3 *688:Y 0
4 *236:24 5.34592e-05
5 *236:18 7.84957e-05
6 *236:14 3.42531e-05
7 *236:10 4.05372e-05
8 *236:6 2.64243e-05
9 *749:C2 *487:108 6.7842e-07
10 *236:10 *240:10 3.61626e-06
11 *236:10 *411:16 7.43522e-06
12 *236:10 *440:12 3.51106e-05
13 *236:10 *465:17 4.01931e-06
14 *236:18 *274:195 5.46446e-06
15 *236:18 *289:8 3.3563e-06
16 *236:18 *289:37 1.5561e-06
17 *236:18 *290:21 6.55174e-06
18 *236:18 *342:12 1.039e-05
19 *236:18 *440:12 2.04071e-05
20 *236:18 *487:112 1.53019e-05
21 *236:18 *487:131 2.84943e-06
22 *236:24 *289:14 4.92332e-06
23 *236:24 *441:55 0
24 *236:24 *487:108 2.76345e-06
25 *15:22 *691:A1 5.90588e-07
26 *15:22 *236:10 1.30125e-05
27 *25:35 *236:18 1.09067e-06
28 *26:27 *749:C2 5.5871e-07
29 *27:14 *236:18 9.7275e-06
30 *27:33 *236:18 8.30358e-06
31 *28:14 *236:24 4.35576e-08
32 *30:10 *236:24 1.36155e-06
33 *30:41 *236:24 5.68629e-06
34 *93:10 *749:C2 8.13589e-06
35 *93:10 *236:24 9.09803e-07
36 *148:22 *236:18 6.90481e-06
*RES
1 *688:Y *236:6 34.4 
2 *236:6 *236:10 40.853 
3 *236:10 *236:14 19.8741 
4 *236:14 *236:18 48.1741 
5 *236:18 *236:24 39.638 
6 *236:24 *749:C2 36.5393 
7 *236:10 *691:A1 20.9438 
*END

*D_NET *237 7.44297e-05
*CONN
*I *691:B1 I *D AO22x2_ASAP7_75t_R
*I *689:Y O *D NAND2x1_ASAP7_75t_R
*CAP
1 *691:B1 0
2 *689:Y 3.98195e-06
3 *237:16 1.54766e-05
4 *237:8 1.94585e-05
5 *237:8 *397:60 0
6 *237:8 *480:10 9.75422e-06
7 *237:16 *240:10 0
8 *237:16 *342:18 1.75596e-06
9 *237:16 *397:60 3.14587e-06
10 *237:16 *480:10 2.4974e-06
11 *1042:A *237:16 9.13667e-07
12 *15:12 *237:8 1.65053e-05
13 *15:12 *237:16 9.40315e-07
*RES
1 *689:Y *237:8 40.0317 
2 *237:8 *237:16 44.9585 
3 *237:16 *691:B1 34.4 
*END

*D_NET *238 0.000190033
*CONN
*I *691:B2 I *D AO22x2_ASAP7_75t_R
*I *690:Y O *D AO21x1_ASAP7_75t_R
*CAP
1 *691:B2 0
2 *690:Y 3.91552e-05
3 *238:22 3.78871e-06
4 *238:14 3.78178e-05
5 *238:6 7.31842e-05
6 *238:6 *697:A2 9.30483e-06
7 *238:6 *367:6 1.55843e-05
8 *238:14 *239:10 6.33206e-07
9 *238:14 *438:21 1.49407e-08
10 *238:22 *691:A2 1.17301e-06
11 *238:22 *240:10 0
12 *690:B *238:6 2.90209e-08
13 *78:10 *238:6 0
14 *212:12 *238:14 9.34796e-06
*RES
1 *690:Y *238:6 34.8492 
2 *238:6 *238:14 47.3807 
3 *238:14 *238:22 36.5021 
4 *238:22 *691:B2 17.2 
*END

*D_NET *239 5.35721e-05
*CONN
*I *692:B I *D AO21x1_ASAP7_75t_R
*I *691:Y O *D AO22x2_ASAP7_75t_R
*CAP
1 *692:B 2.32303e-06
2 *691:Y 2.16371e-05
3 *239:10 2.39601e-05
4 *692:B *1052:A 2.20493e-06
5 *239:10 *342:18 5.38904e-07
6 *239:10 *397:60 2.27479e-06
7 *239:10 *438:21 0
8 *238:14 *239:10 6.33206e-07
*RES
1 *691:Y *239:10 45.8581 
2 *239:10 *692:B 36.0045 
*END

*D_NET *240 0.000312523
*CONN
*I *696:A1 I *D AO22x2_ASAP7_75t_R
*I *750:C2 I *D OA222x2_ASAP7_75t_R
*I *693:Y O *D INVx1_ASAP7_75t_R
*CAP
1 *696:A1 2.73007e-05
2 *750:C2 9.89737e-06
3 *693:Y 5.02303e-06
4 *240:10 8.15129e-05
5 *240:8 4.93379e-05
6 *696:A1 *441:45 5.85387e-06
7 *750:C2 *750:C1 6.7842e-07
8 *750:C2 *289:14 3.85538e-06
9 *750:C2 *411:16 4.74885e-06
10 *750:C2 *441:49 1.02996e-05
11 *750:C2 *441:110 3.04177e-06
12 *240:10 *397:60 0
13 *240:10 *411:16 7.14014e-05
14 *240:10 *441:110 2.72163e-05
15 *240:10 *475:33 0
16 *240:10 *491:72 0
17 *15:12 *240:10 9.41266e-07
18 *231:18 *240:10 7.79855e-06
19 *236:10 *240:10 3.61626e-06
20 *237:16 *240:10 0
21 *238:22 *240:10 0
*RES
1 *693:Y *240:8 36.0045 
2 *240:8 *240:10 42.8006 
3 *240:10 *750:C2 41.6078 
4 *240:10 *696:A1 43.492 
*END

*D_NET *241 0.000143225
*CONN
*I *696:B1 I *D AO22x2_ASAP7_75t_R
*I *694:Y O *D NAND2x1_ASAP7_75t_R
*CAP
1 *696:B1 0
2 *694:Y 4.47576e-05
3 *241:12 9.43216e-06
4 *241:6 5.41897e-05
5 *241:6 *242:14 8.146e-06
6 *241:6 *243:8 2.28976e-06
7 *241:12 *242:14 0
8 *241:12 *243:14 0
9 *241:12 *491:91 0
10 *14:18 *241:6 1.04475e-06
11 *14:22 *241:6 5.19475e-06
12 *14:30 *241:6 1.81703e-05
*RES
1 *694:Y *241:6 39.1278 
2 *241:6 *241:12 39.4685 
3 *241:12 *696:B1 17.2 
*END

*D_NET *242 0.000162559
*CONN
*I *696:B2 I *D AO22x2_ASAP7_75t_R
*I *695:Y O *D AO21x1_ASAP7_75t_R
*CAP
1 *696:B2 0
2 *695:Y 4.19404e-05
3 *242:14 2.10569e-05
4 *242:6 6.29973e-05
5 *242:6 *695:A1 0
6 *242:6 *695:A2 6.78445e-06
7 *242:14 *243:14 3.05118e-08
8 *25:10 *242:6 1.90613e-05
9 *25:14 *242:6 2.52755e-06
10 *27:56 *242:14 1.49407e-08
11 *241:6 *242:14 8.146e-06
12 *241:12 *242:14 0
*RES
1 *695:Y *242:6 36.9885 
2 *242:6 *242:14 48.054 
3 *242:14 *696:B2 17.2 
*END

*D_NET *243 9.59197e-05
*CONN
*I *697:B I *D AO21x1_ASAP7_75t_R
*I *696:Y O *D AO22x2_ASAP7_75t_R
*CAP
1 *697:B 0
2 *696:Y 1.67625e-06
3 *243:14 2.16192e-05
4 *243:8 2.32954e-05
5 *243:14 *697:A2 1.68514e-05
6 *243:14 *343:10 1.89249e-05
7 *243:14 *438:21 9.41947e-07
8 *27:56 *243:14 8.08537e-06
9 *78:10 *243:14 2.20493e-06
10 *241:6 *243:8 2.28976e-06
11 *241:12 *243:14 0
12 *242:14 *243:14 3.05118e-08
*RES
1 *696:Y *243:8 36.0045 
2 *243:8 *243:14 36.2626 
3 *243:14 *697:B 17.2 
*END

*D_NET *244 6.15677e-05
*CONN
*I *699:B I *D AO21x1_ASAP7_75t_R
*I *698:Y O *D AND3x1_ASAP7_75t_R
*CAP
1 *699:B 3.77913e-06
2 *698:Y 1.60421e-05
3 *244:10 1.98212e-05
4 *244:10 *699:A1 9.08513e-06
5 *244:10 *464:43 0
6 *244:10 *483:43 1.71136e-06
7 *699:A2 *699:B 5.85387e-06
8 *699:A2 *244:10 6.7842e-07
9 *127:10 *244:10 4.59644e-06
*RES
1 *698:Y *244:10 44.2252 
2 *244:10 *699:B 36.5393 
*END

*D_NET *245 0.000217697
*CONN
*I *700:C I *D AO221x1_ASAP7_75t_R
*I *699:Y O *D AO21x1_ASAP7_75t_R
*CAP
1 *700:C 3.61485e-06
2 *699:Y 4.24919e-06
3 *245:10 5.28339e-05
4 *245:8 5.34682e-05
5 *700:C *344:31 5.88289e-06
6 *245:10 *294:10 7.50937e-05
7 *245:10 *344:31 8.45637e-06
8 *245:10 *424:42 0
9 *245:10 *464:56 0
10 *1072:A *245:10 0
11 *11:10 *245:10 4.80622e-06
12 *23:10 *245:10 4.48222e-07
13 *67:8 *245:10 8.36938e-06
14 *67:20 *245:10 4.74168e-07
*RES
1 *699:Y *245:8 36.0045 
2 *245:8 *245:10 40.548 
3 *245:10 *700:C 36.5393 
*END

*D_NET *246 0.000289833
*CONN
*I *705:B1 I *D OA22x2_ASAP7_75t_R
*I *701:Y O *D NOR2x1_ASAP7_75t_R
*CAP
1 *705:B1 1.31575e-05
2 *701:Y 0
3 *246:8 6.62446e-05
4 *246:6 5.3087e-05
5 *705:B1 *249:12 2.20493e-06
6 *246:8 *277:33 1.29127e-05
7 *246:8 *292:58 1.10561e-06
8 *246:8 *378:45 8.49543e-06
9 *246:8 *404:37 8.20824e-06
10 *246:8 *417:14 8.6072e-07
11 *246:8 *483:93 1.49407e-08
12 *246:8 *483:108 1.96691e-05
13 *2:10 *246:8 4.1009e-06
14 *21:12 *246:8 0
15 *119:39 *705:B1 9.33789e-06
16 *131:30 *705:B1 1.62517e-06
17 *140:24 *246:8 5.88556e-06
18 *146:14 *246:8 5.09657e-05
19 *147:51 *246:8 8.2962e-06
20 *149:8 *246:8 1.96286e-06
21 *208:16 *246:8 2.16984e-05
*RES
1 *701:Y *246:6 34.4 
2 *246:6 *246:8 56.3166 
3 *246:8 *705:B1 43.492 
*END

*D_NET *247 0.000596039
*CONN
*I *703:B I *D NOR2x1_ASAP7_75t_R
*I *702:Y O *D OA21x2_ASAP7_75t_R
*CAP
1 *703:B 0
2 *702:Y 1.35445e-05
3 *247:18 3.45935e-05
4 *247:16 3.45935e-05
5 *247:14 2.98366e-05
6 *247:8 4.33811e-05
7 *247:8 *473:52 2.40241e-05
8 *247:14 *277:14 1.93482e-06
9 *247:14 *292:64 3.48165e-06
10 *247:14 *407:16 5.10363e-06
11 *247:14 *407:24 1.96234e-05
12 *247:14 *439:57 1.30125e-05
13 *247:14 *463:18 3.28739e-05
14 *247:14 *463:106 8.49118e-06
15 *247:14 *463:125 9.17584e-06
16 *247:14 *488:8 5.14924e-05
17 *247:14 *488:20 2.6201e-06
18 *247:18 *292:12 4.28696e-05
19 *247:18 *292:20 8.9453e-07
20 *247:18 *292:70 8.58704e-06
21 *247:18 *464:172 1.09067e-06
22 *247:18 *473:10 8.51183e-06
23 *247:18 *488:8 1.50001e-06
24 *48:18 *247:18 6.10104e-05
25 *113:22 *247:18 3.16603e-06
26 *118:8 *247:18 0.000140626
*RES
1 *702:Y *247:8 41.3527 
2 *247:8 *247:14 49.6652 
3 *247:14 *247:16 17.2 
4 *247:16 *247:18 52.3744 
5 *247:18 *703:B 34.4 
*END

*D_NET *248 0.000311773
*CONN
*I *704:C I *D AO221x2_ASAP7_75t_R
*I *703:Y O *D NOR2x1_ASAP7_75t_R
*CAP
1 *704:C 9.89819e-06
2 *703:Y 0
3 *248:14 2.67959e-05
4 *248:8 4.91758e-05
5 *248:6 3.22781e-05
6 *704:C *704:A1 6.7842e-07
7 *704:C *428:8 2.96327e-05
8 *248:8 *274:34 1.17835e-05
9 *248:8 *277:41 7.55228e-06
10 *248:8 *407:16 6.33206e-07
11 *248:8 *484:22 1.72128e-05
12 *248:8 *484:48 6.72417e-07
13 *248:8 *488:8 8.43747e-05
14 *48:18 *704:C 2.92479e-05
15 *118:8 *248:8 1.18371e-05
*RES
1 *703:Y *248:6 34.4 
2 *248:6 *248:8 38.2953 
3 *248:8 *248:14 40.2831 
4 *248:14 *704:C 46.1415 
*END

*D_NET *249 0.000100086
*CONN
*I *705:B2 I *D OA22x2_ASAP7_75t_R
*I *704:Y O *D AO221x2_ASAP7_75t_R
*CAP
1 *705:B2 0
2 *704:Y 0
3 *249:12 1.72542e-05
4 *249:6 1.72542e-05
5 *249:12 *407:16 2.08039e-05
6 *249:12 *473:44 3.80761e-06
7 *705:B1 *249:12 2.20493e-06
8 *116:28 *249:12 2.38942e-05
9 *119:31 *249:12 1.48672e-05
*RES
1 *704:Y *249:6 34.4 
2 *249:6 *249:12 36.7408 
3 *249:12 *705:B2 17.2 
*END

*D_NET *250 0.000288295
*CONN
*I *754:C2 I *D OA222x2_ASAP7_75t_R
*I *708:A1 I *D AO221x1_ASAP7_75t_R
*I *706:Y O *D INVx1_ASAP7_75t_R
*CAP
1 *754:C2 0
2 *708:A1 0
3 *706:Y 5.04814e-06
4 *250:22 9.1077e-06
5 *250:14 2.73757e-05
6 *250:10 6.67515e-05
7 *250:8 5.35317e-05
8 *250:8 *472:22 3.81627e-06
9 *250:10 *251:10 0
10 *250:10 *293:22 5.15951e-06
11 *250:10 *424:26 3.32524e-06
12 *250:10 *463:34 1.54792e-06
13 *250:10 *464:62 3.05118e-08
14 *250:10 *472:22 6.34026e-06
15 *250:10 *472:29 8.46764e-06
16 *250:10 *484:86 6.33206e-07
17 *250:14 *792:CLK 2.03526e-06
18 *250:14 *471:14 1.54461e-06
19 *250:22 *251:10 2.9484e-06
20 *250:22 *489:56 2.20493e-06
21 *250:22 *489:62 8.63639e-06
22 *250:22 *492:45 1.25562e-05
23 *55:10 *250:10 3.05118e-08
24 *58:12 *250:10 5.1946e-05
25 *95:8 *250:10 9.76081e-06
26 *105:20 *250:10 5.49614e-06
*RES
1 *706:Y *250:8 37.0741 
2 *250:8 *250:10 41.6743 
3 *250:10 *250:14 26.8269 
4 *250:14 *250:22 43.2973 
5 *250:22 *708:A1 17.2 
6 *250:14 *754:C2 17.2 
*END

*D_NET *251 0.000293367
*CONN
*I *708:C I *D AO221x1_ASAP7_75t_R
*I *707:Y O *D AO21x1_ASAP7_75t_R
*CAP
1 *708:C 7.93316e-06
2 *707:Y 4.54242e-06
3 *251:10 4.04657e-05
4 *251:8 3.70749e-05
5 *708:C *708:A2 3.90258e-06
6 *708:C *709:A1 1.07377e-06
7 *251:10 *274:60 1.10995e-05
8 *251:10 *274:70 1.49407e-08
9 *251:10 *470:10 8.55381e-05
10 *251:10 *485:39 1.59877e-06
11 *251:10 *489:35 3.19649e-06
12 *251:10 *489:50 6.70779e-06
13 *251:10 *489:56 7.12649e-05
14 *251:10 *489:62 5.52807e-07
15 *251:10 *492:45 1.54233e-05
16 *707:B *251:10 1.49407e-08
17 *147:43 *251:10 1.49407e-08
18 *250:10 *251:10 0
19 *250:22 *251:10 2.9484e-06
*RES
1 *707:Y *251:8 36.0045 
2 *251:8 *251:10 40.548 
3 *251:10 *708:C 38.6786 
*END

*D_NET *252 2.93336e-05
*CONN
*I *709:B I *D OA21x2_ASAP7_75t_R
*I *708:Y O *D AO221x1_ASAP7_75t_R
*CAP
1 *709:B 1.27707e-05
2 *708:Y 1.27707e-05
3 *709:B *709:A1 1.07377e-06
4 *709:B *463:49 2.71839e-06
*RES
1 *708:Y *709:B 41.3527 
*END

*D_NET *253 0.000300983
*CONN
*I *755:C2 I *D OA222x2_ASAP7_75t_R
*I *712:A1 I *D AO221x1_ASAP7_75t_R
*I *710:Y O *D INVx1_ASAP7_75t_R
*CAP
1 *755:C2 4.12481e-06
2 *712:A1 8.82098e-07
3 *710:Y 3.58474e-06
4 *253:45 2.06432e-05
5 *253:26 2.11214e-05
6 *253:18 5.02549e-05
7 *253:16 2.57122e-05
8 *253:10 1.57996e-05
9 *712:A1 *485:127 6.19506e-06
10 *755:C2 *755:C1 1.35684e-06
11 *755:C2 *442:8 9.75645e-06
12 *253:10 *710:A 3.13755e-07
13 *253:10 *484:138 7.12154e-06
14 *253:18 *809:CLK 2.19685e-06
15 *253:18 *256:10 5.17779e-05
16 *253:18 *347:34 6.33206e-07
17 *253:18 *369:14 3.47694e-06
18 *253:18 *470:18 1.2903e-05
19 *253:18 *484:140 0
20 *253:26 *485:127 0
21 *253:26 *489:70 5.65733e-06
22 *253:45 *256:10 2.9447e-05
23 *253:45 *347:26 6.09159e-06
24 *253:45 *347:34 2.43309e-06
25 *253:45 *455:37 9.29598e-06
26 *253:45 *489:70 4.14576e-06
27 *98:8 *253:26 6.05801e-06
*RES
1 *710:Y *253:10 36.6615 
2 *253:10 *253:16 37.4301 
3 *253:16 *253:18 17.552 
4 *253:18 *253:26 45.3516 
5 *253:26 *712:A1 36.0045 
6 *253:18 *253:45 46.8317 
7 *253:45 *755:C2 37.0741 
*END

*D_NET *254 6.998e-05
*CONN
*I *712:C I *D AO221x1_ASAP7_75t_R
*I *711:Y O *D AO21x1_ASAP7_75t_R
*CAP
1 *712:C 1.7591e-05
2 *711:Y 1.7591e-05
3 *712:C *712:B1 8.13414e-06
4 *712:C *347:34 5.22376e-07
5 *712:C *485:127 6.62869e-06
6 *712:B2 *712:C 5.85387e-06
7 *147:228 *712:C 1.3659e-05
*RES
1 *711:Y *712:C 45.0965 
*END

*D_NET *255 9.7797e-05
*CONN
*I *713:B I *D OA21x2_ASAP7_75t_R
*I *712:Y O *D AO221x1_ASAP7_75t_R
*CAP
1 *713:B 5.27287e-06
2 *712:Y 1.94209e-05
3 *255:10 2.46938e-05
4 *713:B *463:65 1.1118e-05
5 *255:10 *485:127 0
6 *255:10 *492:58 0
7 *255:10 *492:71 1.48772e-06
8 *55:10 *255:10 3.58038e-05
*RES
1 *712:Y *255:10 49.4638 
2 *255:10 *713:B 37.609 
*END

*D_NET *256 0.000390268
*CONN
*I *717:A1 I *D AO221x1_ASAP7_75t_R
*I *756:C2 I *D OA222x2_ASAP7_75t_R
*I *714:Y O *D INVx1_ASAP7_75t_R
*CAP
1 *717:A1 1.25832e-05
2 *756:C2 0
3 *714:Y 6.53023e-06
4 *256:25 3.72218e-05
5 *256:10 6.02229e-05
6 *256:8 4.21145e-05
7 *717:A1 *489:96 1.25098e-06
8 *717:A1 *492:71 1.60138e-05
9 *717:A1 *492:82 6.32321e-06
10 *717:A1 *493:6 5.0551e-07
11 *256:8 *714:A 2.52755e-07
12 *256:10 *274:314 1.71789e-05
13 *256:10 *346:47 4.30078e-06
14 *256:10 *348:18 9.97932e-06
15 *256:10 *489:62 8.06799e-07
16 *256:10 *489:70 4.63769e-06
17 *256:10 *489:83 1.28173e-05
18 *256:25 *274:308 1.40546e-06
19 *256:25 *274:314 4.55339e-06
20 *256:25 *348:18 1.51575e-05
21 *256:25 *412:51 1.38201e-06
22 *256:25 *489:96 1.07377e-06
23 *708:B2 *256:10 2.83188e-05
24 *712:B2 *256:10 2.28457e-05
25 *1031:A *256:25 1.56713e-06
26 *147:230 *256:10 0
27 *253:18 *256:10 5.17779e-05
28 *253:45 *256:10 2.9447e-05
*RES
1 *714:Y *256:8 37.0741 
2 *256:8 *256:10 43.9269 
3 *256:10 *756:C2 34.4 
4 *256:10 *256:25 47.4909 
5 *256:25 *717:A1 43.8888 
*END

*D_NET *257 3.29326e-05
*CONN
*I *716:B I *D AO21x1_ASAP7_75t_R
*I *715:Y O *D AND3x1_ASAP7_75t_R
*CAP
1 *716:B 1.21997e-06
2 *715:Y 1.11825e-05
3 *257:10 1.24024e-05
4 *716:B *716:A1 3.68287e-06
5 *716:B *371:12 5.22376e-07
6 *257:10 *456:12 2.8275e-06
7 *257:10 *464:88 0
8 *257:10 *483:74 1.09493e-06
*RES
1 *715:Y *257:10 40.5098 
2 *257:10 *716:B 35.4697 
*END

*D_NET *258 0.000196497
*CONN
*I *717:C I *D AO221x1_ASAP7_75t_R
*I *716:Y O *D AO21x1_ASAP7_75t_R
*CAP
1 *717:C 0
2 *716:Y 2.1297e-05
3 *258:14 3.26796e-05
4 *258:8 5.39766e-05
5 *258:8 *371:12 4.02536e-05
6 *258:14 *717:B1 3.89037e-06
7 *258:14 *717:B2 8.65792e-06
8 *258:14 *987:A 3.18415e-05
9 *258:14 *260:8 6.7842e-07
10 *258:14 *457:16 1.49407e-08
11 *258:14 *464:103 0
12 *258:14 *493:6 3.1923e-06
13 *147:230 *258:14 1.49407e-08
*RES
1 *716:Y *258:8 46.701 
2 *258:8 *258:14 38.9331 
3 *258:14 *717:C 17.2 
*END

*D_NET *259 0.00014784
*CONN
*I *721:A1 I *D AO221x1_ASAP7_75t_R
*I *757:C2 I *D OA222x2_ASAP7_75t_R
*I *718:Y O *D INVx1_ASAP7_75t_R
*CAP
1 *721:A1 0
2 *757:C2 1.21474e-05
3 *718:Y 0
4 *259:29 1.07978e-05
5 *259:12 2.58233e-05
6 *259:4 2.44737e-05
7 *757:C2 *261:6 7.58545e-06
8 *259:12 *274:292 2.05897e-06
9 *259:12 *463:74 1.15945e-06
10 *259:12 *469:20 5.62196e-06
11 *259:12 *469:33 1.32196e-05
12 *259:12 *479:6 2.05732e-05
13 *259:12 *479:10 5.15195e-07
14 *259:12 *479:36 3.05118e-08
15 *259:12 *493:14 1.52651e-06
16 *259:29 *261:22 6.7842e-07
17 *259:29 *295:39 4.65695e-07
18 *259:29 *469:33 1.08196e-05
19 *259:29 *479:6 5.85387e-06
20 *259:29 *493:14 1.52651e-06
21 *259:29 *506:18 2.31519e-06
22 *259:29 *506:35 6.33206e-07
23 *52:10 *259:29 0
24 *52:16 *259:29 0
25 *84:8 *259:29 1.40419e-08
*RES
1 *718:Y *259:4 17.2 
2 *259:4 *259:12 45.9147 
3 *259:12 *757:C2 23.6179 
4 *259:4 *259:29 42.7058 
5 *259:29 *721:A1 17.2 
*END

*D_NET *260 7.38203e-05
*CONN
*I *720:B I *D AO21x1_ASAP7_75t_R
*I *719:Y O *D AND3x1_ASAP7_75t_R
*CAP
1 *720:B 7.40843e-06
2 *719:Y 2.73491e-05
3 *260:8 3.47575e-05
4 *720:B *464:114 5.79724e-07
5 *720:B *484:208 0
6 *260:8 *457:16 3.0471e-06
7 *260:8 *493:6 0
8 *258:14 *260:8 6.7842e-07
*RES
1 *719:Y *260:8 46.701 
2 *260:8 *720:B 38.9053 
*END

*D_NET *261 0.000234477
*CONN
*I *721:C I *D AO221x1_ASAP7_75t_R
*I *720:Y O *D AO21x1_ASAP7_75t_R
*CAP
1 *721:C 0
2 *720:Y 3.65174e-05
3 *261:22 4.74676e-06
4 *261:14 1.96939e-05
5 *261:6 5.14645e-05
6 *261:6 *757:A1 5.51397e-07
7 *261:6 *274:306 2.0561e-05
8 *261:6 *372:14 1.26378e-06
9 *261:6 *457:33 0
10 *261:14 *349:14 6.75738e-06
11 *261:14 *349:20 9.98013e-06
12 *261:14 *350:20 0
13 *261:14 *479:36 1.72862e-05
14 *261:14 *492:82 1.73855e-05
15 *261:14 *506:35 3.24909e-05
16 *261:22 *721:A2 2.35266e-06
17 *261:22 *506:35 2.95646e-06
18 *757:C2 *261:6 7.58545e-06
19 *84:8 *261:22 2.20493e-06
20 *259:29 *261:22 6.7842e-07
*RES
1 *720:Y *261:6 34.3144 
2 *261:6 *261:14 47.2393 
3 *261:14 *261:22 38.5387 
4 *261:22 *721:C 17.2 
*END

*D_NET *262 0.000129044
*CONN
*I *758:C2 I *D OA222x2_ASAP7_75t_R
*I *724:A1 I *D AO221x1_ASAP7_75t_R
*I *722:Y O *D INVx1_ASAP7_75t_R
*CAP
1 *758:C2 8.02648e-06
2 *724:A1 0
3 *722:Y 7.60837e-06
4 *262:20 1.60906e-05
5 *262:12 2.66879e-05
6 *262:8 1.01792e-05
7 *758:C2 *758:B1 3.90258e-06
8 *758:C2 *274:281 1.64509e-05
9 *262:8 *479:93 6.10236e-07
10 *262:12 *758:B1 5.41446e-06
11 *262:20 *724:A2 2.28976e-06
12 *262:20 *263:10 0
13 *262:20 *274:292 2.44675e-05
14 *262:20 *458:14 7.31605e-06
*RES
1 *722:Y *262:8 38.9053 
2 *262:8 *262:12 18.8045 
3 *262:12 *262:20 46.1415 
4 *262:20 *724:A1 17.2 
5 *262:12 *758:C2 23.0831 
*END

*D_NET *263 5.70145e-05
*CONN
*I *724:C I *D AO221x1_ASAP7_75t_R
*I *723:Y O *D AO21x1_ASAP7_75t_R
*CAP
1 *724:C 3.55699e-06
2 *723:Y 1.68648e-05
3 *263:10 2.04218e-05
4 *724:C *724:B1 5.41446e-06
5 *724:C *724:B2 5.62196e-06
6 *263:10 *724:B2 5.13455e-06
7 *263:10 *274:292 0
8 *263:10 *296:12 0
9 *263:10 *484:231 0
10 *262:20 *263:10 0
*RES
1 *723:Y *263:10 43.1556 
2 *263:10 *724:C 37.609 
*END

*D_NET *264 9.91048e-05
*CONN
*I *725:B I *D OA21x2_ASAP7_75t_R
*I *724:Y O *D AO221x1_ASAP7_75t_R
*CAP
1 *725:B 1.85575e-05
2 *724:Y 2.17935e-05
3 *264:8 4.0351e-05
4 *725:B *297:18 0
5 *725:B *463:74 0
6 *725:B *463:84 6.6876e-06
7 *725:B *484:252 3.36331e-07
8 *264:8 *796:CLK 0
9 *264:8 *297:24 1.1364e-05
10 *85:8 *725:B 1.49407e-08
*RES
1 *724:Y *264:8 45.6313 
2 *264:8 *725:B 45.6633 
*END

*D_NET *265 0.000185405
*CONN
*I *730:B1 I *D OA22x2_ASAP7_75t_R
*I *726:Y O *D NOR2x1_ASAP7_75t_R
*CAP
1 *730:B1 0
2 *726:Y 2.43415e-05
3 *265:14 4.02506e-05
4 *265:8 6.45921e-05
5 *265:8 *467:46 5.37337e-06
6 *265:8 *467:52 5.72934e-06
7 *265:14 *267:24 1.34257e-05
8 *265:14 *268:12 1.01072e-05
9 *265:14 *350:33 0
10 *265:14 *360:38 3.32579e-06
11 *265:14 *464:130 2.98814e-08
12 *265:14 *464:145 1.15044e-06
13 *265:14 *467:52 3.32771e-06
14 *265:14 *509:10 8.16583e-06
15 *230:51 *265:8 5.58593e-06
*RES
1 *726:Y *265:8 44.5617 
2 *265:8 *265:14 44.7101 
3 *265:14 *730:B1 17.2 
*END

*D_NET *266 0.000199142
*CONN
*I *728:B I *D NOR2x1_ASAP7_75t_R
*I *727:Y O *D OA21x2_ASAP7_75t_R
*CAP
1 *728:B 0
2 *727:Y 2.2565e-05
3 *266:14 4.15967e-05
4 *266:8 6.41617e-05
5 *266:8 *727:A2 5.22376e-07
6 *266:8 *727:B 6.53466e-06
7 *266:14 *771:A 2.60455e-05
8 *266:14 *416:62 0
9 *266:14 *467:10 0
10 *607:A *266:14 4.83862e-06
11 *610:A2 *266:8 6.7842e-07
12 *47:12 *266:14 1.60455e-05
13 *159:8 *266:14 1.61537e-05
14 *179:16 *266:8 0
*RES
1 *727:Y *266:8 43.492 
2 *266:8 *266:14 46.7891 
3 *266:14 *728:B 17.2 
*END

*D_NET *267 0.000165402
*CONN
*I *729:C I *D AO221x2_ASAP7_75t_R
*I *728:Y O *D NOR2x1_ASAP7_75t_R
*CAP
1 *729:C 3.39076e-06
2 *728:Y 9.60336e-06
3 *267:24 2.79252e-05
4 *267:14 4.68025e-05
5 *267:8 3.18714e-05
6 *267:8 *268:12 0
7 *267:8 *425:49 1.6313e-06
8 *267:8 *431:40 1.64764e-06
9 *267:14 *431:46 5.68629e-06
10 *267:24 *268:12 5.37569e-06
11 *267:24 *350:33 8.45637e-06
12 *267:24 *360:38 2.03526e-06
13 *267:24 *464:145 3.68558e-06
14 *7:8 *267:8 3.34131e-06
15 *46:12 *267:8 5.24059e-07
16 *265:14 *267:24 1.34257e-05
*RES
1 *728:Y *267:8 42.2843 
2 *267:8 *267:14 45.6313 
3 *267:14 *267:24 49.7435 
4 *267:24 *729:C 36.0045 
*END

*D_NET *268 9.88648e-05
*CONN
*I *730:B2 I *D OA22x2_ASAP7_75t_R
*I *729:Y O *D AO221x2_ASAP7_75t_R
*CAP
1 *730:B2 0
2 *729:Y 0
3 *268:12 4.04202e-05
4 *268:6 4.04202e-05
5 *268:12 *350:6 2.54159e-06
6 *268:12 *431:40 0
7 *46:12 *268:12 0
8 *265:14 *268:12 1.01072e-05
9 *267:8 *268:12 0
10 *267:24 *268:12 5.37569e-06
*RES
1 *729:Y *268:6 34.4 
2 *268:6 *268:12 45.0182 
3 *268:12 *730:B2 17.2 
*END

*D_NET *269 8.05372e-05
*CONN
*I *735:B1 I *D OA22x2_ASAP7_75t_R
*I *731:Y O *D NOR2x1_ASAP7_75t_R
*CAP
1 *735:B1 0
2 *731:Y 2.50692e-05
3 *269:14 5.0776e-06
4 *269:6 3.01468e-05
5 *269:6 *466:69 1.1364e-05
6 *269:14 *1063:A 1.49407e-08
7 *269:14 *272:12 3.77168e-06
8 *230:62 *269:6 5.09299e-06
*RES
1 *731:Y *269:6 34.8492 
2 *269:6 *269:14 38.2855 
3 *269:14 *735:B1 17.2 
*END

*D_NET *270 0.000151728
*CONN
*I *733:B I *D NOR2x1_ASAP7_75t_R
*I *732:Y O *D OA21x2_ASAP7_75t_R
*CAP
1 *733:B 0
2 *732:Y 4.65211e-06
3 *270:14 2.42144e-05
4 *270:8 2.88665e-05
5 *270:14 *733:A 7.72307e-07
6 *270:14 *352:10 9.67723e-06
7 *270:14 *432:10 0
8 *270:14 *432:21 2.04037e-06
9 *270:14 *461:174 0
10 *270:14 *462:125 1.38949e-06
11 *270:14 *506:131 5.10183e-05
12 *599:B *270:14 5.65351e-06
13 *160:52 *270:14 2.25196e-06
14 *171:26 *270:14 8.06436e-06
15 *174:8 *270:14 1.25483e-05
16 *174:14 *270:14 5.79724e-07
*RES
1 *732:Y *270:8 36.0045 
2 *270:8 *270:14 42.3441 
3 *270:14 *733:B 17.2 
*END

*D_NET *271 0.000164559
*CONN
*I *734:C I *D AO221x2_ASAP7_75t_R
*I *733:Y O *D NOR2x1_ASAP7_75t_R
*CAP
1 *734:C 1.06911e-05
2 *733:Y 0
3 *271:10 4.88127e-05
4 *271:6 3.81216e-05
5 *734:C *734:A1 7.14604e-06
6 *734:C *361:14 1.44639e-06
7 *271:10 *461:174 8.1685e-06
8 *271:10 *463:133 2.75338e-05
9 *271:10 *463:141 0
10 *271:10 *466:16 2.68255e-06
11 *271:10 *506:121 1.33169e-05
12 *157:65 *271:10 3.28696e-07
13 *171:38 *271:10 3.47854e-06
14 *180:14 *271:10 2.98961e-07
15 *182:14 *271:10 2.53282e-06
*RES
1 *733:Y *271:6 34.4 
2 *271:6 *271:10 48.1741 
3 *271:10 *734:C 24.1527 
*END

*D_NET *272 0.000108795
*CONN
*I *735:B2 I *D OA22x2_ASAP7_75t_R
*I *734:Y O *D AO221x2_ASAP7_75t_R
*CAP
1 *735:B2 0
2 *734:Y 4.24919e-06
3 *272:12 2.56991e-05
4 *272:8 2.99483e-05
5 *272:12 *1063:A 0
6 *272:12 *361:14 0
7 *272:12 *460:14 0
8 *272:12 *463:141 1.45123e-05
9 *272:12 *463:149 3.06142e-05
10 *230:62 *272:12 0
11 *269:14 *272:12 3.77168e-06
*RES
1 *734:Y *272:8 36.0045 
2 *272:8 *272:12 41.9793 
3 *272:12 *735:B2 17.2 
*END

*D_NET *273 0.000333995
*CONN
*I *745:A2 I *D OA222x2_ASAP7_75t_R
*I *736:Y O *D BUFx2_ASAP7_75t_R
*CAP
1 *745:A2 3.43899e-06
2 *736:Y 0
3 *273:24 3.97392e-05
4 *273:16 0.000111271
5 *273:10 0.000107113
6 *273:6 3.2142e-05
7 *745:A2 *286:35 5.62196e-06
8 *273:10 *665:A2 0
9 *273:16 *441:74 9.24628e-07
10 *273:16 *461:83 1.53057e-06
11 *273:24 *274:133 4.30517e-07
12 *273:24 *285:49 3.26882e-06
13 *273:24 *286:35 2.95693e-06
14 *273:24 *340:12 8.90797e-06
15 *273:24 *487:62 7.96817e-06
16 *273:24 *491:62 7.95489e-06
17 *801:D *273:16 0
18 *37:6 *273:16 0
19 *37:14 *273:24 0
20 *37:47 *745:A2 2.52755e-07
21 *220:8 *273:10 0
22 *220:16 *273:16 4.74168e-07
*RES
1 *736:Y *273:6 34.4 
2 *273:6 *273:10 37.474 
3 *273:10 *273:16 49.9749 
4 *273:16 *273:24 47.553 
5 *273:24 *745:A2 36.5393 
*END

*D_NET *274 0.0046208
*CONN
*I *762:B1 I *D OA222x2_ASAP7_75t_R
*I *757:B1 I *D OA222x2_ASAP7_75t_R
*I *756:B1 I *D OA222x2_ASAP7_75t_R
*I *755:B1 I *D OA222x2_ASAP7_75t_R
*I *758:B1 I *D OA222x2_ASAP7_75t_R
*I *760:B1 I *D OA222x2_ASAP7_75t_R
*I *746:B1 I *D OA222x2_ASAP7_75t_R
*I *748:B1 I *D OA222x2_ASAP7_75t_R
*I *750:B1 I *D OA222x2_ASAP7_75t_R
*I *749:B1 I *D OA222x2_ASAP7_75t_R
*I *743:B1 I *D OA222x2_ASAP7_75t_R
*I *745:B1 I *D OA222x2_ASAP7_75t_R
*I *742:B1 I *D OA222x2_ASAP7_75t_R
*I *753:B1 I *D OA222x2_ASAP7_75t_R
*I *751:B1 I *D OA222x2_ASAP7_75t_R
*I *754:B1 I *D OA222x2_ASAP7_75t_R
*I *737:Y O *D AO21x2_ASAP7_75t_R
*CAP
1 *762:B1 1.20238e-05
2 *757:B1 3.24482e-06
3 *756:B1 1.08962e-05
4 *755:B1 0
5 *758:B1 3.93031e-06
6 *760:B1 3.79564e-06
7 *746:B1 3.55319e-06
8 *748:B1 0
9 *750:B1 0
10 *749:B1 0
11 *743:B1 9.84335e-06
12 *745:B1 1.51455e-06
13 *742:B1 0
14 *753:B1 0
15 *751:B1 0
16 *754:B1 2.1242e-06
17 *737:Y 8.53809e-06
18 *274:314 2.13747e-05
19 *274:308 4.583e-05
20 *274:306 1.91802e-05
21 *274:300 2.37982e-05
22 *274:292 4.51246e-05
23 *274:281 5.05207e-05
24 *274:273 6.67981e-05
25 *274:256 5.41956e-05
26 *274:254 8.05013e-05
27 *274:252 8.05013e-05
28 *274:250 2.32634e-05
29 *274:246 9.88382e-05
30 *274:242 0.000110353
31 *274:234 5.74944e-05
32 *274:232 3.76995e-05
33 *274:214 4.33615e-06
34 *274:206 5.67808e-05
35 *274:195 5.78781e-06
36 *274:183 7.9241e-05
37 *274:179 3.52968e-05
38 *274:164 4.14538e-05
39 *274:158 3.65386e-05
40 *274:141 2.15032e-05
41 *274:133 3.53575e-05
42 *274:122 7.1177e-05
43 *274:120 0.000109561
44 *274:111 4.16146e-07
45 *274:105 9.38956e-05
46 *274:96 3.32663e-06
47 *274:74 2.48813e-05
48 *274:70 3.77048e-05
49 *274:60 2.37612e-05
50 *274:52 6.41176e-05
51 *274:50 6.95886e-05
52 *274:42 2.47239e-05
53 *274:34 2.96442e-05
54 *274:28 9.86105e-05
55 *274:24 8.43635e-05
56 *274:20 6.24307e-05
57 *274:18 5.63617e-05
58 *274:16 5.13075e-05
59 *274:12 2.11326e-05
60 *274:6 1.92413e-05
61 *743:B1 *743:A2 1.45042e-05
62 *743:B1 *285:57 3.89037e-06
63 *743:B1 *286:20 4.07052e-06
64 *743:B1 *482:67 7.36575e-06
65 *746:B1 *452:20 5.62196e-06
66 *754:B1 *754:B2 5.85387e-06
67 *754:B1 *454:12 5.85387e-06
68 *754:B1 *454:35 6.83133e-07
69 *754:B1 *471:14 7.63254e-07
70 *757:B1 *457:41 3.46317e-06
71 *757:B1 *489:96 4.38963e-06
72 *758:B1 *458:14 1.95129e-06
73 *760:B1 *760:B2 7.14604e-06
74 *760:B1 *459:12 2.25196e-06
75 *762:B1 *762:A2 1.44167e-06
76 *762:B1 *762:C1 2.83874e-07
77 *762:B1 *466:26 8.37185e-06
78 *762:B1 *482:155 0
79 *274:12 *461:151 2.32753e-05
80 *274:18 *680:A2 5.07332e-06
81 *274:18 *410:10 2.33064e-05
82 *274:18 *452:20 5.34815e-06
83 *274:18 *461:140 3.04043e-06
84 *274:18 *461:151 0
85 *274:18 *487:8 1.51304e-05
86 *274:20 *287:18 9.41947e-07
87 *274:20 *410:10 9.17492e-06
88 *274:20 *482:208 5.26017e-06
89 *274:24 *482:16 4.18968e-06
90 *274:28 *277:39 0
91 *274:28 *463:16 0
92 *274:28 *483:33 0
93 *274:28 *483:35 0
94 *274:34 *277:41 4.9345e-06
95 *274:34 *281:6 6.69525e-05
96 *274:34 *489:14 7.80196e-06
97 *274:42 *292:26 2.61737e-05
98 *274:50 *292:26 9.86777e-06
99 *274:50 *366:26 9.71774e-06
100 *274:50 *484:289 5.80445e-06
101 *274:50 *505:20 6.72332e-07
102 *274:52 *489:31 9.29428e-06
103 *274:52 *505:14 1.82253e-05
104 *274:70 *293:22 1.81821e-05
105 *274:70 *453:18 1.06372e-06
106 *274:70 *489:56 2.13376e-07
107 *274:74 *453:10 9.07093e-06
108 *274:74 *453:18 3.36331e-07
109 *274:74 *454:16 4.83862e-06
110 *274:74 *484:121 1.10561e-06
111 *274:74 *485:26 3.51072e-05
112 *274:96 *292:28 6.72662e-07
113 *274:96 *484:281 1.16945e-06
114 *274:105 *449:30 6.49541e-06
115 *274:105 *449:34 2.74278e-07
116 *274:105 *462:14 1.31689e-05
117 *274:105 *482:20 3.08758e-05
118 *274:105 *482:35 7.95042e-06
119 *274:105 *487:34 2.84283e-05
120 *274:111 *337:29 1.84268e-06
121 *274:120 *300:14 4.68785e-06
122 *274:120 *462:148 6.81435e-05
123 *274:120 *482:35 1.24606e-05
124 *274:120 *482:50 1.23704e-05
125 *274:120 *487:34 1.74992e-05
126 *274:122 *478:31 1.38864e-06
127 *274:122 *482:52 0
128 *274:122 *499:8 3.89399e-05
129 *274:122 *506:112 5.25164e-06
130 *274:133 *286:35 1.85338e-06
131 *274:133 *482:67 0
132 *274:133 *482:78 1.33307e-05
133 *274:141 *286:20 9.75645e-06
134 *274:141 *286:35 7.53304e-06
135 *274:141 *482:78 1.04043e-05
136 *274:158 *441:63 2.03526e-06
137 *274:158 *441:74 1.35684e-06
138 *274:158 *482:78 7.9231e-06
139 *274:164 *289:22 6.7842e-07
140 *274:164 *441:63 5.77304e-06
141 *274:164 *482:86 5.03676e-07
142 *274:164 *487:98 0
143 *274:179 *289:22 1.334e-05
144 *274:179 *339:33 2.5024e-05
145 *274:179 *441:63 5.79724e-07
146 *274:179 *487:108 2.36087e-05
147 *274:183 *491:66 2.32638e-05
148 *274:195 *487:112 4.7691e-06
149 *274:206 *482:171 3.27196e-05
150 *274:206 *487:131 7.20205e-05
151 *274:206 *491:66 4.79269e-06
152 *274:214 *280:12 0
153 *274:214 *397:27 2.20493e-06
154 *274:234 *433:67 5.14976e-05
155 *274:234 *461:151 3.62256e-05
156 *274:242 *621:A 4.45472e-06
157 *274:242 *437:39 3.05118e-08
158 *274:242 *461:155 6.7842e-07
159 *274:246 *410:30 0
160 *274:246 *462:112 1.07096e-05
161 *274:246 *462:125 5.19085e-06
162 *274:246 *488:28 0
163 *274:250 *727:A2 1.85254e-05
164 *274:250 *488:24 1.49407e-08
165 *274:254 *482:149 5.02071e-06
166 *274:254 *488:28 0.000120961
167 *274:254 *509:14 2.8178e-05
168 *274:273 *725:A1 0
169 *274:273 *760:A1 8.23084e-06
170 *274:273 *760:B2 5.25794e-06
171 *274:273 *374:20 5.19552e-07
172 *274:273 *459:12 3.6736e-06
173 *274:281 *725:A1 5.77516e-06
174 *274:281 *758:C1 1.36155e-06
175 *274:281 *297:24 3.17029e-06
176 *274:281 *479:93 0
177 *274:281 *484:252 0
178 *274:292 *724:A2 9.41947e-07
179 *274:292 *724:B2 0
180 *274:292 *463:74 0
181 *274:292 *479:36 4.42803e-05
182 *274:292 *479:78 2.52196e-05
183 *274:292 *479:93 1.64437e-05
184 *274:292 *489:117 1.74049e-06
185 *274:300 *349:20 8.62248e-06
186 *274:300 *489:96 6.09671e-06
187 *274:300 *506:45 1.1341e-05
188 *274:306 *372:14 2.90209e-08
189 *274:306 *457:33 5.0551e-07
190 *274:306 *457:41 2.03526e-06
191 *274:308 *412:51 1.58074e-05
192 *274:308 *425:8 2.68112e-05
193 *274:308 *484:208 4.59165e-06
194 *274:314 *295:22 1.23489e-06
195 *274:314 *425:8 1.6046e-05
196 *274:314 *442:8 2.8275e-06
197 *274:314 *455:22 3.33004e-06
198 *274:314 *484:208 4.93886e-06
199 *678:B *274:6 5.27185e-06
200 *678:B *274:232 2.03526e-06
201 *746:C2 *746:B1 1.12561e-05
202 *758:C2 *758:B1 3.90258e-06
203 *758:C2 *274:281 1.64509e-05
204 *990:A *274:34 2.6427e-05
205 *26:27 *274:164 1.36155e-06
206 *26:27 *274:179 9.13667e-07
207 *31:22 *274:214 3.52137e-06
208 *37:22 *274:122 0
209 *37:47 *745:B1 1.44167e-06
210 *39:26 *274:12 0
211 *39:26 *274:16 3.56648e-06
212 *39:26 *274:18 4.57497e-06
213 *42:10 *274:122 1.94552e-05
214 *42:10 *274:133 3.38911e-05
215 *42:10 *274:158 9.43723e-06
216 *42:10 *274:164 4.10451e-05
217 *44:12 *274:234 0
218 *47:12 *274:250 1.2849e-06
219 *48:10 *274:250 2.96691e-05
220 *60:16 *274:70 0
221 *66:12 *274:42 2.98961e-07
222 *93:10 *274:179 9.56878e-06
223 *100:8 *274:292 1.59429e-05
224 *101:10 *274:281 2.28976e-06
225 *105:20 *274:60 1.08167e-05
226 *105:20 *274:70 3.89037e-06
227 *107:14 *274:42 2.79393e-05
228 *107:14 *274:50 2.72142e-05
229 *107:14 *274:52 0.000217038
230 *117:16 *274:52 3.69026e-06
231 *147:16 *274:74 4.0941e-05
232 *147:43 *274:52 2.1602e-05
233 *147:43 *274:60 2.43887e-07
234 *147:47 *274:52 1.45628e-05
235 *147:57 *274:28 5.24976e-05
236 *147:72 *274:28 6.32591e-06
237 *147:72 *274:120 1.08465e-06
238 *147:76 *274:122 2.53992e-06
239 *147:89 *274:122 5.82688e-07
240 *147:230 *274:314 1.51061e-06
241 *147:242 *757:B1 4.57263e-07
242 *147:242 *274:308 5.78395e-06
243 *148:14 *274:195 3.06694e-06
244 *156:8 *274:42 2.48762e-06
245 *157:53 *274:246 0
246 *158:64 *274:300 8.3604e-06
247 *159:8 *762:B1 0
248 *160:52 *274:246 2.02493e-06
249 *178:10 *274:234 1.30731e-05
250 *180:14 *274:246 1.56362e-05
251 *181:10 *274:234 1.07131e-05
252 *181:10 *274:242 1.10561e-06
253 *184:14 *274:242 0
254 *195:8 *274:242 5.79724e-07
255 *206:22 *274:111 7.47402e-07
256 *208:22 *274:28 6.10253e-06
257 *208:39 *274:20 1.0426e-05
258 *208:39 *274:24 2.78959e-06
259 *208:39 *274:105 2.08769e-06
260 *208:43 *274:24 1.66977e-05
261 *209:14 *274:179 1.39465e-06
262 *211:84 *274:254 0
263 *212:12 *274:206 7.46355e-05
264 *212:20 *274:214 2.84568e-06
265 *213:8 *274:24 8.19692e-07
266 *221:10 *274:122 0
267 *225:22 *274:234 0
268 *229:8 *274:18 1.77116e-05
269 *229:8 *274:20 5.2648e-05
270 *229:8 *274:24 2.63389e-05
271 *231:20 *274:206 4.84907e-06
272 *236:18 *274:195 5.46446e-06
273 *248:8 *274:34 1.17835e-05
274 *251:10 *274:60 1.10995e-05
275 *251:10 *274:70 1.49407e-08
276 *256:10 *274:314 1.71789e-05
277 *256:25 *274:308 1.40546e-06
278 *256:25 *274:314 4.55339e-06
279 *259:12 *274:292 2.05897e-06
280 *261:6 *274:306 2.0561e-05
281 *262:12 *758:B1 5.41446e-06
282 *262:20 *274:292 2.44675e-05
283 *263:10 *274:292 0
284 *273:24 *274:133 4.30517e-07
*RES
1 *737:Y *274:6 20.9438 
2 *274:6 *274:12 42.2843 
3 *274:12 *274:16 25.2224 
4 *274:16 *274:18 32.1005 
5 *274:18 *274:20 18.6783 
6 *274:20 *274:24 28.2756 
7 *274:24 *274:28 47.5013 
8 *274:28 *274:34 39.7672 
9 *274:34 *274:42 40.2228 
10 *274:42 *274:50 42.9448 
11 *274:50 *274:52 36.7945 
12 *274:52 *274:60 41.645 
13 *274:60 *274:70 41.5972 
14 *274:70 *274:74 41.6977 
15 *274:74 *754:B1 36.5393 
16 *274:60 *751:B1 17.2 
17 *274:42 *274:96 36.3144 
18 *274:96 *753:B1 17.2 
19 *274:20 *274:105 37.7616 
20 *274:105 *274:111 35.057 
21 *274:111 *742:B1 17.2 
22 *274:105 *274:120 44.2547 
23 *274:120 *274:122 42.8945 
24 *274:122 *745:B1 35.4697 
25 *274:122 *274:133 12.3897 
26 *274:133 *274:141 41.0163 
27 *274:141 *743:B1 41.3527 
28 *274:133 *274:158 40.4531 
29 *274:158 *274:164 37.9805 
30 *274:164 *749:B1 17.2 
31 *274:164 *274:179 47.0003 
32 *274:179 *274:183 22.2844 
33 *274:183 *274:195 49.6482 
34 *274:195 *750:B1 17.2 
35 *274:183 *274:206 42.3099 
36 *274:206 *274:214 38.7264 
37 *274:214 *748:B1 17.2 
38 *274:18 *746:B1 37.609 
39 *274:6 *274:232 18.8045 
40 *274:232 *274:234 38.8585 
41 *274:234 *274:242 48.9945 
42 *274:242 *274:246 45.5534 
43 *274:246 *274:250 29.7774 
44 *274:250 *274:252 17.2 
45 *274:252 *274:254 32.8986 
46 *274:254 *274:256 17.2 
47 *274:256 *760:B1 37.384 
48 *274:256 *274:273 41.7188 
49 *274:273 *274:281 47.3775 
50 *274:281 *758:B1 19.8741 
51 *274:281 *274:292 47.1417 
52 *274:292 *274:300 42.3739 
53 *274:300 *274:306 40.2831 
54 *274:306 *274:308 14.0792 
55 *274:308 *274:314 38.5153 
56 *274:314 *755:B1 17.2 
57 *274:308 *756:B1 39.2134 
58 *274:300 *757:B1 38.2288 
59 *274:250 *762:B1 44.1987 
*END

*D_NET *275 0.000426048
*CONN
*I *743:A2 I *D OA222x2_ASAP7_75t_R
*I *738:Y O *D BUFx2_ASAP7_75t_R
*CAP
1 *743:A2 3.18661e-05
2 *738:Y 0
3 *275:12 3.78904e-05
4 *275:6 8.27275e-05
5 *275:4 7.67032e-05
6 *743:A2 *665:A1 5.85387e-06
7 *743:A2 *743:C1 8.13589e-06
8 *743:A2 *286:16 4.73206e-05
9 *743:A2 *286:20 4.75553e-05
10 *275:6 *665:A1 6.7842e-07
11 *275:6 *665:A2 1.01102e-06
12 *275:6 *303:13 6.86929e-06
13 *275:6 *320:13 5.81336e-06
14 *275:6 *362:8 2.19694e-05
15 *275:12 *665:A1 8.04009e-06
16 *665:B *275:6 2.71839e-06
17 *743:B1 *743:A2 1.45042e-05
18 *743:C2 *743:A2 4.09784e-06
19 *147:108 *275:12 6.10236e-08
20 *217:6 *743:A2 2.22316e-05
21 *217:6 *275:6 0
*RES
1 *738:Y *275:4 17.2 
2 *275:4 *275:6 40.1119 
3 *275:6 *275:12 38.3422 
4 *275:12 *743:A2 46.6154 
*END

*D_NET *276 0.000123431
*CONN
*I *740:B I *D NAND2x2_ASAP7_75t_R
*I *739:Y O *D AO21x2_ASAP7_75t_R
*CAP
1 *740:B 1.10182e-05
2 *739:Y 5.76217e-06
3 *276:8 1.67803e-05
4 *740:B *463:133 4.31541e-05
5 *740:B *506:87 4.31541e-05
6 *131:18 *276:8 3.56177e-06
*RES
1 *739:Y *276:8 37.0741 
2 *276:8 *740:B 49.6055 
*END

*D_NET *277 0.000860746
*CONN
*I *1049:A I *D BUFx6f_ASAP7_75t_R
*I *1050:A I *D BUFx3_ASAP7_75t_R
*I *1051:A I *D BUFx6f_ASAP7_75t_R
*I *740:Y O *D NAND2x2_ASAP7_75t_R
*CAP
1 *1049:A 1.64971e-05
2 *1050:A 1.31053e-05
3 *1051:A 2.43118e-05
4 *740:Y 0
5 *277:56 4.85739e-05
6 *277:41 4.20145e-05
7 *277:39 3.77824e-05
8 *277:33 3.82288e-05
9 *277:31 2.93557e-05
10 *277:22 4.60144e-05
11 *277:14 4.0208e-05
12 *277:6 3.85975e-05
13 *277:4 5.21689e-05
14 *1050:A *473:18 1.06947e-05
15 *277:6 *463:131 2.70479e-05
16 *277:14 *613:A1 5.77141e-06
17 *277:14 *407:16 1.70708e-06
18 *277:14 *407:22 2.03526e-06
19 *277:22 *429:12 1.41061e-05
20 *277:22 *463:125 8.35078e-07
21 *277:22 *506:91 3.05126e-06
22 *277:33 *292:58 3.4532e-05
23 *277:33 *463:125 2.98961e-07
24 *277:33 *473:44 2.53695e-05
25 *277:33 *483:108 0
26 *277:39 *463:16 2.07852e-05
27 *277:41 *407:12 3.17441e-06
28 *277:41 *407:16 3.49456e-06
29 *277:41 *473:18 8.33296e-06
30 *277:41 *473:31 7.52073e-05
31 *277:41 *484:22 2.60745e-05
32 *277:41 *484:48 4.59644e-06
33 *277:56 *740:A 5.41446e-06
34 *277:56 *409:12 1.00223e-05
35 *277:56 *417:18 1.67815e-06
36 *277:56 *463:131 9.08513e-06
37 *277:56 *484:309 1.48586e-06
38 *658:C *1049:A 5.85387e-06
39 *39:30 *1049:A 4.69758e-05
40 *117:33 *277:22 1.88168e-06
41 *131:30 *277:33 9.39348e-06
42 *135:14 *277:22 0
43 *139:24 *1049:A 5.19552e-07
44 *139:34 *1049:A 2.55481e-06
45 *139:40 *1049:A 3.56648e-06
46 *139:40 *277:56 6.10236e-08
47 *140:24 *277:33 2.71466e-06
48 *147:51 *277:33 1.05033e-05
49 *163:18 *1051:A 0
50 *185:6 *277:56 1.59615e-06
51 *210:26 *277:56 2.23869e-05
52 *210:41 *277:56 3.22574e-06
53 *211:122 *1049:A 5.19552e-07
54 *246:8 *277:33 1.29127e-05
55 *247:14 *277:14 1.93482e-06
56 *248:8 *277:41 7.55228e-06
57 *274:28 *277:39 0
58 *274:34 *277:41 4.9345e-06
*RES
1 *740:Y *277:4 17.2 
2 *277:4 *277:6 10.1617 
3 *277:6 *277:14 43.0794 
4 *277:14 *277:22 42.6324 
5 *277:22 *1051:A 26.292 
6 *277:6 *277:31 17.2 
7 *277:31 *277:33 33.6961 
8 *277:33 *277:39 38.0794 
9 *277:39 *277:41 33.8838 
10 *277:41 *1050:A 42.4224 
11 *277:4 *277:56 38.7384 
12 *277:56 *1049:A 47.7706 
*END

*D_NET *278 0.000612456
*CONN
*I *742:A2 I *D OA222x2_ASAP7_75t_R
*I *741:Y O *D BUFx2_ASAP7_75t_R
*CAP
1 *742:A2 5.87063e-06
2 *741:Y 0
3 *278:8 0.000111088
4 *278:6 0.000105218
5 *742:A2 *462:140 1.68903e-05
6 *742:A2 *482:28 3.89037e-06
7 *278:8 *337:29 0
8 *278:8 *380:10 0.000327977
9 *278:8 *445:8 0
10 *278:8 *463:182 9.93076e-07
11 *36:10 *278:8 1.86945e-05
12 *38:41 *278:8 2.18349e-05
*RES
1 *741:Y *278:6 34.4 
2 *278:6 *278:8 122.77 
3 *278:8 *742:A2 39.2134 
*END

*D_NET *279 0.000185243
*CONN
*I *745:C2 I *D OA222x2_ASAP7_75t_R
*I *744:Y O *D INVx1_ASAP7_75t_R
*CAP
1 *745:C2 0
2 *744:Y 3.95424e-06
3 *279:22 1.09152e-05
4 *279:14 4.28309e-05
5 *279:8 3.58699e-05
6 *279:14 *429:8 1.43247e-06
7 *279:22 *441:74 1.49407e-08
8 *279:22 *487:85 8.11416e-06
9 *801:D *279:14 2.52003e-05
10 *37:47 *279:22 2.72334e-07
11 *42:10 *279:22 0
12 *214:6 *279:8 2.16334e-05
13 *214:12 *279:14 8.8197e-07
14 *216:16 *279:14 5.85387e-06
15 *216:16 *279:22 1.03403e-05
16 *216:18 *279:22 1.00467e-06
17 *220:16 *279:14 1.12055e-06
18 *220:20 *279:8 1.5804e-05
*RES
1 *744:Y *279:8 40.8179 
2 *279:8 *279:14 38.2319 
3 *279:14 *279:22 42.6208 
4 *279:22 *745:C2 17.2 
*END

*D_NET *280 0.000133969
*CONN
*I *748:C2 I *D OA222x2_ASAP7_75t_R
*I *747:Y O *D INVx1_ASAP7_75t_R
*CAP
1 *748:C2 0
2 *747:Y 6.65331e-06
3 *280:12 3.09811e-05
4 *280:8 3.76344e-05
5 *280:8 *448:14 2.20493e-06
6 *280:12 *285:10 4.29278e-06
7 *280:12 *421:14 0
8 *280:12 *441:10 2.83874e-07
9 *280:12 *448:10 9.30097e-06
10 *280:12 *475:12 1.99699e-05
11 *280:12 *482:121 3.05118e-08
12 *280:12 *482:171 5.13608e-06
13 *280:12 *487:139 7.91023e-06
14 *280:12 *513:12 1.09842e-06
15 *31:22 *280:12 0
16 *205:10 *280:12 0
17 *205:18 *280:12 7.6881e-06
18 *212:20 *280:12 7.84772e-07
19 *274:214 *280:12 0
*RES
1 *747:Y *280:8 37.0741 
2 *280:8 *280:12 41.9793 
3 *280:12 *748:C2 17.2 
*END

*D_NET *281 0.000145638
*CONN
*I *753:C2 I *D OA222x2_ASAP7_75t_R
*I *752:Y O *D INVx1_ASAP7_75t_R
*CAP
1 *753:C2 0
2 *752:Y 2.8292e-05
3 *281:6 2.8292e-05
4 *281:6 *752:A 1.12561e-05
5 *281:6 *489:14 2.90209e-08
6 *96:10 *281:6 1.08167e-05
7 *274:34 *281:6 6.69525e-05
*RES
1 *752:Y *281:6 36.9885 
2 *281:6 *753:C2 17.2 
*END

*D_NET *282 0.000171706
*CONN
*I *760:C2 I *D OA222x2_ASAP7_75t_R
*I *759:Y O *D INVx1_ASAP7_75t_R
*CAP
1 *760:C2 0
2 *759:Y 7.21556e-06
3 *282:14 3.13602e-05
4 *282:8 3.85758e-05
5 *282:8 *759:A 5.17782e-06
6 *282:14 *797:CLK 5.09995e-06
7 *282:14 *350:33 0
8 *282:14 *360:22 2.97289e-06
9 *282:14 *479:115 4.09563e-05
10 *49:23 *282:14 2.77657e-06
11 *51:20 *282:14 2.38942e-05
12 *102:10 *282:14 1.3677e-05
*RES
1 *759:Y *282:8 38.1438 
2 *282:8 *282:14 49.1871 
3 *282:14 *760:C2 17.2 
*END

*D_NET *283 8.82244e-05
*CONN
*I *762:C2 I *D OA222x2_ASAP7_75t_R
*I *761:Y O *D INVx1_ASAP7_75t_R
*CAP
1 *762:C2 5.27756e-06
2 *761:Y 9.02354e-06
3 *283:8 1.43011e-05
4 *283:8 *352:33 0
5 *283:8 *439:18 2.99203e-05
6 *283:8 *466:26 6.76305e-06
7 *283:8 *479:138 2.29388e-05
*RES
1 *761:Y *283:8 47.3528 
2 *283:8 *762:C2 36.5393 
*END

*D_NET *284 0.000988502
*CONN
*P clk I
*I *1048:A I *D BUFx4_ASAP7_75t_R
*CAP
1 clk 0.000336567
2 *1048:A 6.73322e-06
3 *284:18 2.57096e-05
4 *284:10 0.00014344
5 *284:8 0.000124463
6 *284:6 0.000336567
7 *284:6 *331:5 0
8 *284:6 *482:149 0
9 *284:18 *417:30 0
10 *284:18 *486:59 3.83062e-06
11 *284:18 *506:87 3.78717e-06
12 *122:14 *284:18 1.85141e-06
13 *131:18 *1048:A 5.54065e-06
14 *211:84 *284:6 1.24672e-08
*RES
1 clk *284:6 144.797 
2 *284:6 *284:8 11.8 
3 *284:8 *284:10 49.6867 
4 *284:10 *284:18 36.3721 
5 *284:18 *1048:A 38.1438 
*END

*D_NET *285 0.000760678
*CONN
*I *769:B I *D HAxp5_ASAP7_75t_R
*I *743:B2 I *D OA222x2_ASAP7_75t_R
*I *667:A1 I *D OA21x2_ASAP7_75t_R
*I *652:Y O *D INVx1_ASAP7_75t_R
*CAP
1 *769:B 3.03149e-06
2 *743:B2 0
3 *667:A1 5.94116e-06
4 *652:Y 1.57066e-05
5 *285:57 4.68313e-06
6 *285:49 2.50863e-05
7 *285:34 5.75919e-05
8 *285:30 3.91999e-05
9 *285:28 4.07778e-05
10 *285:24 5.0966e-05
11 *285:16 3.33497e-05
12 *285:10 3.39472e-05
13 *667:A1 *667:A2 3.67067e-06
14 *667:A1 *449:122 0
15 *285:10 *342:6 3.13777e-05
16 *285:10 *482:171 2.54626e-07
17 *285:16 *475:20 0
18 *285:16 *482:125 3.77247e-06
19 *285:24 *421:14 1.45224e-05
20 *285:24 *448:14 1.32074e-05
21 *285:28 *633:B 1.66692e-05
22 *285:28 *421:14 8.45637e-06
23 *285:28 *421:18 2.12201e-06
24 *285:28 *434:12 3.97187e-06
25 *285:28 *447:12 1.12894e-06
26 *285:28 *447:18 1.18996e-06
27 *285:34 *666:B2 0
28 *285:34 *338:24 0
29 *285:34 *421:62 9.46491e-06
30 *285:34 *449:122 0
31 *285:49 *340:12 0.000113448
32 *285:49 *487:62 2.94031e-06
33 *285:49 *491:62 9.27399e-05
34 *743:B1 *285:57 3.89037e-06
35 *36:25 *667:A1 0
36 *36:33 *667:A1 1.18487e-05
37 *36:33 *285:34 1.17709e-05
38 *42:10 *285:57 6.26512e-06
39 *128:12 *285:28 4.41181e-06
40 *128:33 *285:28 4.73129e-05
41 *130:14 *285:28 7.36391e-07
42 *202:14 *285:28 0
43 *205:8 *769:B 1.02895e-05
44 *205:8 *285:30 1.43515e-05
45 *205:10 *285:24 1.0826e-05
46 *205:10 *285:28 0
47 *216:41 *285:34 0
48 *217:18 *285:34 2.19482e-06
49 *273:24 *285:49 3.26882e-06
50 *280:12 *285:10 4.29278e-06
*RES
1 *652:Y *285:10 45.0877 
2 *285:10 *285:16 40.0274 
3 *285:16 *285:24 48.3746 
4 *285:24 *285:28 49.3005 
5 *285:28 *285:30 3.74377 
6 *285:30 *285:34 39.6328 
7 *285:34 *667:A1 39.5057 
8 *285:34 *285:49 36.463 
9 *285:49 *285:57 37.6285 
10 *285:57 *743:B2 17.2 
11 *285:30 *769:B 19.8741 
*END

*D_NET *286 0.000332852
*CONN
*I *745:B2 I *D OA222x2_ASAP7_75t_R
*I *768:A I *D HAxp5_ASAP7_75t_R
*I *651:Y O *D INVx1_ASAP7_75t_R
*CAP
1 *745:B2 0
2 *768:A 8.70856e-06
3 *651:Y 1.95092e-05
4 *286:35 1.62656e-05
5 *286:20 5.19303e-05
6 *286:16 4.8325e-05
7 *286:8 4.08781e-05
8 *768:A *482:67 3.16328e-06
9 *286:8 *665:A1 2.62957e-06
10 *286:8 *461:77 5.52807e-07
11 *286:16 *441:74 7.50787e-06
12 *286:16 *487:98 0
13 *286:20 *482:67 2.90209e-08
14 *286:35 *482:67 1.43431e-06
15 *743:A2 *286:16 4.73206e-05
16 *743:A2 *286:20 4.75553e-05
17 *743:B1 *286:20 4.07052e-06
18 *745:A2 *286:35 5.62196e-06
19 *37:14 *286:8 5.15195e-07
20 *37:47 *286:35 1.56713e-06
21 *220:16 *286:8 3.16743e-06
22 *273:24 *286:35 2.95693e-06
23 *274:133 *286:35 1.85338e-06
24 *274:141 *286:20 9.75645e-06
25 *274:141 *286:35 7.53304e-06
*RES
1 *651:Y *286:8 48.4791 
2 *286:8 *286:16 49.5168 
3 *286:16 *286:20 33.7796 
4 *286:20 *768:A 22.0134 
5 *286:20 *286:35 46.1415 
6 *286:35 *745:B2 17.2 
*END

*D_NET *287 0.00041302
*CONN
*I *767:A I *D HAxp5_ASAP7_75t_R
*I *1014:A I *D BUFx3_ASAP7_75t_R
*I *650:Y O *D INVx1_ASAP7_75t_R
*CAP
1 *767:A 1.77029e-05
2 *1014:A 3.66981e-06
3 *650:Y 1.12797e-05
4 *287:18 2.93326e-05
5 *287:14 6.14156e-05
6 *287:8 6.47354e-05
7 *767:A *445:8 1.09081e-05
8 *767:A *511:10 4.48766e-06
9 *287:14 *445:8 2.16061e-06
10 *287:18 *410:10 3.80253e-05
11 *287:18 *449:79 1.93482e-06
12 *287:18 *462:22 4.61889e-06
13 *287:18 *462:37 2.98545e-05
14 *287:18 *482:16 1.6221e-05
15 *287:18 *482:208 3.55574e-05
16 *650:A *287:8 3.65131e-06
17 *767:B *767:A 1.30791e-05
18 *34:27 *767:A 1.01934e-05
19 *34:27 *287:14 8.02718e-06
20 *34:31 *287:8 4.26607e-06
21 *145:16 *1014:A 9.31704e-06
22 *145:22 *287:18 3.05118e-08
23 *229:14 *287:14 3.16096e-05
24 *274:20 *287:18 9.41947e-07
*RES
1 *650:Y *287:8 41.8876 
2 *287:8 *287:14 35.5258 
3 *287:14 *287:18 49.3005 
4 *287:18 *1014:A 37.0741 
5 *287:8 *767:A 49.4071 
*END

*D_NET *288 0.000153909
*CONN
*I *748:B2 I *D OA222x2_ASAP7_75t_R
*I *766:B I *D HAxp5_ASAP7_75t_R
*I *649:Y O *D INVx1_ASAP7_75t_R
*CAP
1 *748:B2 0
2 *766:B 0
3 *649:Y 0
4 *288:27 8.81612e-06
5 *288:10 2.31606e-05
6 *288:4 3.19767e-05
7 *288:10 *397:10 0
8 *288:10 *397:25 1.85719e-05
9 *288:10 *451:10 3.80569e-05
10 *288:10 *481:8 5.49212e-07
11 *288:27 *397:27 1.04475e-06
12 *288:27 *434:10 3.05716e-06
13 *288:27 *441:20 0
14 *31:22 *288:27 1.61136e-05
15 *147:186 *288:10 7.89622e-06
16 *147:186 *288:27 7.63254e-07
17 *211:166 *288:10 0
18 *212:20 *288:27 3.90258e-06
*RES
1 *649:Y *288:4 17.2 
2 *288:4 *288:10 36.0359 
3 *288:10 *766:B 34.4 
4 *288:4 *288:27 42.7058 
5 *288:27 *748:B2 17.2 
*END

*D_NET *289 0.000412688
*CONN
*I *765:A I *D HAxp5_ASAP7_75t_R
*I *749:B2 I *D OA222x2_ASAP7_75t_R
*I *648:Y O *D INVx1_ASAP7_75t_R
*CAP
1 *765:A 0
2 *749:B2 0
3 *648:Y 8.42129e-06
4 *289:37 1.30435e-05
5 *289:33 2.85001e-05
6 *289:22 1.29721e-05
7 *289:14 3.37472e-05
8 *289:8 4.4653e-05
9 *289:8 *411:16 3.50839e-05
10 *289:8 *440:12 5.97901e-06
11 *289:8 *487:131 7.31606e-07
12 *289:14 *411:16 5.01491e-06
13 *289:14 *441:49 1.67815e-06
14 *289:14 *441:55 1.88791e-05
15 *289:14 *487:112 5.08078e-05
16 *289:14 *487:131 7.97185e-06
17 *289:22 *441:55 1.98062e-06
18 *289:22 *441:57 4.38758e-06
19 *289:22 *441:63 1.98472e-06
20 *289:33 *441:45 2.47847e-05
21 *289:37 *290:21 2.01457e-05
22 *289:37 *482:115 5.74143e-06
23 *750:C2 *289:14 3.85538e-06
24 *14:40 *289:14 5.71928e-06
25 *25:26 *289:37 2.48762e-06
26 *25:35 *289:37 3.98646e-05
27 *26:27 *289:22 5.0551e-07
28 *27:14 *289:37 5.34941e-06
29 *27:33 *289:37 2.97601e-06
30 *148:22 *289:37 1.56807e-06
31 *236:18 *289:8 3.3563e-06
32 *236:18 *289:37 1.5561e-06
33 *236:24 *289:14 4.92332e-06
34 *274:164 *289:22 6.7842e-07
35 *274:179 *289:22 1.334e-05
*RES
1 *648:Y *289:8 46.2265 
2 *289:8 *289:14 40.6546 
3 *289:14 *289:22 43.8888 
4 *289:22 *749:B2 17.2 
5 *289:8 *289:33 41.3527 
6 *289:33 *289:37 35.7845 
7 *289:37 *765:A 17.2 
*END

*D_NET *290 0.000131823
*CONN
*I *750:B2 I *D OA222x2_ASAP7_75t_R
*I *764:B I *D HAxp5_ASAP7_75t_R
*I *647:Y O *D INVx1_ASAP7_75t_R
*CAP
1 *750:B2 0
2 *764:B 0
3 *647:Y 8.26258e-06
4 *290:21 1.52269e-05
5 *290:6 2.34895e-05
6 *14:40 *290:6 2.40485e-05
7 *14:40 *290:21 2.10126e-05
8 *26:10 *290:6 3.13426e-06
9 *148:22 *290:21 9.95138e-06
10 *236:18 *290:21 6.55174e-06
11 *289:37 *290:21 2.01457e-05
*RES
1 *647:Y *290:6 24.1527 
2 *290:6 *764:B 17.2 
3 *290:6 *290:21 48.6455 
4 *290:21 *750:B2 17.2 
*END

*D_NET *291 0.000500654
*CONN
*I *778:A I *D HAxp5_ASAP7_75t_R
*I *1015:A I *D BUFx3_ASAP7_75t_R
*I *646:Y O *D INVx1_ASAP7_75t_R
*CAP
1 *778:A 3.01173e-05
2 *1015:A 0
3 *646:Y 0
4 *291:20 3.578e-05
5 *291:14 6.22834e-05
6 *291:10 8.05629e-05
7 *291:6 2.39422e-05
8 *778:A *778:B 1.95129e-06
9 *778:A *424:32 2.10126e-05
10 *778:A *504:48 1.66706e-05
11 *291:10 *414:10 2.44197e-05
12 *291:10 *485:16 6.74107e-06
13 *291:14 *424:10 6.7842e-07
14 *291:14 *424:26 2.74873e-05
15 *291:14 *424:32 3.48408e-05
16 *291:14 *470:8 2.12481e-06
17 *291:14 *472:14 1.58373e-06
18 *291:20 *453:8 8.146e-06
19 *291:20 *453:10 1.07573e-06
20 *291:20 *489:56 2.92223e-05
21 *808:D *291:20 2.20493e-06
22 *1032:A *291:14 2.81464e-05
23 *12:10 *291:10 8.84965e-06
24 *24:24 *778:A 3.63527e-05
25 *61:14 *291:20 2.11853e-06
26 *61:20 *291:20 1.9076e-06
27 *79:12 *778:A 1.59615e-06
28 *108:8 *778:A 2.97289e-06
29 *147:12 *291:20 7.86466e-06
*RES
1 *646:Y *291:6 34.4 
2 *291:6 *291:10 39.7266 
3 *291:10 *291:14 40.1975 
4 *291:14 *291:20 45.521 
5 *291:20 *1015:A 17.2 
6 *291:10 *778:A 40.1975 
*END

*D_NET *292 0.000911687
*CONN
*I *705:A1 I *D OA22x2_ASAP7_75t_R
*I *777:B I *D HAxp5_ASAP7_75t_R
*I *753:B2 I *D OA222x2_ASAP7_75t_R
*I *645:Y O *D INVx1_ASAP7_75t_R
*CAP
1 *705:A1 0
2 *777:B 1.23194e-05
3 *753:B2 2.72317e-06
4 *645:Y 2.90029e-05
5 *292:70 1.34313e-05
6 *292:64 3.40136e-05
7 *292:58 4.97312e-05
8 *292:56 2.91489e-05
9 *292:45 2.40649e-05
10 *292:28 2.05564e-05
11 *292:26 4.35076e-05
12 *292:20 4.86742e-05
13 *292:12 4.66021e-05
14 *292:6 6.43508e-05
15 *753:B2 *484:281 7.83283e-07
16 *777:B *485:57 3.05118e-08
17 *292:6 *484:16 5.54001e-05
18 *292:12 *464:172 3.22044e-06
19 *292:12 *484:16 2.05732e-05
20 *292:12 *484:48 8.31542e-06
21 *292:20 *464:172 1.45252e-05
22 *292:28 *366:26 4.74168e-07
23 *292:45 *505:20 0
24 *292:58 *407:12 2.14479e-05
25 *292:58 *473:31 3.08767e-06
26 *292:58 *473:44 4.47542e-05
27 *292:70 *488:8 5.49867e-05
28 *292:70 *488:14 3.90258e-06
29 *704:A2 *292:64 6.7842e-07
30 *2:14 *292:20 0
31 *21:31 *292:58 1.29557e-05
32 *48:18 *292:70 1.91841e-05
33 *96:10 *292:45 0
34 *107:14 *292:26 5.77282e-06
35 *107:14 *292:45 1.97582e-06
36 *113:22 *292:12 2.98693e-05
37 *113:22 *292:20 9.67723e-06
38 *117:10 *777:B 4.79132e-07
39 *117:16 *292:45 9.19373e-06
40 *146:14 *292:58 5.50799e-06
41 *147:51 *292:58 6.87516e-06
42 *147:57 *292:58 1.17606e-06
43 *154:14 *777:B 2.65244e-05
44 *154:14 *292:45 3.26909e-06
45 *208:22 *292:26 7.35565e-07
46 *246:8 *292:58 1.10561e-06
47 *247:14 *292:64 3.48165e-06
48 *247:18 *292:12 4.28696e-05
49 *247:18 *292:20 8.9453e-07
50 *247:18 *292:70 8.58704e-06
51 *274:42 *292:26 2.61737e-05
52 *274:50 *292:26 9.86777e-06
53 *274:96 *292:28 6.72662e-07
54 *277:33 *292:58 3.4532e-05
*RES
1 *645:Y *292:6 33.7796 
2 *292:6 *292:12 44.1433 
3 *292:12 *292:20 42.0488 
4 *292:20 *292:26 47.1698 
5 *292:26 *292:28 3.47286 
6 *292:28 *753:B2 36.0045 
7 *292:28 *292:45 41.2939 
8 *292:45 *777:B 43.88 
9 *292:6 *292:56 17.2 
10 *292:56 *292:58 37.7321 
11 *292:58 *292:64 44.5617 
12 *292:64 *292:70 36.8541 
13 *292:70 *705:A1 17.2 
*END

*D_NET *293 0.000540889
*CONN
*I *776:A I *D HAxp5_ASAP7_75t_R
*I *1016:A I *D BUFx3_ASAP7_75t_R
*I *644:Y O *D INVx1_ASAP7_75t_R
*CAP
1 *776:A 1.16516e-05
2 *1016:A 0
3 *644:Y 4.65296e-06
4 *293:39 5.33388e-05
5 *293:30 1.82805e-05
6 *293:22 4.66056e-05
7 *293:14 5.48346e-05
8 *293:10 8.32358e-05
9 *293:8 1.96922e-05
10 *293:8 *420:22 2.20493e-06
11 *293:10 *294:10 1.09067e-06
12 *293:10 *424:38 1.03659e-05
13 *293:10 *464:56 3.90551e-06
14 *293:14 *301:38 2.08822e-05
15 *293:14 *485:18 1.01059e-05
16 *293:14 *485:51 7.2178e-06
17 *293:22 *424:18 2.02493e-06
18 *293:22 *464:70 0
19 *293:22 *472:22 7.47402e-07
20 *293:22 *489:31 3.23168e-05
21 *293:22 *489:50 9.58832e-06
22 *293:30 *751:A1 5.62196e-06
23 *293:30 *484:102 6.59261e-06
24 *293:39 *294:10 4.21328e-06
25 *293:39 *424:38 7.41784e-06
26 *293:39 *424:66 1.33012e-05
27 *293:39 *485:10 0
28 *293:39 *496:10 3.86633e-06
29 *293:39 *506:99 3.20971e-06
30 *646:A *293:8 1.07377e-06
31 *776:B *776:A 8.06588e-06
32 *12:10 *293:10 5.97629e-08
33 *23:10 *293:10 4.13637e-05
34 *60:16 *293:22 0
35 *107:14 *293:22 8.32162e-08
36 *147:16 *293:30 1.70708e-06
37 *147:43 *293:22 6.9486e-06
38 *147:47 *293:22 2.12806e-05
39 *250:10 *293:22 5.15951e-06
40 *274:70 *293:22 1.81821e-05
*RES
1 *644:Y *293:8 37.609 
2 *293:8 *293:10 17.4581 
3 *293:10 *293:14 35.9189 
4 *293:14 *293:22 48.9532 
5 *293:22 *293:30 46.2884 
6 *293:30 *1016:A 17.2 
7 *293:10 *293:39 48.1741 
8 *293:39 *776:A 23.0831 
*END

*D_NET *294 0.000589499
*CONN
*I *775:A I *D HAxp5_ASAP7_75t_R
*I *1017:A I *D BUFx3_ASAP7_75t_R
*I *643:Y O *D INVx1_ASAP7_75t_R
*CAP
1 *775:A 0
2 *1017:A 0
3 *643:Y 7.1841e-06
4 *294:30 4.20079e-05
5 *294:26 9.43332e-05
6 *294:20 7.79632e-05
7 *294:12 2.56378e-05
8 *294:10 6.37875e-05
9 *294:8 7.09716e-05
10 *294:10 *486:71 7.3874e-07
11 *294:10 *506:99 1.92174e-05
12 *294:20 *412:8 6.09949e-06
13 *294:20 *471:33 1.27255e-05
14 *294:26 *470:37 3.16603e-07
15 *294:26 *470:45 4.6097e-05
16 *294:26 *492:58 2.49083e-06
17 *294:30 *455:8 1.59615e-06
18 *294:30 *470:18 1.27347e-05
19 *294:30 *470:37 2.12481e-06
20 *294:30 *489:68 9.30483e-06
21 *643:A *294:8 5.17782e-06
22 *809:D *294:30 3.68565e-06
23 *11:10 *294:10 2.98814e-07
24 *23:10 *294:10 2.56731e-06
25 *55:10 *294:26 2.04037e-06
26 *58:8 *294:26 0
27 *61:31 *294:10 0
28 *245:10 *294:10 7.50937e-05
29 *293:10 *294:10 1.09067e-06
30 *293:39 *294:10 4.21328e-06
*RES
1 *643:Y *294:8 39.2134 
2 *294:8 *294:10 47.8691 
3 *294:10 *294:12 17.2 
4 *294:12 *294:20 49.6869 
5 *294:20 *294:26 43.07 
6 *294:26 *294:30 44.4761 
7 *294:30 *1017:A 17.2 
8 *294:12 *775:A 17.2 
*END

*D_NET *295 0.000568236
*CONN
*I *774:B I *D HAxp5_ASAP7_75t_R
*I *1018:A I *D BUFx3_ASAP7_75t_R
*I *642:Y O *D INVx1_ASAP7_75t_R
*CAP
1 *774:B 0
2 *1018:A 0
3 *642:Y 2.63567e-06
4 *295:39 2.39639e-05
5 *295:28 5.37296e-06
6 *295:22 9.30952e-05
7 *295:20 8.77223e-05
8 *295:18 2.60545e-05
9 *295:10 6.74997e-05
10 *295:8 2.0117e-05
11 *295:8 *485:127 1.43637e-05
12 *295:10 *442:20 5.35192e-07
13 *295:10 *463:55 1.53657e-05
14 *295:10 *463:74 0
15 *295:10 *485:123 4.58188e-06
16 *295:18 *348:14 1.56535e-06
17 *295:18 *442:14 1.01088e-05
18 *295:18 *479:14 3.40789e-06
19 *295:18 *492:71 6.10236e-08
20 *295:22 *755:C1 1.61096e-06
21 *295:22 *347:40 4.73997e-05
22 *295:22 *370:6 2.98247e-06
23 *295:22 *442:8 0
24 *295:22 *455:22 3.90258e-06
25 *295:22 *455:37 3.15342e-06
26 *295:28 *390:8 1.1775e-05
27 *295:28 *464:88 9.80084e-07
28 *295:39 *348:14 3.05118e-08
29 *295:39 *442:20 9.47071e-07
30 *295:39 *463:74 0
31 *295:39 *479:6 5.62196e-06
32 *295:39 *493:20 2.60236e-05
33 *295:39 *506:18 1.49407e-08
34 *642:A *295:8 1.45333e-05
35 *10:10 *295:10 9.31457e-06
36 *53:28 *295:18 9.54755e-07
37 *55:10 *295:18 2.30528e-06
38 *55:25 *295:10 3.28943e-06
39 *55:25 *295:39 5.43729e-05
40 *55:33 *295:39 8.72649e-07
41 *259:29 *295:39 4.65695e-07
42 *274:314 *295:22 1.23489e-06
*RES
1 *642:Y *295:8 38.1438 
2 *295:8 *295:10 13.6098 
3 *295:10 *295:18 45.362 
4 *295:18 *295:20 17.2 
5 *295:20 *295:22 34.7636 
6 *295:22 *295:28 38.9053 
7 *295:28 *1018:A 17.2 
8 *295:10 *295:39 40.1109 
9 *295:39 *774:B 17.2 
*END

*D_NET *296 0.000407757
*CONN
*I *773:B I *D HAxp5_ASAP7_75t_R
*I *1019:A I *D BUFx3_ASAP7_75t_R
*I *641:Y O *D INVx1_ASAP7_75t_R
*CAP
1 *773:B 1.22741e-05
2 *1019:A 1.88442e-05
3 *641:Y 0
4 *296:37 5.0803e-05
5 *296:33 4.22027e-05
6 *296:27 2.00477e-05
7 *296:12 3.63106e-05
8 *296:4 3.38403e-05
9 *773:B *721:A2 0
10 *773:B *297:12 0
11 *773:B *297:18 8.06799e-07
12 *1019:A *723:A2 4.45834e-05
13 *296:12 *724:B2 5.52807e-07
14 *296:12 *479:67 6.44983e-06
15 *296:12 *484:231 1.64348e-06
16 *296:27 *479:67 1.3659e-05
17 *296:27 *489:96 9.56978e-06
18 *296:27 *506:62 5.27671e-07
19 *296:33 *724:A2 3.14154e-06
20 *296:33 *489:106 9.52605e-06
21 *296:33 *492:82 1.12063e-05
22 *296:33 *506:62 2.06056e-06
23 *296:37 *492:88 5.00722e-05
24 *52:10 *773:B 2.19685e-06
25 *52:10 *296:37 1.02506e-06
26 *54:8 *773:B 0
27 *84:22 *296:12 6.44983e-06
28 *84:22 *296:37 9.75645e-06
29 *147:242 *1019:A 5.22376e-07
30 *147:242 *296:12 1.96231e-05
31 *147:242 *296:27 6.10236e-08
32 *263:10 *296:12 0
*RES
1 *641:Y *296:4 17.2 
2 *296:4 *296:12 49.3504 
3 *296:12 *1019:A 32.7099 
4 *296:4 *296:27 43.1556 
5 *296:27 *296:33 39.4685 
6 *296:33 *296:37 43.4064 
7 *296:37 *773:B 43.4107 
*END

*D_NET *297 0.000330353
*CONN
*I *772:A I *D HAxp5_ASAP7_75t_R
*I *1020:A I *D BUFx3_ASAP7_75t_R
*I *640:Y O *D INVx1_ASAP7_75t_R
*CAP
1 *772:A 5.87437e-06
2 *1020:A 1.40461e-05
3 *640:Y 0
4 *297:32 3.47136e-05
5 *297:24 6.34781e-05
6 *297:18 5.80125e-05
7 *297:12 2.42557e-05
8 *297:4 1.49282e-05
9 *1020:A *373:6 4.4311e-05
10 *297:18 *427:26 0
11 *297:18 *442:52 0
12 *297:24 *796:CLK 1.07377e-06
13 *297:24 *463:74 2.13376e-07
14 *297:24 *463:84 0
15 *297:24 *489:117 0
16 *297:32 *374:12 3.55332e-06
17 *297:32 *484:252 4.47188e-05
18 *640:A *772:A 0
19 *640:A *297:12 1.07377e-06
20 *725:B *297:18 0
21 *773:B *297:12 0
22 *773:B *297:18 8.06799e-07
23 *796:D *297:24 4.75943e-06
24 *49:23 *297:18 0
25 *264:8 *297:24 1.1364e-05
26 *274:281 *297:24 3.17029e-06
*RES
1 *640:Y *297:4 17.2 
2 *297:4 *297:12 39.89 
3 *297:12 *297:18 43.4107 
4 *297:18 *297:24 45.6432 
5 *297:24 *297:32 44.3064 
6 *297:32 *1020:A 47.7706 
7 *297:4 *772:A 19.8741 
*END

*D_NET *298 0.000129852
*CONN
*I *771:A I *D HAxp5_ASAP7_75t_R
*I *1021:A I *D BUFx3_ASAP7_75t_R
*I *639:Y O *D INVx1_ASAP7_75t_R
*CAP
1 *771:A 1.96813e-05
2 *1021:A 0
3 *639:Y 1.31901e-06
4 *298:6 2.10003e-05
5 *771:A *728:A 3.34039e-05
6 *298:6 *728:A 1.95129e-06
7 *298:6 *760:C1 2.28976e-06
8 *7:12 *771:A 2.11931e-05
9 *7:12 *298:6 2.96818e-06
10 *266:14 *771:A 2.60455e-05
*RES
1 *639:Y *298:6 19.3393 
2 *298:6 *1021:A 17.2 
3 *298:6 *771:A 36.9885 
*END

*D_NET *299 0.000145091
*CONN
*I *1068:A I *D BUFx3_ASAP7_75t_R
*I *770:A I *D HAxp5_ASAP7_75t_R
*I *638:Y O *D INVx1_ASAP7_75t_R
*CAP
1 *1068:A 0
2 *770:A 0
3 *638:Y 0
4 *299:25 1.57212e-05
5 *299:12 1.50365e-05
6 *299:4 3.07577e-05
7 *299:12 *408:14 6.42451e-07
8 *299:12 *439:10 1.12894e-06
9 *299:25 *437:72 1.12894e-06
10 *299:25 *466:69 0
11 *1028:A *299:25 1.07377e-06
12 *43:10 *299:12 0
13 *45:10 *299:12 1.308e-05
14 *230:39 *299:12 3.75733e-05
15 *230:39 *299:25 3.16603e-06
16 *230:47 *299:12 2.03526e-06
17 *230:47 *299:25 6.7842e-07
18 *230:62 *299:25 9.63579e-06
19 *230:68 *299:25 1.34329e-05
*RES
1 *638:Y *299:4 17.2 
2 *299:4 *299:12 48.9573 
3 *299:12 *770:A 17.2 
4 *299:4 *299:25 47.2111 
5 *299:25 *1068:A 17.2 
*END

*D_NET *300 0.000424841
*CONN
*I *662:A1 I *D AO221x1_ASAP7_75t_R
*I *779:B I *D HAxp5_ASAP7_75t_R
*I *742:C2 I *D OA222x2_ASAP7_75t_R
*I *515:Y O *D INVx2_ASAP7_75t_R
*CAP
1 *662:A1 0
2 *779:B 1.40526e-05
3 *742:C2 5.52494e-06
4 *515:Y 6.97873e-05
5 *300:37 2.10262e-05
6 *300:31 2.65785e-05
7 *300:16 2.51299e-05
8 *300:14 9.58598e-06
9 *300:6 7.93733e-05
10 *742:C2 *491:14 1.8371e-06
11 *779:B *337:12 1.52651e-06
12 *300:31 *662:A2 1.44167e-06
13 *300:31 *337:25 3.16603e-06
14 *300:31 *449:14 3.13195e-05
15 *300:31 *449:20 2.73885e-05
16 *300:31 *491:14 4.39988e-06
17 *300:31 *491:18 2.95317e-05
18 *300:31 *491:33 7.53304e-06
19 *300:37 *337:25 8.06436e-06
20 *300:37 *491:18 4.70769e-06
21 *300:37 *491:33 1.98062e-06
22 *779:A *779:B 9.31704e-06
23 *5:6 *300:6 0
24 *34:31 *300:31 4.92332e-06
25 *72:12 *300:14 2.19482e-06
26 *88:8 *742:C2 7.931e-07
27 *88:8 *300:31 4.26751e-07
28 *140:12 *300:37 2.56817e-05
29 *206:10 *742:C2 5.37866e-07
30 *206:10 *300:14 2.30873e-06
31 *206:10 *300:31 1.49407e-08
32 *274:120 *300:14 4.68785e-06
*RES
1 *515:Y *300:6 47.685 
2 *300:6 *300:14 38.9242 
3 *300:14 *300:16 17.2 
4 *300:16 *742:C2 38.6237 
5 *300:16 *300:31 42.0625 
6 *300:31 *300:37 43.4107 
7 *300:37 *779:B 25.7572 
8 *300:31 *662:A1 17.2 
*END

*D_NET *301 0.000543381
*CONN
*I *751:C2 I *D OA222x2_ASAP7_75t_R
*I *700:A1 I *D AO221x1_ASAP7_75t_R
*I *763:CI I *D FAx1_ASAP7_75t_R
*I *514:Y O *D INVx1_ASAP7_75t_R
*CAP
1 *751:C2 0
2 *700:A1 1.60227e-05
3 *763:CI 0
4 *514:Y 5.76427e-06
5 *301:38 2.32108e-05
6 *301:25 3.86209e-05
7 *301:16 2.32762e-05
8 *301:12 3.76828e-05
9 *301:8 6.59799e-05
10 *700:A1 *700:A2 3.89037e-06
11 *700:A1 *344:31 5.19552e-07
12 *301:8 *414:10 1.70866e-06
13 *301:12 *420:14 0
14 *301:12 *424:38 5.33125e-05
15 *301:16 *422:25 3.59323e-06
16 *301:25 *422:25 3.02496e-05
17 *301:25 *474:8 5.37569e-06
18 *301:25 *474:19 8.36114e-06
19 *301:38 *414:10 4.3339e-06
20 *301:38 *472:22 5.90979e-06
21 *301:38 *485:18 1.08167e-05
22 *301:38 *485:20 2.93204e-05
23 *301:38 *485:26 3.68287e-06
24 *63:8 *301:16 3.59323e-06
25 *63:8 *301:25 8.14784e-05
26 *67:20 *301:12 0
27 *79:8 *301:25 9.94583e-06
28 *79:18 *301:38 1.47929e-05
29 *105:8 *301:8 6.05419e-06
30 *105:8 *301:38 7.3874e-07
31 *105:20 *301:38 5.68657e-06
32 *107:14 *301:12 2.21227e-05
33 *108:14 *700:A1 6.45454e-06
34 *293:14 *301:38 2.08822e-05
*RES
1 *514:Y *301:8 39.3746 
2 *301:8 *301:12 35.8137 
3 *301:12 *301:16 18.4202 
4 *301:16 *763:CI 17.2 
5 *301:16 *301:25 45.3583 
6 *301:25 *700:A1 26.292 
7 *301:8 *301:38 41.9561 
8 *301:38 *751:C2 17.2 
*END

*D_NET *302 0.000104227
*CONN
*P req_msg[0] I
*I *741:A I *D BUFx2_ASAP7_75t_R
*CAP
1 req_msg[0] 3.50571e-05
2 *741:A 0
3 *302:15 2.43671e-06
4 *302:9 3.74938e-05
5 *302:9 resp_msg[0] 2.71041e-05
6 *302:15 *380:10 2.13555e-06
*RES
1 req_msg[0] *302:9 33.5159 
2 *302:9 *302:15 36.3711 
3 *302:15 *741:A 17.2 
*END

*D_NET *303 0.000216543
*CONN
*P req_msg[10] I
*I *738:A I *D BUFx2_ASAP7_75t_R
*CAP
1 req_msg[10] 1.51569e-05
2 *738:A 0
3 *303:13 5.83384e-05
4 *303:11 7.34953e-05
5 *303:11 resp_msg[10] 2.1712e-05
6 *303:11 *320:9 2.1712e-05
7 *303:13 *320:13 1.92591e-05
8 *303:13 *381:6 0
9 *275:6 *303:13 6.86929e-06
*RES
1 req_msg[10] *303:11 47.8124 
2 *303:11 *303:13 44.3905 
3 *303:13 *738:A 17.2 
*END

*D_NET *304 0.000296302
*CONN
*P req_msg[11] I
*I *736:A I *D BUFx2_ASAP7_75t_R
*CAP
1 req_msg[11] 7.10274e-05
2 *736:A 0
3 *304:11 1.40143e-05
4 *304:5 8.50417e-05
5 *304:5 resp_msg[12] 2.35027e-05
6 *304:5 *321:7 4.33557e-05
7 *304:11 *363:8 0
8 *147:127 *304:11 0
9 *209:14 *304:5 5.91157e-05
10 *220:8 *304:11 2.45021e-07
*RES
1 req_msg[11] *304:5 47.0212 
2 *304:5 *304:11 45.0063 
3 *304:11 *736:A 17.2 
*END

*D_NET *305 8.49323e-05
*CONN
*P req_msg[12] I
*I *660:A I *D BUFx2_ASAP7_75t_R
*CAP
1 req_msg[12] 3.97834e-05
2 *660:A 0
3 *305:15 2.68275e-06
4 *305:9 4.24661e-05
5 *305:9 *322:5 0
6 *305:15 *353:13 0
*RES
1 req_msg[12] *305:9 33.4076 
2 *305:9 *305:15 36.3711 
3 *305:15 *660:A 17.2 
*END

*D_NET *306 0.000266001
*CONN
*P req_msg[13] I
*I *659:A I *D BUFx2_ASAP7_75t_R
*CAP
1 req_msg[13] 1.81774e-05
2 *659:A 0
3 *306:13 4.71912e-05
4 *306:11 4.71912e-05
5 *306:9 1.81774e-05
6 *306:9 resp_msg[11] 5.54694e-05
7 *306:9 *656:A 0
8 *306:9 *307:7 5.57363e-05
9 *306:13 *308:13 2.40583e-05
*RES
1 req_msg[13] *306:9 39.5704 
2 *306:9 *306:11 17.2 
3 *306:11 *306:13 33.694 
4 *306:13 *659:A 17.2 
*END

*D_NET *307 0.000191626
*CONN
*P req_msg[14] I
*I *656:A I *D BUFx2_ASAP7_75t_R
*CAP
1 req_msg[14] 4.21038e-05
2 *656:A 1.25601e-05
3 *307:7 5.46639e-05
4 *656:A *382:12 0
5 *307:7 resp_msg[11] 2.53632e-06
6 *307:7 *323:11 2.40259e-05
7 *306:9 *656:A 0
8 *306:9 *307:7 5.57363e-05
*RES
1 req_msg[14] *307:7 42.1445 
2 *307:7 *656:A 42.7536 
*END

*D_NET *308 0.000340515
*CONN
*P req_msg[15] I
*I *563:A I *D BUFx2_ASAP7_75t_R
*CAP
1 req_msg[15] 1.75808e-05
2 *563:A 2.68185e-05
3 *308:19 3.88053e-05
4 *308:13 9.00675e-05
5 *308:11 9.56615e-05
6 *563:A *365:14 5.41446e-06
7 *563:A *368:6 4.57767e-06
8 *308:11 *323:11 3.24361e-05
9 *308:11 *326:9 0
10 *308:13 *326:13 0
11 *148:10 *563:A 1.76928e-06
12 *212:10 *308:19 3.32579e-06
13 *306:13 *308:13 2.40583e-05
*RES
1 req_msg[15] *308:11 47.2492 
2 *308:11 *308:13 46.5298 
3 *308:13 *308:19 42.2843 
4 *308:19 *563:A 35.9189 
*END

*D_NET *309 0.000232308
*CONN
*P req_msg[16] I
*I *554:A I *D BUFx2_ASAP7_75t_R
*CAP
1 req_msg[16] 7.15446e-05
2 *554:A 3.06979e-05
3 *309:11 3.33543e-05
4 *309:5 7.42009e-05
5 *141:6 *554:A 2.25106e-05
*RES
1 req_msg[16] *309:5 37.9308 
2 *309:5 *309:11 35.8079 
3 *309:11 *554:A 38.0582 
*END

*D_NET *310 0.000212775
*CONN
*P req_msg[17] I
*I *540:A I *D BUFx2_ASAP7_75t_R
*CAP
1 req_msg[17] 1.63031e-05
2 *540:A 1.24211e-05
3 *310:13 4.20454e-05
4 *310:11 4.59274e-05
5 *310:11 req_rdy 2.71432e-05
6 *310:11 resp_msg[1] 2.43547e-05
7 *310:13 *379:10 4.28112e-05
8 *127:8 *540:A 1.76928e-06
9 *127:10 *310:13 0
*RES
1 req_msg[17] *310:11 41.7859 
2 *310:11 *310:13 33.3207 
3 *310:13 *540:A 41.3527 
*END

*D_NET *311 0.000232682
*CONN
*P req_msg[18] I
*I *531:A I *D BUFx2_ASAP7_75t_R
*CAP
1 req_msg[18] 2.08017e-05
2 *531:A 6.73954e-06
3 *311:13 9.55393e-05
4 *311:11 0.000109601
5 *311:11 resp_msg[2] 0
6 *311:13 *388:8 0
*RES
1 req_msg[18] *311:11 39.7757 
2 *311:11 *311:13 74.0563 
3 *311:13 *531:A 38.1438 
*END

*D_NET *312 0.000357418
*CONN
*P req_msg[19] I
*I *520:A I *D BUFx2_ASAP7_75t_R
*CAP
1 req_msg[19] 0.000134279
2 *520:A 0
3 *312:13 2.12251e-05
4 *312:5 0.000155504
5 *312:5 resp_msg[2] 2.71041e-05
6 *312:5 resp_msg[3] 1.48818e-05
7 *312:5 *324:11 0
8 *312:13 *345:8 4.42421e-06
*RES
1 req_msg[19] *312:5 62.1464 
2 *312:5 *312:13 42.5028 
3 *312:13 *520:A 34.4 
*END

*D_NET *313 0.000184106
*CONN
*P req_msg[1] I
*I *518:A I *D BUFx2_ASAP7_75t_R
*CAP
1 req_msg[1] 2.20576e-05
2 *518:A 0
3 *313:17 2.98977e-05
4 *313:13 6.99956e-05
5 *313:11 6.21555e-05
6 *313:11 req_rdy 0
7 *127:10 *313:13 0
*RES
1 req_msg[1] *313:11 39.9166 
2 *313:11 *313:13 34.447 
3 *313:13 *313:17 33.7796 
4 *313:17 *518:A 17.2 
*END

*D_NET *314 0.000333866
*CONN
*P req_msg[20] I
*I *516:A I *D BUFx2_ASAP7_75t_R
*CAP
1 req_msg[20] 9.37154e-05
2 *516:A 0
3 *314:11 8.58839e-06
4 *314:5 0.000102304
5 *314:5 resp_msg[4] 6.21883e-05
6 *314:5 *328:13 6.70702e-05
*RES
1 req_msg[20] *314:5 53.1896 
2 *314:5 *314:11 40.501 
3 *314:11 *516:A 17.2 
*END

*D_NET *315 0.000350493
*CONN
*P req_msg[21] I
*I *919:A I *D BUFx2_ASAP7_75t_R
*CAP
1 req_msg[21] 7.57146e-05
2 *919:A 0
3 *315:11 1.22761e-05
4 *315:5 8.79907e-05
5 *315:5 resp_msg[5] 5.89456e-05
6 *315:5 *317:5 3.37303e-05
7 *315:5 *329:9 6.70498e-05
8 *315:5 *329:13 1.47861e-05
*RES
1 req_msg[21] *315:5 50.5924 
2 *315:5 *315:11 42.1905 
3 *315:11 *919:A 17.2 
*END

*D_NET *316 0.000276068
*CONN
*P req_msg[22] I
*I *920:A I *D BUFx2_ASAP7_75t_R
*CAP
1 req_msg[22] 7.26936e-05
2 *920:A 0
3 *316:11 1.37916e-06
4 *316:5 7.40728e-05
5 *316:5 *317:5 0
6 *316:5 *330:5 0.000127922
*RES
1 req_msg[22] *316:5 48.6444 
2 *316:5 *316:11 35.2447 
3 *316:11 *920:A 17.2 
*END

*D_NET *317 0.00036583
*CONN
*P req_msg[23] I
*I *921:A I *D BUFx2_ASAP7_75t_R
*CAP
1 req_msg[23] 0.000129318
2 *921:A 0
3 *317:11 1.73952e-06
4 *317:5 0.000131058
5 *317:5 resp_msg[5] 5.77491e-05
6 *317:5 *329:13 0
7 *317:5 *330:5 0
8 *317:5 *348:22 1.68307e-06
9 *317:5 *349:20 1.05523e-05
10 *315:5 *317:5 3.37303e-05
11 *316:5 *317:5 0
*RES
1 req_msg[23] *317:5 64.8773 
2 *317:5 *317:11 35.2447 
3 *317:11 *921:A 17.2 
*END

*D_NET *318 0.000386897
*CONN
*P req_msg[24] I
*I *922:A I *D BUFx2_ASAP7_75t_R
*CAP
1 req_msg[24] 3.70314e-05
2 *922:A 0
3 *318:19 7.91732e-06
4 *318:13 5.21561e-05
5 *318:9 8.12701e-05
6 *318:9 resp_msg[6] 5.77491e-05
7 *318:9 resp_msg[8] 0
8 *318:9 *330:5 1.41468e-06
9 *318:9 *392:12 1.35196e-05
10 *318:9 *392:18 1.56475e-06
11 *318:13 *330:5 0
12 *318:13 *374:12 4.2701e-05
13 *318:13 *392:12 9.15735e-05
*RES
1 req_msg[24] *318:9 44.0879 
2 *318:9 *318:13 44.9041 
3 *318:13 *318:19 39.5624 
4 *318:19 *922:A 17.2 
*END

*D_NET *319 0.000558437
*CONN
*P req_msg[25] I
*I *923:A I *D BUFx2_ASAP7_75t_R
*CAP
1 req_msg[25] 1.78835e-05
2 *923:A 0
3 *319:13 0.000145611
4 *319:11 0.000163495
5 *319:11 resp_msg[9] 1.30215e-05
6 *319:13 *395:8 0.000218426
*RES
1 req_msg[25] *319:11 39.7275 
2 *319:11 *319:13 165.102 
3 *319:13 *923:A 34.4 
*END

*D_NET *320 0.000298173
*CONN
*P req_msg[26] I
*I *924:A I *D BUFx2_ASAP7_75t_R
*CAP
1 req_msg[26] 7.23063e-05
2 *924:A 0
3 *320:13 4.70292e-05
4 *320:9 0.000119336
5 *320:9 resp_msg[10] 9.98595e-07
6 *320:13 *362:8 1.17191e-05
7 *275:6 *320:13 5.81336e-06
8 *303:11 *320:9 2.1712e-05
9 *303:13 *320:13 1.92591e-05
*RES
1 req_msg[26] *320:9 46.4235 
2 *320:9 *320:13 47.685 
3 *320:13 *924:A 17.2 
*END

*D_NET *321 0.00026028
*CONN
*P req_msg[27] I
*I *925:A I *D BUFx2_ASAP7_75t_R
*CAP
1 req_msg[27] 2.98341e-05
2 *925:A 0
3 *321:13 5.74356e-05
4 *321:7 8.72697e-05
5 *321:7 resp_msg[11] 4.23848e-05
6 *304:5 *321:7 4.33557e-05
*RES
1 req_msg[27] *321:7 45.391 
2 *321:7 *321:13 49.263 
3 *321:13 *925:A 17.2 
*END

*D_NET *322 0.00033692
*CONN
*P req_msg[28] I
*I *926:A I *D BUFx2_ASAP7_75t_R
*CAP
1 req_msg[28] 8.49611e-05
2 *926:A 0
3 *322:13 1.6224e-05
4 *322:5 0.000101185
5 *322:5 *336:5 0.000130277
6 *322:13 *353:13 4.27305e-06
7 *213:8 *322:13 0
8 *305:9 *322:5 0
*RES
1 req_msg[28] *322:5 52.1179 
2 *322:5 *322:13 40.7205 
3 *322:13 *926:A 34.4 
*END

*D_NET *323 0.000188831
*CONN
*P req_msg[29] I
*I *927:A I *D BUFx2_ASAP7_75t_R
*CAP
1 req_msg[29] 1.59074e-05
2 *927:A 2.24497e-05
3 *323:11 3.83572e-05
4 *927:A *326:13 4.03676e-05
5 *927:A *365:6 1.21211e-05
6 *323:11 *325:9 0
7 *323:11 *326:9 3.16603e-06
8 *307:7 *323:11 2.40259e-05
9 *308:11 *323:11 3.24361e-05
*RES
1 req_msg[29] *323:11 49.7758 
2 *323:11 *927:A 45.5457 
*END

*D_NET *324 0.000105331
*CONN
*P req_msg[2] I
*I *928:A I *D BUFx2_ASAP7_75t_R
*CAP
1 req_msg[2] 3.4881e-05
2 *928:A 1.76484e-05
3 *324:11 5.25294e-05
4 *928:A *366:10 2.72334e-07
5 *928:A *389:10 0
6 *324:11 resp_msg[1] 0
7 *324:11 resp_msg[3] 0
8 *324:11 *366:16 0
9 *312:5 *324:11 0
*RES
1 req_msg[2] *324:11 47.3938 
2 *324:11 *928:A 45.0523 
*END

*D_NET *325 0.000262478
*CONN
*P req_msg[30] I
*I *929:A I *D BUFx2_ASAP7_75t_R
*CAP
1 req_msg[30] 4.4619e-05
2 *929:A 0
3 *325:13 5.26363e-05
4 *325:11 5.26363e-05
5 *325:9 4.4619e-05
6 *325:9 resp_msg[15] 0
7 *325:9 *326:9 1.99212e-05
8 *325:13 *367:6 2.25106e-05
9 *325:13 *401:6 2.55359e-05
10 *323:11 *325:9 0
*RES
1 req_msg[30] *325:9 43.7157 
2 *325:9 *325:11 17.2 
3 *325:11 *325:13 39.0422 
4 *325:13 *929:A 17.2 
*END

*D_NET *326 0.000202325
*CONN
*P req_msg[31] I
*I *930:A I *D BUFx2_ASAP7_75t_R
*CAP
1 req_msg[31] 2.03536e-05
2 *930:A 0
3 *326:13 4.10658e-05
4 *326:11 4.10658e-05
5 *326:9 2.03536e-05
6 *326:13 *365:6 9.92515e-06
7 *326:13 *368:6 6.10603e-06
8 *927:A *326:13 4.03676e-05
9 *308:11 *326:9 0
10 *308:13 *326:13 0
11 *323:11 *326:9 3.16603e-06
12 *325:9 *326:9 1.99212e-05
*RES
1 req_msg[31] *326:9 33.3421 
2 *326:9 *326:11 17.2 
3 *326:11 *326:13 40.6467 
4 *326:13 *930:A 17.2 
*END

*D_NET *327 0.000123552
*CONN
*P req_msg[3] I
*I *931:A I *D BUFx2_ASAP7_75t_R
*CAP
1 req_msg[3] 4.42465e-05
2 *931:A 1.75297e-05
3 *327:9 6.17761e-05
*RES
1 req_msg[3] *327:9 40.5443 
2 *327:9 *931:A 42.4224 
*END

*D_NET *328 0.000371166
*CONN
*P req_msg[4] I
*I *932:A I *D BUFx2_ASAP7_75t_R
*CAP
1 req_msg[4] 4.31175e-05
2 *932:A 0
3 *328:19 1.18706e-06
4 *328:13 4.15477e-05
5 *328:9 8.34782e-05
6 *328:9 resp_msg[4] 6.31997e-05
7 *328:9 *390:12 1.24017e-05
8 *328:9 *390:18 1.95773e-06
9 *328:13 *390:12 5.72063e-05
10 *314:5 *328:13 6.70702e-05
*RES
1 req_msg[4] *328:9 46.0359 
2 *328:9 *328:13 49.4493 
3 *328:13 *328:19 35.057 
4 *328:19 *932:A 17.2 
*END

*D_NET *329 0.000315675
*CONN
*P req_msg[5] I
*I *933:A I *D BUFx2_ASAP7_75t_R
*CAP
1 req_msg[5] 4.4793e-05
2 *933:A 0
3 *329:19 1.53046e-06
4 *329:13 7.21265e-05
5 *329:9 0.000115389
6 *329:13 *390:12 0
7 *315:5 *329:9 6.70498e-05
8 *315:5 *329:13 1.47861e-05
9 *317:5 *329:13 0
*RES
1 req_msg[5] *329:9 47.5376 
2 *329:9 *329:13 48.7999 
3 *329:13 *329:19 35.2447 
4 *329:19 *933:A 17.2 
*END

*D_NET *330 0.000332134
*CONN
*P req_msg[6] I
*I *934:A I *D BUFx2_ASAP7_75t_R
*CAP
1 req_msg[6] 6.77403e-05
2 *934:A 0
3 *330:11 1.18706e-06
4 *330:5 6.89273e-05
5 *330:5 resp_msg[6] 5.89456e-05
6 *330:5 *374:12 0
7 *330:5 *392:12 5.99672e-06
8 *316:5 *330:5 0.000127922
9 *317:5 *330:5 0
10 *318:9 *330:5 1.41468e-06
11 *318:13 *330:5 0
*RES
1 req_msg[6] *330:5 53.1896 
2 *330:5 *330:11 35.057 
3 *330:11 *934:A 17.2 
*END

*D_NET *331 0.000313327
*CONN
*P req_msg[7] I
*I *935:A I *D BUFx2_ASAP7_75t_R
*CAP
1 req_msg[7] 0.000127494
2 *935:A 0
3 *331:11 1.02582e-05
4 *331:5 0.000137752
5 *331:5 resp_msg[8] 1.50067e-05
6 *331:5 *332:11 2.28166e-05
7 *331:5 *374:12 0
8 *331:5 *509:20 0
9 *284:6 *331:5 0
*RES
1 req_msg[7] *331:5 66.8252 
2 *331:5 *331:11 42.0027 
3 *331:11 *935:A 17.2 
*END

*D_NET *332 0.000153484
*CONN
*P req_msg[8] I
*I *936:A I *D BUFx2_ASAP7_75t_R
*CAP
1 req_msg[8] 1.37519e-05
2 *936:A 3.76773e-05
3 *332:11 5.14292e-05
4 *936:A *394:6 4.9926e-06
5 *332:11 resp_msg[8] 2.28166e-05
6 *331:5 *332:11 2.28166e-05
*RES
1 req_msg[8] *332:11 47.3862 
2 *332:11 *936:A 45.5457 
*END

*D_NET *333 0.000453288
*CONN
*P req_msg[9] I
*I *937:A I *D BUFx2_ASAP7_75t_R
*CAP
1 req_msg[9] 4.02723e-05
2 *937:A 0
3 *333:21 2.00141e-05
4 *333:13 0.000171318
5 *333:11 0.000191576
6 *333:11 resp_msg[9] 1.44167e-05
7 *333:21 *375:10 1.56919e-05
*RES
1 req_msg[9] *333:11 46.9911 
2 *333:11 *333:13 71.5671 
3 *333:13 *333:21 45.0602 
4 *333:21 *937:A 34.4 
*END

*D_NET *334 0.000172845
*CONN
*I *1026:A I *D BUFx3_ASAP7_75t_R
*I *1023:A I *D BUFx3_ASAP7_75t_R
*I *517:Y O *D INVx1_ASAP7_75t_R
*CAP
1 *1026:A 1.03481e-06
2 *1023:A 2.08709e-05
3 *517:Y 3.9114e-06
4 *334:10 3.57282e-05
5 *334:8 1.77339e-05
6 *1023:A *345:8 2.35211e-06
7 *334:8 *484:48 2.03526e-06
8 *334:10 *345:8 2.28136e-05
9 *334:10 *492:12 9.67723e-06
10 *64:18 *334:10 3.81559e-05
11 *107:8 *1026:A 9.08513e-06
12 *107:10 *334:10 9.4467e-06
*RES
1 *517:Y *334:8 36.0045 
2 *334:8 *334:10 21.4003 
3 *334:10 *1023:A 48.3905 
4 *334:10 *1026:A 37.0741 
*END

*D_NET *335 0.000203497
*CONN
*P req_val I
*I *938:A I *D BUFx2_ASAP7_75t_R
*CAP
1 req_val 1.11662e-05
2 *938:A 0
3 *335:13 4.59895e-05
4 *335:11 5.71558e-05
5 *335:11 resp_val 2.37103e-05
6 *335:11 *353:11 2.87785e-05
7 *335:13 *353:13 0
8 *335:13 *396:8 3.6697e-05
*RES
1 req_val *335:11 39.4051 
2 *335:11 *335:13 46.8366 
3 *335:13 *938:A 34.4 
*END

*D_NET *336 0.000419174
*CONN
*P reset I
*I *939:A I *D BUFx2_ASAP7_75t_R
*CAP
1 reset 9.88668e-05
2 *939:A 0
3 *336:13 9.73301e-06
4 *336:5 0.0001086
5 *336:5 resp_val 2.61509e-05
6 *336:13 *353:13 1.36028e-05
7 *106:8 *336:13 3.19434e-05
8 *322:5 *336:5 0.000130277
*RES
1 reset *336:5 62.1464 
2 *336:5 *336:13 40.7713 
3 *336:13 *939:A 34.4 
*END

*D_NET *337 0.00033453
*CONN
*I *942:A I *D BUFx2_ASAP7_75t_R
*I *662:B2 I *D AO221x1_ASAP7_75t_R
*I *779:SN O *D HAxp5_ASAP7_75t_R
*CAP
1 *942:A 6.14038e-06
2 *662:B2 0
3 *779:SN 0
4 *337:29 3.75908e-05
5 *337:25 5.27869e-05
6 *337:12 1.61741e-05
7 *337:4 3.75106e-05
8 *942:A *380:8 1.90474e-05
9 *337:12 *436:8 7.84037e-07
10 *337:25 *491:14 9.67723e-06
11 *337:25 *491:18 1.82715e-05
12 *337:29 *436:8 5.10111e-05
13 *337:29 *463:182 8.90818e-07
14 *337:29 *491:14 2.22617e-06
15 *779:A *337:12 1.32196e-05
16 *779:B *337:12 1.52651e-06
17 *34:10 *337:25 7.35354e-06
18 *34:10 *337:29 1.12838e-05
19 *38:31 *337:12 1.7023e-05
20 *140:12 *337:12 4.66823e-06
21 *140:12 *337:25 3.76935e-06
22 *140:12 *337:29 5.49212e-07
23 *206:22 *337:29 1.62723e-06
24 *214:22 *337:12 8.32517e-06
25 *274:111 *337:29 1.84268e-06
26 *278:8 *337:29 0
27 *300:31 *337:25 3.16603e-06
28 *300:37 *337:25 8.06436e-06
*RES
1 *779:SN *337:4 17.2 
2 *337:4 *337:12 45.9714 
3 *337:12 *662:B2 17.2 
4 *337:4 *337:25 49.2937 
5 *337:25 *337:29 44.232 
6 *337:29 *942:A 40.2831 
*END

*D_NET *338 0.000771173
*CONN
*I *961:A I *D BUFx3_ASAP7_75t_R
*I *666:B2 I *D AO221x1_ASAP7_75t_R
*I *605:Y O *D XOR2x2_ASAP7_75t_R
*CAP
1 *961:A 4.98866e-05
2 *666:B2 1.00681e-05
3 *605:Y 6.53953e-06
4 *338:45 5.14855e-05
5 *338:39 0.000139371
6 *338:37 0.000137772
7 *338:24 1.40554e-05
8 *338:20 2.3829e-05
9 *338:14 6.43466e-05
10 *338:8 5.10446e-05
11 *666:B2 *449:122 6.10236e-08
12 *338:8 *410:26 8.90818e-07
13 *338:14 *410:81 2.03526e-06
14 *338:20 *436:42 2.18485e-06
15 *338:20 *445:8 8.16553e-06
16 *338:20 *446:8 2.30405e-06
17 *338:39 *340:12 0
18 *338:39 *482:86 3.74016e-08
19 *678:B *338:14 2.90209e-08
20 *1008:A *338:14 2.35164e-06
21 *1008:A *338:20 1.02484e-05
22 *38:12 *338:39 3.21007e-05
23 *38:20 *666:B2 5.50505e-06
24 *39:12 *338:39 5.87569e-06
25 *41:12 *338:20 1.23579e-05
26 *41:18 *338:20 3.68595e-05
27 *121:10 *338:20 4.33879e-05
28 *121:22 *338:8 4.35576e-08
29 *130:14 *338:20 3.23659e-06
30 *130:26 *338:8 0
31 *132:10 *338:24 3.05118e-08
32 *136:18 *338:39 0
33 *147:123 *961:A 8.9147e-07
34 *147:123 *338:45 2.76514e-06
35 *211:157 *666:B2 1.58649e-05
36 *216:33 *338:39 2.38641e-07
37 *217:18 *338:39 1.24672e-08
38 *220:12 *961:A 3.52961e-05
39 *225:14 *338:14 0
40 *285:34 *666:B2 0
41 *285:34 *338:24 0
*RES
1 *605:Y *338:8 37.779 
2 *338:8 *338:14 49.9099 
3 *338:14 *338:20 38.7347 
4 *338:20 *338:24 19.5465 
5 *338:24 *666:B2 41.5706 
6 *338:24 *338:37 17.2 
7 *338:37 *338:39 43.9369 
8 *338:39 *338:45 35.4325 
9 *338:45 *961:A 46.6154 
*END

*D_NET *339 0.000645883
*CONN
*I *967:A I *D BUFx3_ASAP7_75t_R
*I *668:A I *D NAND2x2_ASAP7_75t_R
*I *612:Y O *D XNOR2x2_ASAP7_75t_R
*CAP
1 *967:A 0
2 *668:A 0
3 *612:Y 1.03046e-05
4 *339:39 8.23516e-07
5 *339:33 6.09046e-05
6 *339:24 2.82126e-05
7 *339:18 9.80919e-05
8 *339:14 8.04985e-05
9 *339:10 8.10048e-05
10 *339:10 *437:12 2.42729e-06
11 *339:10 *447:55 8.87832e-07
12 *339:14 *434:31 1.07064e-05
13 *339:14 *447:40 1.75678e-05
14 *339:14 *482:125 1.62074e-07
15 *339:14 *486:41 8.72704e-08
16 *339:24 *668:B 6.7842e-07
17 *339:33 *482:111 4.23885e-07
18 *339:33 *487:108 1.60981e-06
19 *339:39 *461:85 1.56881e-06
20 *19:10 *339:18 3.92191e-05
21 *19:10 *339:24 5.23493e-05
22 *26:23 *339:18 1.30795e-06
23 *26:23 *339:24 1.23278e-05
24 *27:33 *339:33 0
25 *27:41 *339:39 1.04709e-06
26 *28:14 *339:33 5.8804e-06
27 *28:33 *339:18 3.31231e-05
28 *30:18 *339:14 0
29 *30:18 *339:33 3.27988e-05
30 *30:35 *339:33 2.91366e-05
31 *42:6 *339:24 2.64633e-06
32 *138:22 *339:24 0
33 *184:29 *339:10 0
34 *209:14 *339:33 1.50621e-05
35 *274:179 *339:33 2.5024e-05
*RES
1 *612:Y *339:10 39.2329 
2 *339:10 *339:14 40.3589 
3 *339:14 *339:18 31.2792 
4 *339:18 *339:24 41.1982 
5 *339:24 *668:A 17.2 
6 *339:18 *339:33 44.9041 
7 *339:33 *339:39 35.6202 
8 *339:39 *967:A 17.2 
*END

*D_NET *340 0.000678861
*CONN
*I *945:A I *D BUFx2_ASAP7_75t_R
*I *614:Y O *D XNOR2x2_ASAP7_75t_R
*CAP
1 *945:A 0
2 *614:Y 7.13351e-07
3 *340:18 1.49534e-05
4 *340:12 0.000175122
5 *340:10 0.000160168
6 *340:8 7.13351e-07
7 *340:12 *486:15 3.27611e-06
8 *340:12 *487:62 1.93242e-06
9 *340:12 *491:33 1.31689e-05
10 *37:14 *340:12 0
11 *38:31 *340:8 2.03413e-06
12 *39:12 *340:12 8.35254e-06
13 *147:89 *340:12 0
14 *147:108 *340:12 0
15 *216:33 *340:12 7.13311e-06
16 *217:18 *340:12 0.000168937
17 *273:24 *340:12 8.90797e-06
18 *285:49 *340:12 0.000113448
19 *338:39 *340:12 0
*RES
1 *614:Y *340:8 35.057 
2 *340:8 *340:10 17.2 
3 *340:10 *340:12 69.9095 
4 *340:12 *340:18 43.5045 
5 *340:18 *945:A 17.2 
*END

*D_NET *341 0.00039478
*CONN
*I *960:A I *D BUFx3_ASAP7_75t_R
*I *686:A I *D NAND2x2_ASAP7_75t_R
*I *626:Y O *D AO211x2_ASAP7_75t_R
*CAP
1 *960:A 1.39745e-05
2 *686:A 1.61806e-05
3 *626:Y 1.97921e-05
4 *341:27 0.000136963
5 *341:16 0.000157834
6 *341:8 3.84571e-05
7 *960:A *398:6 2.27479e-06
8 *341:8 *685:A1 0
9 *341:16 *441:24 9.30483e-06
10 *76:10 *341:8 0
11 *191:12 *341:8 0
12 *233:10 *341:8 0
13 *235:8 *341:8 0
14 *235:8 *341:16 0
*RES
1 *626:Y *341:8 47.3528 
2 *341:8 *341:16 48.3374 
3 *341:16 *686:A 43.492 
4 *341:16 *341:27 99.6804 
5 *341:27 *960:A 43.492 
*END

*D_NET *342 0.000436652
*CONN
*I *1052:A I *D BUFx3_ASAP7_75t_R
*I *692:A2 I *D AO21x1_ASAP7_75t_R
*I *631:Y O *D XOR2x2_ASAP7_75t_R
*CAP
1 *1052:A 2.2299e-05
2 *692:A2 0
3 *631:Y 2.26776e-05
4 *342:22 2.44244e-05
5 *342:18 6.86308e-05
6 *342:12 7.63835e-05
7 *342:6 3.25557e-05
8 *342:12 *440:12 2.19685e-06
9 *342:12 *465:17 9.53483e-06
10 *342:18 *692:A1 1.80834e-06
11 *342:18 *397:60 0
12 *342:18 *438:21 0
13 *342:18 *475:6 1.35684e-06
14 *342:18 *475:12 6.7842e-07
15 *342:18 *480:10 0
16 *692:B *1052:A 2.20493e-06
17 *1042:A *342:18 4.24552e-06
18 *15:22 *342:18 2.65548e-05
19 *25:35 *342:12 1.80064e-05
20 *77:10 *1052:A 6.10603e-06
21 *205:18 *342:6 1.62312e-05
22 *205:22 *342:6 5.6694e-05
23 *236:18 *342:12 1.039e-05
24 *237:16 *342:18 1.75596e-06
25 *239:10 *342:18 5.38904e-07
26 *285:10 *342:6 3.13777e-05
*RES
1 *631:Y *342:6 39.1278 
2 *342:6 *342:12 48.4791 
3 *342:12 *342:18 46.2789 
4 *342:18 *342:22 18.2696 
5 *342:22 *692:A2 17.2 
6 *342:22 *1052:A 32.1751 
*END

*D_NET *343 0.00029651
*CONN
*I *697:A2 I *D AO21x1_ASAP7_75t_R
*I *963:A I *D BUFx3_ASAP7_75t_R
*I *637:Y O *D XNOR2x2_ASAP7_75t_R
*CAP
1 *697:A2 1.25113e-05
2 *963:A 0
3 *637:Y 5.00489e-05
4 *343:20 6.57385e-06
5 *343:14 5.08934e-05
6 *343:10 6.00037e-05
7 *343:6 5.32217e-05
8 *697:A2 *438:21 9.47659e-06
9 *343:6 *441:110 0
10 *343:10 *438:21 8.18029e-06
11 *789:D *343:6 0
12 *14:10 *343:14 0
13 *78:10 *697:A2 5.19552e-07
14 *147:161 *343:20 0
15 *238:6 *697:A2 9.30483e-06
16 *243:14 *697:A2 1.68514e-05
17 *243:14 *343:10 1.89249e-05
*RES
1 *637:Y *343:6 38.0582 
2 *343:6 *343:10 23.3948 
3 *343:10 *343:14 34.8492 
4 *343:14 *343:20 38.9053 
5 *343:20 *963:A 17.2 
6 *343:10 *697:A2 46.5629 
*END

*D_NET *344 0.000429819
*CONN
*I *700:B2 I *D AO221x1_ASAP7_75t_R
*I *949:A I *D BUFx2_ASAP7_75t_R
*I *763:SN O *D FAx1_ASAP7_75t_R
*CAP
1 *700:B2 0
2 *949:A 0
3 *763:SN 1.59378e-05
4 *344:31 2.34186e-05
5 *344:21 4.45706e-05
6 *344:12 2.18431e-05
7 *344:8 5.89329e-05
8 *344:12 *379:10 3.00843e-05
9 *344:12 *419:10 1.45158e-05
10 *344:12 *422:10 3.98486e-05
11 *344:12 *422:25 1.02719e-05
12 *344:12 *422:61 0
13 *344:12 *424:42 1.39139e-05
14 *344:12 *424:46 4.89331e-06
15 *344:12 *474:8 9.8079e-06
16 *344:21 *424:42 2.89621e-06
17 *344:21 *474:8 5.33876e-05
18 *344:21 *474:19 2.0954e-05
19 *344:21 *505:8 2.46554e-05
20 *344:31 *700:A2 1.04475e-06
21 *700:A1 *344:31 5.19552e-07
22 *700:C *344:31 5.88289e-06
23 *11:10 *344:31 3.16603e-06
24 *23:27 *344:8 0
25 *23:27 *344:21 1.73211e-06
26 *24:7 *344:8 9.75645e-07
27 *24:24 *344:21 2.87264e-06
28 *60:10 *344:21 2.98961e-07
29 *108:14 *344:21 1.2903e-05
30 *108:14 *344:31 2.03526e-06
31 *245:10 *344:31 8.45637e-06
*RES
1 *763:SN *344:8 40.2831 
2 *344:8 *344:12 47.0478 
3 *344:12 *949:A 17.2 
4 *344:8 *344:21 43.1056 
5 *344:21 *344:31 46.8427 
6 *344:31 *700:B2 17.2 
*END

*D_NET *345 0.000388049
*CONN
*I *704:B1 I *D AO221x2_ASAP7_75t_R
*I *950:A I *D BUFx2_ASAP7_75t_R
*I *568:Y O *D XNOR2x2_ASAP7_75t_R
*CAP
1 *704:B1 0
2 *950:A 4.77521e-06
3 *568:Y 0
4 *345:27 2.68475e-05
5 *345:21 4.37248e-05
6 *345:8 3.43179e-05
7 *345:6 2.95427e-05
8 *345:4 1.68774e-05
9 *345:8 *413:12 1.67815e-06
10 *345:8 *492:12 3.48823e-05
11 *345:27 *485:72 6.31136e-06
12 *345:27 *485:83 4.80116e-05
13 *345:27 *489:14 1.12894e-06
14 *345:27 *504:12 3.27006e-06
15 *577:B *345:8 1.41808e-05
16 *704:B2 *345:27 3.65131e-06
17 *1023:A *345:8 2.35211e-06
18 *64:18 *345:27 4.03283e-06
19 *66:12 *345:27 1.12894e-06
20 *107:10 *345:27 3.9742e-05
21 *156:8 *345:8 3.51509e-05
22 *208:28 *345:27 9.20473e-06
23 *312:13 *345:8 4.42421e-06
24 *334:10 *345:8 2.28136e-05
*RES
1 *568:Y *345:4 17.2 
2 *345:4 *345:6 17.2 
3 *345:6 *345:8 38.2953 
4 *345:8 *950:A 37.0741 
5 *345:4 *345:21 23.0831 
6 *345:21 *345:27 46.9061 
7 *345:27 *704:B1 17.2 
*END

*D_NET *346 0.000965174
*CONN
*I *708:B1 I *D AO221x1_ASAP7_75t_R
*I *1057:A I *D BUFx3_ASAP7_75t_R
*I *572:Y O *D XOR2x2_ASAP7_75t_R
*CAP
1 *708:B1 0
2 *1057:A 0
3 *572:Y 7.65062e-06
4 *346:47 3.38624e-06
5 *346:39 9.75755e-05
6 *346:37 0.000107875
7 *346:26 1.61158e-05
8 *346:18 0.000161823
9 *346:16 0.00015993
10 *346:8 3.55604e-05
11 *346:16 *416:12 1.53116e-06
12 *346:16 *489:23 0
13 *346:16 *492:18 3.17029e-06
14 *346:18 *366:18 0.00025422
15 *346:26 *387:8 0
16 *346:37 *573:A1 5.15195e-07
17 *346:37 *351:14 6.00308e-06
18 *346:37 *416:12 1.98037e-06
19 *346:37 *492:18 1.08499e-05
20 *346:39 *463:30 4.0776e-06
21 *346:39 *470:37 0
22 *346:39 *472:33 0
23 *346:39 *486:71 2.23844e-06
24 *346:39 *492:41 5.24383e-05
25 *346:47 *489:62 2.20179e-07
26 *708:B2 *346:47 1.36155e-06
27 *63:8 *346:37 3.58577e-07
28 *110:18 *346:37 3.79093e-06
29 *157:16 *346:16 2.82007e-05
30 *211:20 *346:39 0
31 *211:36 *346:39 0
32 *256:10 *346:47 4.30078e-06
*RES
1 *572:Y *346:8 37.0741 
2 *346:8 *346:16 35.2524 
3 *346:16 *346:18 62.4503 
4 *346:18 *346:26 41.0319 
5 *346:26 *1057:A 34.4 
6 *346:8 *346:37 27.6186 
7 *346:37 *346:39 35.4958 
8 *346:39 *346:47 36.8776 
9 *346:47 *708:B1 17.2 
*END

*D_NET *347 0.000748761
*CONN
*I *712:B1 I *D AO221x1_ASAP7_75t_R
*I *952:A I *D BUFx2_ASAP7_75t_R
*I *574:Y O *D XOR2x2_ASAP7_75t_R
*CAP
1 *712:B1 2.47479e-06
2 *952:A 0
3 *574:Y 3.16613e-05
4 *347:40 2.86737e-05
5 *347:34 4.47096e-05
6 *347:26 8.0409e-05
7 *347:20 6.37827e-05
8 *347:14 4.42452e-05
9 *347:8 7.40222e-05
10 *347:14 *351:18 1.26641e-06
11 *347:14 *412:16 5.19552e-07
12 *347:14 *412:22 5.24808e-05
13 *347:14 *424:70 1.51078e-05
14 *347:20 *412:16 9.51745e-07
15 *347:20 *414:8 9.99599e-07
16 *347:26 *809:CLK 9.17509e-06
17 *347:26 *455:37 2.41791e-06
18 *347:26 *470:37 0
19 *347:26 *472:33 0
20 *347:34 *809:CLK 8.19928e-06
21 *347:40 *370:6 7.28825e-05
22 *347:40 *484:140 3.20628e-05
23 *347:40 *484:153 6.14271e-06
24 *712:C *712:B1 8.13414e-06
25 *712:C *347:34 5.22376e-07
26 *793:D *347:20 5.60551e-07
27 *11:8 *347:14 1.53057e-06
28 *53:28 *347:26 2.4979e-06
29 *53:36 *347:40 7.63844e-07
30 *110:22 *347:8 2.79145e-05
31 *134:8 *347:14 1.14973e-05
32 *134:16 *347:8 1.32196e-05
33 *147:217 *347:40 8.2174e-07
34 *147:228 *347:34 4.83849e-06
35 *153:16 *347:8 1.52651e-06
36 *211:30 *347:26 4.61909e-05
37 *211:36 *347:26 0
38 *253:18 *347:34 6.33206e-07
39 *253:45 *347:26 6.09159e-06
40 *253:45 *347:34 2.43309e-06
41 *295:22 *347:40 4.73997e-05
*RES
1 *574:Y *347:8 49.9099 
2 *347:8 *347:14 46.3356 
3 *347:14 *347:20 35.9956 
4 *347:20 *347:26 41.6099 
5 *347:26 *347:34 43.0989 
6 *347:34 *347:40 49.4349 
7 *347:40 *952:A 17.2 
8 *347:26 *712:B1 36.5393 
*END

*D_NET *348 0.000765572
*CONN
*I *717:B1 I *D AO221x1_ASAP7_75t_R
*I *1056:A I *D BUFx3_ASAP7_75t_R
*I *579:Y O *D XOR2x2_ASAP7_75t_R
*CAP
1 *717:B1 3.06969e-06
2 *1056:A 4.9092e-05
3 *579:Y 0
4 *348:28 5.13613e-05
5 *348:22 4.83092e-05
6 *348:18 6.26784e-05
7 *348:14 4.17723e-05
8 *348:6 0.000107493
9 *348:4 7.92891e-05
10 *717:B1 *493:6 1.36155e-06
11 *1056:A *494:6 1.14488e-05
12 *348:6 *442:22 4.84756e-06
13 *348:6 *442:35 6.48839e-06
14 *348:14 *425:12 6.42735e-05
15 *348:14 *463:74 1.10964e-06
16 *348:18 *412:51 4.06433e-06
17 *348:18 *489:83 1.29737e-05
18 *348:18 *489:96 2.28839e-06
19 *348:22 *349:20 0
20 *348:22 *412:51 1.88042e-06
21 *348:28 *484:182 6.41585e-07
22 *57:14 *348:6 3.91987e-05
23 *158:64 *348:22 7.58134e-05
24 *162:6 *348:6 6.3811e-05
25 *256:10 *348:18 9.97932e-06
26 *256:25 *348:18 1.51575e-05
27 *258:14 *717:B1 3.89037e-06
28 *295:18 *348:14 1.56535e-06
29 *295:39 *348:14 3.05118e-08
30 *317:5 *348:22 1.68307e-06
*RES
1 *579:Y *348:4 17.2 
2 *348:4 *348:6 33.694 
3 *348:6 *348:14 47.4669 
4 *348:14 *348:18 29.7774 
5 *348:18 *348:22 36.463 
6 *348:22 *348:28 35.6202 
7 *348:28 *1056:A 49.8243 
8 *348:18 *717:B1 36.5021 
*END

*D_NET *349 0.000628491
*CONN
*I *721:B1 I *D AO221x1_ASAP7_75t_R
*I *965:A I *D BUFx3_ASAP7_75t_R
*I *581:Y O *D XNOR2x2_ASAP7_75t_R
*CAP
1 *721:B1 0
2 *965:A 0
3 *581:Y 1.00028e-05
4 *349:35 1.51937e-06
5 *349:24 3.16084e-05
6 *349:20 9.64356e-05
7 *349:14 0.000118225
8 *349:12 6.42494e-05
9 *349:8 2.23741e-05
10 *349:12 *417:36 1.14647e-05
11 *349:12 *431:8 1.04709e-06
12 *349:12 *443:29 1.25639e-05
13 *349:14 *350:20 0
14 *349:14 *467:24 3.9652e-05
15 *349:14 *469:39 4.29225e-05
16 *349:20 *479:44 1.09711e-06
17 *349:20 *479:52 2.55578e-06
18 *349:20 *506:35 3.37911e-06
19 *349:20 *506:45 1.72047e-05
20 *349:24 *358:14 1.89965e-05
21 *349:24 *403:6 1.14488e-05
22 *349:35 *463:74 4.73194e-06
23 *587:A2 *349:12 2.76402e-07
24 *56:30 *349:12 3.36448e-05
25 *56:49 *349:12 2.67982e-05
26 *100:8 *349:35 4.74375e-07
27 *123:12 *349:8 0
28 *147:236 *349:20 1.10955e-06
29 *158:60 *349:12 1.18149e-05
30 *158:64 *349:14 1.57087e-06
31 *158:64 *349:20 5.41076e-06
32 *261:14 *349:14 6.75738e-06
33 *261:14 *349:20 9.98013e-06
34 *274:300 *349:20 8.62248e-06
35 *317:5 *349:20 1.05523e-05
36 *348:22 *349:20 0
*RES
1 *581:Y *349:8 38.1438 
2 *349:8 *349:12 37.0047 
3 *349:12 *349:14 27.0548 
4 *349:14 *349:20 44.0902 
5 *349:20 *349:24 42.3368 
6 *349:24 *965:A 17.2 
7 *349:14 *349:35 35.9956 
8 *349:35 *721:B1 17.2 
*END

*D_NET *350 0.000814142
*CONN
*I *968:A I *D BUFx3_ASAP7_75t_R
*I *724:B1 I *D AO221x1_ASAP7_75t_R
*I *585:Y O *D XNOR2x2_ASAP7_75t_R
*CAP
1 *968:A 0
2 *724:B1 2.65748e-06
3 *585:Y 6.81471e-05
4 *350:41 6.96034e-05
5 *350:39 7.61643e-05
6 *350:33 6.09113e-05
7 *350:31 5.43504e-05
8 *350:20 6.22259e-05
9 *350:14 7.67029e-05
10 *350:6 8.52815e-05
11 *724:B1 *724:B2 7.63254e-07
12 *350:6 *730:A2 3.81627e-06
13 *350:14 *351:45 2.78959e-06
14 *350:14 *427:22 9.44292e-06
15 *350:20 *724:A2 7.47402e-07
16 *350:20 *724:B2 1.18996e-06
17 *350:20 *427:22 2.4389e-06
18 *350:20 *463:78 3.47403e-05
19 *350:20 *463:95 9.48505e-05
20 *350:20 *464:126 1.52617e-05
21 *350:20 *479:36 2.32609e-06
22 *350:20 *479:78 1.00613e-06
23 *350:20 *489:117 3.60604e-07
24 *350:20 *506:35 0
25 *350:33 *360:30 2.6221e-05
26 *350:33 *427:12 2.11521e-05
27 *350:33 *459:29 4.34288e-06
28 *350:33 *463:95 2.48762e-06
29 *350:33 *464:130 8.43401e-07
30 *350:33 *464:145 8.98242e-06
31 *350:33 *467:52 0
32 *350:33 *479:128 5.19498e-06
33 *350:33 *509:10 0
34 *350:39 *759:A 6.7842e-07
35 *350:39 *467:58 1.02506e-06
36 *724:C *724:B1 5.41446e-06
37 *51:12 *350:33 1.02359e-06
38 *84:18 *350:20 0
39 *102:10 *350:33 0
40 *159:25 *350:6 0
41 *261:14 *350:20 0
42 *265:14 *350:33 0
43 *267:24 *350:33 8.45637e-06
44 *268:12 *350:6 2.54159e-06
45 *282:14 *350:33 0
46 *349:14 *350:20 0
*RES
1 *585:Y *350:6 45.5457 
2 *350:6 *350:14 42.3852 
3 *350:14 *350:20 46.1243 
4 *350:20 *724:B1 36.5393 
5 *350:6 *350:31 17.2 
6 *350:31 *350:33 47.3059 
7 *350:33 *350:39 38.1438 
8 *350:39 *350:41 56.3166 
9 *350:41 *968:A 34.4 
*END

*D_NET *351 0.000884728
*CONN
*I *729:B1 I *D AO221x2_ASAP7_75t_R
*I *1074:A I *D BUFx3_ASAP7_75t_R
*I *594:Y O *D OR3x1_ASAP7_75t_R
*CAP
1 *729:B1 4.95337e-06
2 *1074:A 3.15963e-06
3 *594:Y 3.42086e-05
4 *351:45 3.45802e-05
5 *351:43 4.77992e-05
6 *351:26 3.04035e-05
7 *351:24 1.22532e-05
8 *351:18 4.04241e-05
9 *351:16 3.72424e-05
10 *351:14 1.66699e-05
11 *351:6 5.08785e-05
12 *729:B1 *427:8 1.07377e-06
13 *1074:A *592:A1 2.03526e-06
14 *351:14 *424:70 0
15 *351:18 *424:70 4.60934e-06
16 *351:24 *493:22 9.52454e-06
17 *351:43 *547:B 5.41446e-06
18 *351:43 *592:A1 3.3921e-06
19 *351:45 *427:22 5.38703e-06
20 *351:45 *427:26 1.49407e-08
21 *351:45 *468:23 1.692e-05
22 *351:45 *468:31 0.000100053
23 *573:A2 *351:6 5.18012e-05
24 *573:B *351:14 4.41457e-06
25 *594:B *351:6 3.42414e-06
26 *49:23 *351:45 0
27 *50:8 *351:45 5.97901e-06
28 *56:30 *351:18 3.69698e-06
29 *56:30 *351:26 2.28253e-05
30 *56:49 *351:26 2.13763e-05
31 *56:49 *351:43 1.4294e-05
32 *59:16 *351:18 1.92222e-06
33 *62:8 *351:14 5.41446e-06
34 *62:25 *351:18 6.48268e-05
35 *63:8 *351:14 0
36 *86:10 *351:45 3.37784e-05
37 *102:10 *351:45 6.76305e-06
38 *110:18 *351:14 1.77416e-05
39 *123:12 *351:24 3.3921e-06
40 *134:8 *351:18 8.04271e-05
41 *211:76 *351:18 7.72241e-06
42 *211:76 *351:26 4.42016e-05
43 *211:76 *351:43 1.26811e-05
44 *211:92 *729:B1 6.7842e-07
45 *211:92 *351:45 6.31056e-06
46 *346:37 *351:14 6.00308e-06
47 *347:14 *351:18 1.26641e-06
48 *350:14 *351:45 2.78959e-06
*RES
1 *594:Y *351:6 33.7796 
2 *351:6 *351:14 45.4083 
3 *351:14 *351:16 17.2 
4 *351:16 *351:18 40.548 
5 *351:18 *351:24 37.0741 
6 *351:24 *351:26 15.2055 
7 *351:26 *1074:A 36.0045 
8 *351:26 *351:43 45.3516 
9 *351:43 *351:45 39.4216 
10 *351:45 *729:B1 37.0741 
*END

*D_NET *352 0.000230682
*CONN
*I *957:A I *D BUFx2_ASAP7_75t_R
*I *734:B1 I *D AO221x2_ASAP7_75t_R
*I *601:Y O *D XNOR2x2_ASAP7_75t_R
*CAP
1 *957:A 0
2 *734:B1 3.38498e-06
3 *601:Y 9.60643e-06
4 *352:33 4.00265e-05
5 *352:18 9.388e-06
6 *352:10 6.39072e-05
7 *352:8 2.74842e-05
8 *352:10 *361:14 0
9 *352:10 *439:18 0
10 *352:10 *462:125 3.16931e-06
11 *352:10 *506:131 1.34025e-05
12 *352:18 *439:18 0
13 *352:33 *361:14 0
14 *352:33 *439:18 0
15 *352:33 *460:26 2.27303e-05
16 *352:33 *479:138 0
17 *601:B *352:8 1.39802e-05
18 *87:10 *352:33 1.19738e-05
19 *103:8 *352:33 0
20 *175:6 *352:8 1.95129e-06
21 *270:14 *352:10 9.67723e-06
22 *283:8 *352:33 0
*RES
1 *601:Y *352:8 38.1438 
2 *352:8 *352:10 16.3318 
3 *352:10 *352:18 39.89 
4 *352:18 *734:B1 37.0741 
5 *352:10 *352:33 47.8057 
6 *352:33 *957:A 17.2 
*END

*D_NET *353 0.000437288
*CONN
*P resp_rdy I
*I *940:A I *D BUFx2_ASAP7_75t_R
*CAP
1 resp_rdy 2.59885e-05
2 *940:A 6.92931e-06
3 *353:13 0.000125303
4 *353:11 0.000144363
5 *940:A *482:12 7.97634e-06
6 *353:11 resp_val 2.19865e-06
7 *353:13 *364:8 0
8 *353:13 *377:12 2.35094e-05
9 *353:13 *396:8 2.48376e-05
10 *106:8 *353:13 2.04429e-05
11 *106:16 *940:A 9.08513e-06
12 *305:15 *353:13 0
13 *322:13 *353:13 4.27305e-06
14 *335:11 *353:11 2.87785e-05
15 *335:13 *353:13 0
16 *336:13 *353:13 1.36028e-05
*RES
1 resp_rdy *353:11 43.3633 
2 *353:11 *353:13 110.85 
3 *353:13 *940:A 40.2831 
*END

*D_NET *354 0.0001142
*CONN
*I *567:B1 I *D AO221x1_ASAP7_75t_R
*I *958:A I *D BUFx2_ASAP7_75t_R
*I *559:Y O *D NOR2x1_ASAP7_75t_R
*CAP
1 *567:B1 1.08173e-05
2 *958:A 1.11899e-05
3 *559:Y 0
4 *354:6 2.20072e-05
5 *567:B1 *461:10 2.7665e-05
6 *958:A *461:6 1.76928e-06
7 *958:A *461:10 1.6528e-05
8 *559:B *567:B1 1.31716e-05
9 *144:10 *567:B1 8.33296e-06
10 *144:29 *567:B1 2.71839e-06
*RES
1 *559:Y *354:6 34.4 
2 *354:6 *958:A 43.7754 
3 *354:6 *567:B1 46.6763 
*END

*D_NET *357 0.000105559
*CONN
*I *716:A2 I *D AO21x1_ASAP7_75t_R
*I *919:Y O *D BUFx2_ASAP7_75t_R
*CAP
1 *716:A2 2.90912e-06
2 *919:Y 3.54211e-05
3 *357:8 3.83302e-05
4 *716:A2 *464:103 0
5 *716:A2 *483:74 8.3257e-06
6 *357:8 *371:12 2.05732e-05
*RES
1 *919:Y *357:8 49.9099 
2 *357:8 *716:A2 37.2158 
*END

*D_NET *358 0.000143892
*CONN
*I *720:A2 I *D AO21x1_ASAP7_75t_R
*I *920:Y O *D BUFx2_ASAP7_75t_R
*CAP
1 *720:A2 0
2 *920:Y 2.34699e-05
3 *358:14 3.50125e-05
4 *358:10 5.84824e-05
5 *358:14 *457:33 4.2449e-06
6 *358:14 *464:103 3.16328e-06
7 *358:14 *464:114 5.22376e-07
8 *349:24 *358:14 1.89965e-05
*RES
1 *920:Y *358:10 46.9844 
2 *358:10 *358:14 43.9412 
3 *358:14 *720:A2 17.2 
*END

*D_NET *359 0.000143383
*CONN
*I *723:A2 I *D AO21x1_ASAP7_75t_R
*I *921:Y O *D BUFx2_ASAP7_75t_R
*CAP
1 *723:A2 1.1334e-05
2 *921:Y 1.82038e-05
3 *359:8 2.95377e-05
4 *723:A2 *464:118 2.31575e-05
5 *359:8 *457:10 1.35859e-05
6 *359:8 *457:16 7.84037e-07
7 *359:8 *464:114 2.19685e-06
8 *359:8 *464:124 0
9 *1019:A *723:A2 4.45834e-05
*RES
1 *921:Y *359:8 49.6055 
2 *359:8 *723:A2 47.7706 
*END

*D_NET *360 0.000743437
*CONN
*I *729:A2 I *D AO221x2_ASAP7_75t_R
*I *922:Y O *D BUFx2_ASAP7_75t_R
*CAP
1 *729:A2 0
2 *922:Y 0
3 *360:38 1.12844e-05
4 *360:30 2.87563e-05
5 *360:22 3.8922e-05
6 *360:16 5.73855e-05
7 *360:12 4.06912e-05
8 *360:6 8.51158e-05
9 *360:4 8.03599e-05
10 *360:6 *373:6 7.31327e-06
11 *360:6 *484:231 1.62312e-05
12 *360:12 *484:231 1.34467e-07
13 *360:16 *374:12 9.77363e-06
14 *360:16 *464:126 7.4187e-05
15 *360:16 *509:14 0.000153081
16 *360:22 *760:C1 3.89753e-05
17 *360:30 *427:12 2.6613e-05
18 *360:38 *464:145 2.72756e-05
19 *49:23 *360:22 1.27834e-05
20 *86:10 *360:22 0
21 *265:14 *360:38 3.32579e-06
22 *267:24 *360:38 2.03526e-06
23 *282:14 *360:22 2.97289e-06
24 *350:33 *360:30 2.6221e-05
*RES
1 *922:Y *360:4 17.2 
2 *360:4 *360:6 40.1119 
3 *360:6 *360:12 36.9342 
4 *360:12 *360:16 46.2027 
5 *360:16 *360:22 33.2182 
6 *360:22 *360:30 49.2937 
7 *360:30 *360:38 45.0151 
8 *360:38 *729:A2 17.2 
*END

*D_NET *361 0.000111235
*CONN
*I *734:A2 I *D AO221x2_ASAP7_75t_R
*I *923:Y O *D BUFx2_ASAP7_75t_R
*CAP
1 *734:A2 0
2 *923:Y 3.73918e-06
3 *361:14 4.76545e-05
4 *361:8 5.13937e-05
5 *361:14 *734:A1 1.95129e-06
6 *361:14 *395:8 0
7 *361:14 *460:14 0
8 *361:14 *461:189 7.31606e-07
9 *361:14 *463:141 0
10 *361:14 *463:149 4.31787e-06
11 *734:C *361:14 1.44639e-06
12 *272:12 *361:14 0
13 *352:10 *361:14 0
14 *352:33 *361:14 0
*RES
1 *923:Y *361:8 36.0045 
2 *361:8 *361:14 49.7786 
3 *361:14 *734:A2 17.2 
*END

*D_NET *362 0.000103577
*CONN
*I *665:A2 I *D AO21x1_ASAP7_75t_R
*I *924:Y O *D BUFx2_ASAP7_75t_R
*CAP
1 *665:A2 1.00451e-05
2 *924:Y 1.38921e-05
3 *362:8 2.39372e-05
4 *665:A2 *461:85 3.05118e-08
5 *665:B *665:A2 2.71839e-06
6 *217:6 *665:A2 1.82541e-05
7 *273:10 *665:A2 0
8 *275:6 *665:A2 1.01102e-06
9 *275:6 *362:8 2.19694e-05
10 *320:13 *362:8 1.17191e-05
*RES
1 *924:Y *362:8 49.9099 
2 *362:8 *665:A2 42.0293 
*END

*D_NET *363 8.44653e-05
*CONN
*I *669:B I *D NOR2x1_ASAP7_75t_R
*I *925:Y O *D BUFx2_ASAP7_75t_R
*CAP
1 *669:B 0
2 *925:Y 7.5827e-06
3 *363:12 3.46499e-05
4 *363:8 4.22326e-05
5 *304:11 *363:8 0
*RES
1 *925:Y *363:8 38.9053 
2 *363:8 *363:12 33.7796 
3 *363:12 *669:B 17.2 
*END

*D_NET *364 0.000199552
*CONN
*I *679:A2 I *D AO21x1_ASAP7_75t_R
*I *926:Y O *D BUFx2_ASAP7_75t_R
*CAP
1 *679:A2 6.03649e-06
2 *926:Y 0
3 *364:8 7.73722e-05
4 *364:6 7.13358e-05
5 *679:A2 *679:A1 6.7842e-07
6 *364:8 *679:A1 2.35266e-06
7 *364:8 *377:12 0
8 *364:8 *461:31 0
9 *364:8 *463:12 2.93171e-05
10 *143:10 *364:8 7.53559e-06
11 *145:10 *679:A2 4.92332e-06
12 *213:8 *364:8 0
13 *353:13 *364:8 0
*RES
1 *926:Y *364:6 34.4 
2 *364:6 *364:8 57.4429 
3 *364:8 *679:A2 38.1438 
*END

*D_NET *365 0.000118559
*CONN
*I *682:A I *D INVx1_ASAP7_75t_R
*I *927:Y O *D BUFx2_ASAP7_75t_R
*CAP
1 *682:A 0
2 *927:Y 3.09539e-05
3 *365:14 1.18379e-05
4 *365:6 4.27918e-05
5 *365:6 *368:6 0
6 *365:14 *368:6 4.73041e-06
7 *563:A *365:14 5.41446e-06
8 *927:A *365:6 1.21211e-05
9 *231:10 *365:14 7.84037e-07
10 *326:13 *365:6 9.92515e-06
*RES
1 *927:Y *365:6 33.7796 
2 *365:6 *365:14 43.0989 
3 *365:14 *682:A 17.2 
*END

*D_NET *366 0.000628965
*CONN
*I *753:A2 I *D OA222x2_ASAP7_75t_R
*I *928:Y O *D BUFx2_ASAP7_75t_R
*CAP
1 *753:A2 3.58702e-06
2 *928:Y 1.98214e-05
3 *366:26 1.40511e-05
4 *366:18 0.000139915
5 *366:16 0.000140564
6 *366:10 3.09353e-05
7 *753:A2 *484:281 5.482e-06
8 *753:A2 *484:289 2.27522e-06
9 *366:10 *389:10 1.16855e-06
10 *366:26 *484:289 3.59323e-06
11 *928:A *366:10 2.72334e-07
12 *107:14 *366:26 2.88759e-06
13 *274:50 *366:26 9.71774e-06
14 *292:28 *366:26 4.74168e-07
15 *324:11 *366:16 0
16 *346:18 *366:18 0.00025422
*RES
1 *928:Y *366:10 42.874 
2 *366:10 *366:16 32.8418 
3 *366:16 *366:18 67.9204 
4 *366:18 *366:26 33.4127 
5 *366:26 *753:A2 37.609 
*END

*D_NET *367 0.000117047
*CONN
*I *690:A2 I *D AO21x1_ASAP7_75t_R
*I *929:Y O *D BUFx2_ASAP7_75t_R
*CAP
1 *690:A2 0
2 *929:Y 2.3231e-05
3 *367:6 2.3231e-05
4 *367:6 *401:6 2.94369e-05
5 *690:B *367:6 3.05302e-06
6 *238:6 *367:6 1.55843e-05
7 *325:13 *367:6 2.25106e-05
*RES
1 *929:Y *367:6 40.1975 
2 *367:6 *690:A2 17.2 
*END

*D_NET *368 0.000185391
*CONN
*I *695:A2 I *D AO21x1_ASAP7_75t_R
*I *930:Y O *D BUFx2_ASAP7_75t_R
*CAP
1 *695:A2 1.97208e-05
2 *930:Y 4.92692e-05
3 *368:12 2.86356e-05
4 *368:6 5.8184e-05
5 *563:A *368:6 4.57767e-06
6 *147:131 *695:A2 2.88806e-06
7 *147:142 *695:A2 4.49469e-06
8 *147:142 *368:12 0
9 *212:10 *368:12 0
10 *242:6 *695:A2 6.78445e-06
11 *326:13 *368:6 6.10603e-06
12 *365:6 *368:6 0
13 *365:14 *368:6 4.73041e-06
*RES
1 *930:Y *368:6 41.2671 
2 *368:6 *368:12 40.0317 
3 *368:12 *695:A2 31.6403 
*END

*D_NET *369 0.000302433
*CONN
*I *754:A2 I *D OA222x2_ASAP7_75t_R
*I *931:Y O *D BUFx2_ASAP7_75t_R
*CAP
1 *754:A2 0
2 *931:Y 0
3 *369:14 9.78633e-06
4 *369:6 0.00013218
5 *369:4 0.000122393
6 *369:6 *714:A 2.96818e-06
7 *369:6 *484:138 1.2768e-05
8 *369:14 *754:A1 7.63254e-07
9 *369:14 *454:12 1.56713e-06
10 *369:14 *454:35 0
11 *369:14 *484:138 1.65304e-05
12 *253:18 *369:14 3.47694e-06
*RES
1 *931:Y *369:4 17.2 
2 *369:4 *369:6 77.5496 
3 *369:6 *369:14 43.2973 
4 *369:14 *754:A2 17.2 
*END

*D_NET *370 0.00016769
*CONN
*I *755:A2 I *D OA222x2_ASAP7_75t_R
*I *932:Y O *D BUFx2_ASAP7_75t_R
*CAP
1 *755:A2 0
2 *932:Y 2.52041e-05
3 *370:6 2.52041e-05
4 *370:6 *755:A1 3.90258e-06
5 *370:6 *442:8 1.85506e-06
6 *53:36 *370:6 3.56596e-05
7 *295:22 *370:6 2.98247e-06
8 *347:40 *370:6 7.28825e-05
*RES
1 *932:Y *370:6 40.1975 
2 *370:6 *755:A2 17.2 
*END

*D_NET *371 0.000129036
*CONN
*I *756:A2 I *D OA222x2_ASAP7_75t_R
*I *933:Y O *D BUFx2_ASAP7_75t_R
*CAP
1 *756:A2 0
2 *933:Y 4.58112e-06
3 *371:12 2.39152e-05
4 *371:8 2.84963e-05
5 *371:8 *484:182 4.3937e-06
6 *371:12 *716:A1 3.3139e-06
7 *371:12 *756:A1 1.44167e-06
8 *371:12 *456:27 1.54461e-06
9 *716:B *371:12 5.22376e-07
10 *258:8 *371:12 4.02536e-05
11 *357:8 *371:12 2.05732e-05
*RES
1 *933:Y *371:8 39.4685 
2 *371:8 *371:12 39.1278 
3 *371:12 *756:A2 17.2 
*END

*D_NET *372 0.000184651
*CONN
*I *757:A2 I *D OA222x2_ASAP7_75t_R
*I *934:Y O *D BUFx2_ASAP7_75t_R
*CAP
1 *757:A2 0
2 *934:Y 6.18148e-05
3 *372:14 1.07455e-05
4 *372:6 7.25604e-05
5 *372:6 *795:CLK 9.38002e-06
6 *372:14 *757:A1 5.62196e-06
7 *372:14 *457:33 1.81703e-05
8 *372:14 *464:114 0
9 *372:14 *484:225 5.06565e-06
10 *84:22 *372:6 0
11 *261:6 *372:14 1.26378e-06
12 *274:306 *372:14 2.90209e-08
*RES
1 *934:Y *372:6 46.6154 
2 *372:6 *372:14 44.2536 
3 *372:14 *757:A2 17.2 
*END

*D_NET *373 9.75285e-05
*CONN
*I *758:A2 I *D OA222x2_ASAP7_75t_R
*I *935:Y O *D BUFx2_ASAP7_75t_R
*CAP
1 *758:A2 0
2 *935:Y 1.3629e-05
3 *373:6 1.3629e-05
4 *373:6 *484:231 1.52004e-05
5 *373:6 *484:244 3.44576e-06
6 *1020:A *373:6 4.4311e-05
7 *360:6 *373:6 7.31327e-06
*RES
1 *935:Y *373:6 36.9885 
2 *373:6 *758:A2 17.2 
*END

*D_NET *374 0.000749645
*CONN
*I *760:A2 I *D OA222x2_ASAP7_75t_R
*I *936:Y O *D BUFx2_ASAP7_75t_R
*CAP
1 *760:A2 0
2 *936:Y 8.09164e-06
3 *374:20 4.92108e-06
4 *374:12 0.00012414
5 *374:10 0.000119219
6 *374:8 8.09164e-06
7 *374:12 *464:126 3.02352e-06
8 *374:12 *484:252 8.01571e-05
9 *374:12 *509:14 0.000113181
10 *374:12 *509:20 0.000231595
11 *374:20 *760:A1 6.7842e-07
12 *274:273 *374:20 5.19552e-07
13 *297:32 *374:12 3.55332e-06
14 *318:13 *374:12 4.2701e-05
15 *330:5 *374:12 0
16 *331:5 *374:12 0
17 *360:16 *374:12 9.77363e-06
*RES
1 *936:Y *374:8 39.5624 
2 *374:8 *374:10 17.2 
3 *374:10 *374:12 72.5067 
4 *374:12 *374:20 37.1963 
5 *374:20 *760:A2 17.2 
*END

*D_NET *375 0.000276047
*CONN
*I *762:A2 I *D OA222x2_ASAP7_75t_R
*I *937:Y O *D BUFx2_ASAP7_75t_R
*CAP
1 *762:A2 6.06771e-06
2 *937:Y 7.04746e-06
3 *375:10 5.53255e-05
4 *375:8 5.63053e-05
5 *762:A2 *460:32 1.25483e-05
6 *762:A2 *460:40 5.62196e-06
7 *375:10 *395:8 0
8 *375:10 *460:32 7.04658e-05
9 *375:10 *466:26 3.79846e-05
10 *375:10 *479:138 7.54709e-06
11 *762:B1 *762:A2 1.44167e-06
12 *333:21 *375:10 1.56919e-05
*RES
1 *937:Y *375:8 37.0741 
2 *375:8 *375:10 52.3744 
3 *375:10 *762:A2 39.7482 
*END

*D_NET *376 7.24879e-05
*CONN
*I *519:A I *D INVx1_ASAP7_75t_R
*I *938:Y O *D BUFx2_ASAP7_75t_R
*CAP
1 *519:A 0
2 *938:Y 1.84599e-05
3 *376:10 1.84599e-05
4 *376:10 *396:8 3.55681e-05
*RES
1 *938:Y *376:10 48.9006 
2 *376:10 *519:A 34.4 
*END

*D_NET *377 0.000203521
*CONN
*I *557:A I *D NOR2x1_ASAP7_75t_R
*I *565:A I *D INVx1_ASAP7_75t_R
*I *567:C I *D AO221x1_ASAP7_75t_R
*I *939:Y O *D BUFx2_ASAP7_75t_R
*CAP
1 *557:A 0
2 *565:A 1.36872e-05
3 *567:C 0
4 *939:Y 0
5 *377:20 5.36641e-06
6 *377:12 5.18347e-05
7 *377:6 3.27811e-05
8 *565:A *484:16 5.19475e-06
9 *377:12 *461:18 3.6736e-06
10 *377:12 *461:31 1.9489e-05
11 *377:20 *378:10 2.88172e-06
12 *1:8 *377:20 5.22376e-07
13 *106:16 *377:12 4.65189e-06
14 *106:16 *377:20 8.19887e-06
15 *106:25 *377:20 1.12901e-05
16 *144:29 *377:12 3.16603e-06
17 *144:29 *377:20 1.52651e-06
18 *150:6 *565:A 2.79851e-06
19 *230:10 *377:20 1.29488e-05
20 *353:13 *377:12 2.35094e-05
21 *364:8 *377:12 0
*RES
1 *939:Y *377:6 34.4 
2 *377:6 *377:12 41.2178 
3 *377:12 *377:20 42.2276 
4 *377:20 *567:C 17.2 
5 *377:12 *565:A 23.0831 
6 *377:12 *557:A 17.2 
*END

*D_NET *378 0.00041326
*CONN
*I *564:A1 I *D AOI21x1_ASAP7_75t_R
*I *567:B2 I *D AO221x1_ASAP7_75t_R
*I *940:Y O *D BUFx2_ASAP7_75t_R
*CAP
1 *564:A1 0
2 *567:B2 0
3 *940:Y 5.95889e-06
4 *378:45 1.3707e-06
5 *378:39 2.07874e-05
6 *378:31 3.00469e-05
7 *378:23 3.24235e-05
8 *378:10 3.44788e-05
9 *378:8 1.86443e-05
10 *378:8 *482:12 3.48165e-06
11 *378:10 *461:10 1.25006e-05
12 *378:23 *558:B 0
13 *378:23 *484:12 7.53871e-06
14 *378:23 *484:305 7.54506e-06
15 *378:31 *483:8 2.71839e-06
16 *378:39 *404:22 1.07377e-06
17 *378:39 *462:30 5.85387e-06
18 *378:39 *484:305 2.16061e-06
19 *780:D *378:23 3.51645e-05
20 *1045:A *378:31 1.29877e-05
21 *13:10 *378:39 1.01678e-06
22 *106:8 *378:10 1.84167e-05
23 *106:16 *378:10 1.00648e-06
24 *106:25 *378:31 7.73984e-06
25 *140:33 *378:39 1.30795e-06
26 *144:10 *378:10 5.52807e-07
27 *146:8 *378:39 4.35248e-05
28 *208:16 *378:45 8.36476e-06
29 *230:10 *378:10 1.84268e-06
30 *230:10 *378:23 7.56346e-05
31 *230:10 *378:31 7.73984e-06
32 *246:8 *378:45 8.49543e-06
33 *377:20 *378:10 2.88172e-06
*RES
1 *940:Y *378:8 37.0741 
2 *378:8 *378:10 13.516 
3 *378:10 *567:B2 34.4 
4 *378:10 *378:23 45.7798 
5 *378:23 *378:31 44.1686 
6 *378:31 *378:39 49.5168 
7 *378:39 *378:45 37.2158 
8 *378:45 *564:A1 17.2 
*END

*D_NET *379 0.000434831
*CONN
*P req_rdy O
*I *941:Y O *D BUFx2_ASAP7_75t_R
*CAP
1 req_rdy 1.64564e-05
2 *941:Y 8.40199e-06
3 *379:10 0.000138529
4 *379:8 0.000130475
5 *379:8 *464:33 2.0895e-06
6 *379:10 *387:8 0
7 *379:10 *424:46 3.68044e-05
8 *984:A *379:8 2.03526e-06
9 *127:10 *379:10 0
10 *310:11 req_rdy 2.71432e-05
11 *310:13 *379:10 4.28112e-05
12 *313:11 req_rdy 0
13 *344:12 *379:10 3.00843e-05
*RES
1 *941:Y *379:8 38.1438 
2 *379:8 *379:10 117.42 
3 *379:10 req_rdy 39.6674 
*END

*D_NET *380 0.000665482
*CONN
*P resp_msg[0] O
*I *942:Y O *D BUFx2_ASAP7_75t_R
*CAP
1 resp_msg[0] 1.55283e-05
2 *942:Y 1.29653e-05
3 *380:10 0.000131644
4 *380:8 0.000129081
5 *942:A *380:8 1.90474e-05
6 *278:8 *380:10 0.000327977
7 *302:9 resp_msg[0] 2.71041e-05
8 *302:15 *380:10 2.13555e-06
*RES
1 *942:Y *380:8 43.492 
2 *380:8 *380:10 132.062 
3 *380:10 resp_msg[0] 39.8839 
*END

*D_NET *381 0.000123764
*CONN
*P resp_msg[10] O
*I *943:Y O *D BUFx2_ASAP7_75t_R
*CAP
1 resp_msg[10] 1.59761e-05
2 *943:Y 3.45507e-05
3 *381:6 5.05268e-05
4 resp_msg[10] resp_msg[12] 0
5 *381:6 *383:6 0
6 *303:11 resp_msg[10] 2.1712e-05
7 *303:13 *381:6 0
8 *320:9 resp_msg[10] 9.98595e-07
*RES
1 *943:Y *381:6 40.1975 
2 *381:6 resp_msg[10] 45.2704 
*END

*D_NET *382 0.000306141
*CONN
*P resp_msg[11] O
*I *944:Y O *D BUFx2_ASAP7_75t_R
*CAP
1 resp_msg[11] 3.50603e-05
2 *944:Y 6.53622e-05
3 *382:12 3.75129e-05
4 *382:6 6.78147e-05
5 *656:A *382:12 0
6 *209:6 *382:6 0
7 *306:9 resp_msg[11] 5.54694e-05
8 *307:7 resp_msg[11] 2.53632e-06
9 *321:7 resp_msg[11] 4.23848e-05
*RES
1 *944:Y *382:6 46.6154 
2 *382:6 *382:12 35.6202 
3 *382:12 resp_msg[11] 28.191 
*END

*D_NET *383 0.000218894
*CONN
*P resp_msg[12] O
*I *945:Y O *D BUFx2_ASAP7_75t_R
*CAP
1 resp_msg[12] 1.21748e-05
2 *945:Y 0
3 *383:12 2.54714e-05
4 *383:6 7.5997e-05
5 *383:4 6.27004e-05
6 *383:6 *943:A 1.90474e-05
7 resp_msg[10] resp_msg[12] 0
8 *304:5 resp_msg[12] 2.35027e-05
9 *381:6 *383:6 0
*RES
1 *945:Y *383:4 17.2 
2 *383:4 *383:6 33.694 
3 *383:6 *383:12 45.9449 
4 *383:12 resp_msg[12] 8.71163 
*END

*D_NET *384 8.76459e-05
*CONN
*P resp_msg[13] O
*I *946:Y O *D BUFx2_ASAP7_75t_R
*CAP
1 resp_msg[13] 1.77061e-05
2 *946:Y 0
3 *384:14 4.38229e-05
4 *384:6 2.61168e-05
*RES
1 *946:Y *384:6 34.4 
2 *384:6 *384:14 49.1106 
3 *384:14 resp_msg[13] 9.42073 
*END

*D_NET *385 0.00026109
*CONN
*P resp_msg[14] O
*I *947:Y O *D BUFx2_ASAP7_75t_R
*CAP
1 resp_msg[14] 2.49139e-05
2 *947:Y 7.71849e-05
3 *385:12 2.70211e-05
4 *385:6 7.92921e-05
5 resp_msg[14] resp_msg[15] 5.26779e-05
*RES
1 *947:Y *385:6 49.8243 
2 *385:6 *385:12 35.4325 
3 *385:12 resp_msg[14] 19.1007 
*END

*D_NET *386 0.000149001
*CONN
*P resp_msg[15] O
*I *948:Y O *D BUFx2_ASAP7_75t_R
*CAP
1 resp_msg[15] 3.88244e-05
2 *948:Y 9.3369e-06
3 *386:8 4.81613e-05
4 resp_msg[14] resp_msg[15] 5.26779e-05
5 *325:9 resp_msg[15] 0
*RES
1 *948:Y *386:8 40.8764 
2 *386:8 resp_msg[15] 41.4952 
*END

*D_NET *387 0.000305327
*CONN
*P resp_msg[1] O
*I *949:Y O *D BUFx2_ASAP7_75t_R
*CAP
1 resp_msg[1] 1.73455e-05
2 *949:Y 0
3 *387:8 0.000140486
4 *387:6 0.000123141
5 *310:11 resp_msg[1] 2.43547e-05
6 *324:11 resp_msg[1] 0
7 *346:26 *387:8 0
8 *379:10 *387:8 0
*RES
1 *949:Y *387:6 34.4 
2 *387:6 *387:8 103.341 
3 *387:8 resp_msg[1] 39.9921 
*END

*D_NET *388 0.000266221
*CONN
*P resp_msg[2] O
*I *950:Y O *D BUFx2_ASAP7_75t_R
*CAP
1 resp_msg[2] 1.51616e-05
2 *950:Y 0
3 *388:8 0.000119558
4 *388:6 0.000104397
5 *118:8 *388:8 0
6 *311:11 resp_msg[2] 0
7 *311:13 *388:8 0
8 *312:5 resp_msg[2] 2.71041e-05
*RES
1 *950:Y *388:6 34.4 
2 *388:6 *388:8 86.446 
3 *388:8 resp_msg[2] 39.7757 
*END

*D_NET *389 0.000183398
*CONN
*P resp_msg[3] O
*I *951:Y O *D BUFx2_ASAP7_75t_R
*CAP
1 resp_msg[3] 2.12794e-05
2 *951:Y 7.02593e-06
3 *389:10 7.66481e-05
4 *389:8 6.23946e-05
5 *928:A *389:10 0
6 *312:5 resp_msg[3] 1.48818e-05
7 *324:11 resp_msg[3] 0
8 *366:10 *389:10 1.16855e-06
*RES
1 *951:Y *389:8 37.0741 
2 *389:8 *389:10 44.2085 
3 *389:10 resp_msg[3] 42.0483 
*END

*D_NET *390 0.000475541
*CONN
*P resp_msg[4] O
*I *952:Y O *D BUFx2_ASAP7_75t_R
*CAP
1 resp_msg[4] 1.86172e-05
2 *952:Y 1.07211e-05
3 *390:18 2.64725e-05
4 *390:12 8.89374e-05
5 *390:10 8.10821e-05
6 *390:8 1.07211e-05
7 *390:8 *464:88 0
8 *390:8 *483:59 5.13809e-06
9 *390:12 *484:163 1.46972e-05
10 *390:12 *484:173 1.04249e-05
11 *295:28 *390:8 1.1775e-05
12 *314:5 resp_msg[4] 6.21883e-05
13 *328:9 resp_msg[4] 6.31997e-05
14 *328:9 *390:12 1.24017e-05
15 *328:9 *390:18 1.95773e-06
16 *328:13 *390:12 5.72063e-05
17 *329:13 *390:12 0
*RES
1 *952:Y *390:8 44.0677 
2 *390:8 *390:10 17.2 
3 *390:10 *390:12 41.3397 
4 *390:12 *390:18 39.4685 
5 *390:18 resp_msg[4] 23.3212 
*END

*D_NET *391 0.000228567
*CONN
*P resp_msg[5] O
*I *953:Y O *D BUFx2_ASAP7_75t_R
*CAP
1 resp_msg[5] 1.56631e-05
2 *953:Y 3.61614e-05
3 *391:10 5.18244e-05
4 *391:10 *494:6 8.22301e-06
5 *315:5 resp_msg[5] 5.89456e-05
6 *317:5 resp_msg[5] 5.77491e-05
*RES
1 *953:Y *391:10 47.9212 
2 *391:10 resp_msg[5] 38.5733 
*END

*D_NET *392 0.000376471
*CONN
*P resp_msg[6] O
*I *954:Y O *D BUFx2_ASAP7_75t_R
*CAP
1 resp_msg[6] 1.56631e-05
2 *954:Y 2.14061e-05
3 *392:18 2.30127e-05
4 *392:12 3.64919e-05
5 *392:8 5.05484e-05
6 *318:9 resp_msg[6] 5.77491e-05
7 *318:9 *392:12 1.35196e-05
8 *318:9 *392:18 1.56475e-06
9 *318:13 *392:12 9.15735e-05
10 *330:5 resp_msg[6] 5.89456e-05
11 *330:5 *392:12 5.99672e-06
*RES
1 *954:Y *392:8 49.6993 
2 *392:8 *392:12 34.515 
3 *392:12 *392:18 39.4685 
4 *392:18 resp_msg[6] 21.3733 
*END

*D_NET *393 0.000289414
*CONN
*P resp_msg[7] O
*I *955:Y O *D BUFx2_ASAP7_75t_R
*CAP
1 resp_msg[7] 2.13584e-05
2 *955:Y 0
3 *393:8 0.000144707
4 *393:6 0.000123349
*RES
1 *955:Y *393:6 34.4 
2 *393:6 *393:8 103.341 
3 *393:8 resp_msg[7] 39.4488 
*END

*D_NET *394 0.000249986
*CONN
*P resp_msg[8] O
*I *956:Y O *D BUFx2_ASAP7_75t_R
*CAP
1 resp_msg[8] 3.04722e-05
2 *956:Y 6.24732e-05
3 *394:12 4.02273e-05
4 *394:6 7.22283e-05
5 *394:6 *400:6 1.76928e-06
6 *936:A *394:6 4.9926e-06
7 *318:9 resp_msg[8] 0
8 *331:5 resp_msg[8] 1.50067e-05
9 *332:11 resp_msg[8] 2.28166e-05
*RES
1 *956:Y *394:6 44.4761 
2 *394:6 *394:12 40.501 
3 *394:12 resp_msg[8] 18.776 
*END

*D_NET *395 0.00057802
*CONN
*P resp_msg[9] O
*I *957:Y O *D BUFx2_ASAP7_75t_R
*CAP
1 resp_msg[9] 1.25566e-05
2 *957:Y 0
3 *395:8 0.000166078
4 *395:6 0.000153521
5 *319:11 resp_msg[9] 1.30215e-05
6 *319:13 *395:8 0.000218426
7 *333:11 resp_msg[9] 1.44167e-05
8 *361:14 *395:8 0
9 *375:10 *395:8 0
*RES
1 *957:Y *395:6 34.4 
2 *395:6 *395:8 170.921 
3 *395:8 resp_msg[9] 39.2324 
*END

*D_NET *396 0.000428117
*CONN
*P resp_val O
*I *958:Y O *D BUFx2_ASAP7_75t_R
*CAP
1 resp_val 1.18369e-05
2 *958:Y 0
3 *396:8 9.54699e-05
4 *396:6 8.3633e-05
5 *396:8 *461:10 6.33206e-07
6 *106:8 *396:8 8.73816e-05
7 *335:11 resp_val 2.37103e-05
8 *335:13 *396:8 3.6697e-05
9 *336:5 resp_val 2.61509e-05
10 *353:11 resp_val 2.19865e-06
11 *353:13 *396:8 2.48376e-05
12 *376:10 *396:8 3.55681e-05
*RES
1 *958:Y *396:6 34.4 
2 *396:6 *396:8 94.8935 
3 *396:8 resp_val 40.1003 
*END

*D_NET *397 0.00086308
*CONN
*I *692:A1 I *D AO21x1_ASAP7_75t_R
*I *697:A1 I *D AO21x1_ASAP7_75t_R
*I *668:B I *D NAND2x2_ASAP7_75t_R
*I *686:B I *D NAND2x2_ASAP7_75t_R
*I *959:Y O *D BUFx6f_ASAP7_75t_R
*CAP
1 *692:A1 7.85843e-06
2 *697:A1 0
3 *668:B 4.90212e-06
4 *686:B 0
5 *959:Y 0
6 *397:60 3.31005e-05
7 *397:54 7.53618e-05
8 *397:48 4.96501e-05
9 *397:31 6.20687e-05
10 *397:29 5.71666e-05
11 *397:27 6.70369e-05
12 *397:25 7.31315e-05
13 *397:10 3.69364e-05
14 *397:4 5.82782e-05
15 *397:10 *441:20 1.67893e-05
16 *397:10 *481:8 0
17 *397:27 *748:C1 1.52651e-06
18 *397:27 *475:12 7.98105e-06
19 *397:27 *482:179 1.35684e-06
20 *397:31 *441:10 2.58754e-05
21 *397:31 *482:121 1.67815e-06
22 *397:31 *486:43 0
23 *397:48 *441:10 0
24 *397:48 *475:12 5.09299e-06
25 *397:54 *487:139 3.67756e-05
26 *769:A *397:31 1.49407e-08
27 *959:A *397:10 3.13426e-06
28 *19:10 *397:31 0.000114659
29 *25:35 *397:31 0
30 *25:35 *397:48 1.65959e-06
31 *26:10 *397:31 1.12055e-06
32 *27:22 *397:31 1.12894e-06
33 *28:33 *397:31 3.38681e-06
34 *40:22 *397:31 8.30021e-08
35 *42:6 *668:B 3.3921e-06
36 *76:10 *397:10 0
37 *129:8 *397:31 0
38 *137:12 *397:31 0
39 *138:10 *397:31 1.2903e-05
40 *147:182 *397:54 7.21208e-07
41 *211:166 *397:25 0
42 *212:12 *397:54 8.87929e-06
43 *212:20 *397:27 1.79737e-06
44 *231:12 *397:54 3.46261e-06
45 *231:20 *397:54 5.44411e-05
46 *233:10 *397:10 0
47 *235:8 *397:10 0
48 *237:8 *397:60 0
49 *237:16 *397:60 3.14587e-06
50 *239:10 *397:60 2.27479e-06
51 *240:10 *397:60 0
52 *274:214 *397:27 2.20493e-06
53 *288:10 *397:10 0
54 *288:10 *397:25 1.85719e-05
55 *288:27 *397:27 1.04475e-06
56 *339:24 *668:B 6.7842e-07
57 *342:18 *692:A1 1.80834e-06
58 *342:18 *397:60 0
*RES
1 *959:Y *397:4 17.2 
2 *397:4 *397:10 43.4704 
3 *397:10 *686:B 34.4 
4 *397:4 *397:25 47.5476 
5 *397:25 *397:27 22.9975 
6 *397:27 *397:29 17.2 
7 *397:29 *397:31 56.3166 
8 *397:31 *668:B 37.0741 
9 *397:27 *397:48 43.3061 
10 *397:48 *397:54 32.5748 
11 *397:54 *397:60 37.612 
12 *397:60 *697:A1 17.2 
13 *397:54 *692:A1 39.2134 
*END

*D_NET *398 0.000233203
*CONN
*I *946:A I *D BUFx2_ASAP7_75t_R
*I *960:Y O *D BUFx3_ASAP7_75t_R
*CAP
1 *946:A 1.29478e-05
2 *960:Y 4.43964e-05
3 *398:10 7.10677e-05
4 *398:8 5.81199e-05
5 *398:6 4.43964e-05
6 *960:A *398:6 2.27479e-06
*RES
1 *960:Y *398:6 36.9885 
2 *398:6 *398:8 17.2 
3 *398:8 *398:10 46.7428 
4 *398:10 *946:A 42.4224 
*END

*D_NET *399 5.471e-05
*CONN
*I *943:A I *D BUFx2_ASAP7_75t_R
*I *961:Y O *D BUFx3_ASAP7_75t_R
*CAP
1 *943:A 1.78313e-05
2 *961:Y 1.78313e-05
3 *383:6 *943:A 1.90474e-05
*RES
1 *961:Y *943:A 46.701 
*END

*D_NET *400 9.08863e-05
*CONN
*I *956:A I *D BUFx2_ASAP7_75t_R
*I *962:Y O *D BUFx3_ASAP7_75t_R
*CAP
1 *956:A 0
2 *962:Y 4.45585e-05
3 *400:6 4.45585e-05
4 *394:6 *400:6 1.76928e-06
*RES
1 *962:Y *400:6 44.4761 
2 *400:6 *956:A 17.2 
*END

*D_NET *401 0.000167949
*CONN
*I *948:A I *D BUFx2_ASAP7_75t_R
*I *963:Y O *D BUFx3_ASAP7_75t_R
*CAP
1 *948:A 0
2 *963:Y 4.83323e-05
3 *401:12 8.1558e-06
4 *401:6 5.64881e-05
5 *325:13 *401:6 2.55359e-05
6 *367:6 *401:6 2.94369e-05
*RES
1 *963:Y *401:6 44.4761 
2 *401:6 *401:12 39.4685 
3 *401:12 *948:A 17.2 
*END

*D_NET *402 0.000223832
*CONN
*I *614:B I *D XNOR2x2_ASAP7_75t_R
*I *964:Y O *D BUFx3_ASAP7_75t_R
*CAP
1 *614:B 5.48077e-06
2 *964:Y 0
3 *402:8 6.04811e-05
4 *402:6 5.50003e-05
5 *614:B *436:14 5.09299e-06
6 *402:8 *436:55 3.44497e-06
7 *402:8 *445:8 1.94049e-05
8 *402:8 *487:58 3.9208e-06
9 *553:A *402:8 3.82984e-06
10 *35:10 *402:8 2.98814e-08
11 *36:10 *402:8 1.01951e-05
12 *38:41 *402:8 5.69513e-05
*RES
1 *964:Y *402:6 34.4 
2 *402:6 *402:8 48.9954 
3 *402:8 *614:B 38.1438 
*END

*D_NET *403 9.84668e-05
*CONN
*I *954:A I *D BUFx2_ASAP7_75t_R
*I *965:Y O *D BUFx3_ASAP7_75t_R
*CAP
1 *954:A 0
2 *965:Y 4.3509e-05
3 *403:6 4.3509e-05
4 *349:24 *403:6 1.14488e-05
*RES
1 *965:Y *403:6 46.6154 
2 *403:6 *954:A 17.2 
*END

*D_NET *404 0.000317141
*CONN
*I *681:A I *D OR2x4_ASAP7_75t_R
*I *655:A1 I *D AOI21x1_ASAP7_75t_R
*I *555:A1 I *D AO21x1_ASAP7_75t_R
*I *561:B I *D AND3x1_ASAP7_75t_R
*I *966:Y O *D BUFx6f_ASAP7_75t_R
*CAP
1 *681:A 1.05896e-05
2 *655:A1 0
3 *555:A1 1.71666e-05
4 *561:B 0
5 *966:Y 1.85203e-06
6 *404:37 3.00886e-05
7 *404:29 1.2922e-05
8 *404:22 2.47433e-05
9 *404:16 4.6212e-05
10 *404:10 3.20583e-05
11 *404:8 1.85203e-06
12 *555:A1 *555:B 5.22376e-07
13 *404:8 *417:18 3.24832e-06
14 *404:8 *506:87 3.13615e-06
15 *404:16 *417:14 2.98814e-08
16 *404:16 *417:18 1.95873e-06
17 *404:16 *483:108 0
18 *404:16 *506:87 4.73194e-06
19 *404:22 *449:44 6.76552e-06
20 *404:22 *449:50 7.63078e-06
21 *404:22 *462:30 5.31192e-06
22 *404:22 *483:93 1.98924e-06
23 *404:37 *555:B 5.62196e-06
24 *404:37 *417:14 2.58274e-06
25 *404:37 *483:97 7.58545e-06
26 *655:B *404:16 1.31643e-05
27 *681:B *681:A 1.56713e-06
28 *681:B *404:16 2.6665e-05
29 *13:10 *404:16 1.3446e-05
30 *13:10 *404:22 1.71035e-05
31 *140:24 *555:A1 5.19475e-06
32 *142:10 *404:37 2.11853e-06
33 *246:8 *404:37 8.20824e-06
34 *378:39 *404:22 1.07377e-06
*RES
1 *966:Y *404:8 37.2158 
2 *404:8 *404:10 17.2 
3 *404:10 *404:16 37.389 
4 *404:16 *404:22 37.9238 
5 *404:22 *561:B 17.2 
6 *404:16 *404:29 17.2 
7 *404:29 *404:37 44.1686 
8 *404:37 *555:A1 24.1527 
9 *404:29 *655:A1 17.2 
10 *404:10 *681:A 23.0831 
*END

*D_NET *405 8.3292e-06
*CONN
*I *944:A I *D BUFx2_ASAP7_75t_R
*I *967:Y O *D BUFx3_ASAP7_75t_R
*CAP
1 *944:A 4.1646e-06
2 *967:Y 4.1646e-06
*RES
1 *967:Y *944:A 37.0741 
*END

*D_NET *406 1.12626e-05
*CONN
*I *955:A I *D BUFx2_ASAP7_75t_R
*I *968:Y O *D BUFx3_ASAP7_75t_R
*CAP
1 *955:A 0
2 *968:Y 5.6313e-06
3 *406:8 5.6313e-06
*RES
1 *968:Y *406:8 38.9053 
2 *406:8 *955:A 34.4 
*END

*D_NET *407 0.000732328
*CONN
*I *613:A1 I *D AO21x2_ASAP7_75t_R
*I *588:D I *D AND4x1_ASAP7_75t_R
*I *969:Y O *D BUFx3_ASAP7_75t_R
*CAP
1 *613:A1 6.0746e-06
2 *588:D 6.5398e-06
3 *969:Y 0
4 *407:32 3.96902e-05
5 *407:24 6.21694e-05
6 *407:22 3.21823e-05
7 *407:18 9.23794e-06
8 *407:16 3.32488e-05
9 *407:14 3.32488e-05
10 *407:12 2.27056e-05
11 *407:6 2.27056e-05
12 *588:D *417:53 4.05232e-06
13 *407:12 *473:31 5.21824e-05
14 *407:12 *473:44 9.68449e-06
15 *407:16 *463:18 6.78803e-05
16 *407:16 *463:106 9.95439e-06
17 *407:16 *463:125 1.05397e-05
18 *407:16 *473:44 1.94229e-07
19 *407:16 *488:8 4.88189e-07
20 *407:24 *439:57 4.82595e-06
21 *407:24 *488:24 6.44748e-05
22 *407:32 *416:45 6.43673e-07
23 *407:32 *417:30 7.70845e-05
24 *407:32 *417:53 6.11402e-07
25 *407:32 *506:85 4.10767e-07
26 *116:28 *407:16 4.16547e-06
27 *119:8 *407:24 2.93178e-05
28 *119:16 *407:32 3.06466e-05
29 *119:31 *613:A1 2.0895e-06
30 *119:31 *407:16 9.51841e-07
31 *119:31 *407:24 8.2174e-07
32 *131:49 *407:24 8.00328e-06
33 *164:10 *407:32 1.70708e-06
34 *247:14 *407:16 5.10363e-06
35 *247:14 *407:24 1.96234e-05
36 *248:8 *407:16 6.33206e-07
37 *249:12 *407:16 2.08039e-05
38 *277:14 *613:A1 5.77141e-06
39 *277:14 *407:16 1.70708e-06
40 *277:14 *407:22 2.03526e-06
41 *277:41 *407:12 3.17441e-06
42 *277:41 *407:16 3.49456e-06
43 *292:58 *407:12 2.14479e-05
*RES
1 *969:Y *407:6 34.4 
2 *407:6 *407:12 41.2178 
3 *407:12 *407:14 17.2 
4 *407:14 *407:16 36.6058 
5 *407:16 *407:18 17.2 
6 *407:18 *407:22 18.8045 
7 *407:22 *407:24 34.2593 
8 *407:24 *407:32 49.1255 
9 *407:32 *588:D 37.609 
10 *407:18 *613:A1 22.0134 
*END

*D_NET *408 0.000133418
*CONN
*I *626:A1 I *D AO211x2_ASAP7_75t_R
*I *970:Y O *D BUFx3_ASAP7_75t_R
*CAP
1 *626:A1 0
2 *970:Y 2.02354e-05
3 *408:14 3.06916e-05
4 *408:8 5.0927e-05
5 *408:14 *439:10 1.9914e-05
6 *43:10 *408:14 9.64911e-06
7 *45:10 *408:14 1.35839e-06
8 *299:12 *408:14 6.42451e-07
*RES
1 *970:Y *408:8 42.4224 
2 *408:8 *408:14 38.4549 
3 *408:14 *626:A1 17.2 
*END

*D_NET *409 0.000371291
*CONN
*I *655:A2 I *D AOI21x1_ASAP7_75t_R
*I *702:A2 I *D OA21x2_ASAP7_75t_R
*I *971:Y O *D BUFx3_ASAP7_75t_R
*CAP
1 *655:A2 7.04256e-06
2 *702:A2 0
3 *971:Y 7.23049e-06
4 *409:27 2.4339e-05
5 *409:16 3.12889e-05
6 *409:12 5.76227e-05
7 *409:6 5.08608e-05
8 *409:12 *417:18 6.46529e-05
9 *409:12 *484:309 2.19629e-06
10 *409:16 *702:B 2.01215e-05
11 *409:16 *473:52 2.35847e-05
12 *409:16 *488:20 5.22376e-07
13 *409:27 *417:18 4.63284e-06
14 *409:27 *484:309 3.38681e-06
15 *556:B *655:A2 5.41446e-06
16 *13:10 *409:27 1.01637e-07
17 *39:30 *409:16 2.6409e-06
18 *119:43 *409:6 1.08167e-05
19 *119:43 *409:12 5.41446e-06
20 *131:24 *409:16 2.71839e-06
21 *142:10 *655:A2 2.90209e-08
22 *142:10 *409:27 8.14898e-06
23 *211:6 *409:16 3.67067e-06
24 *211:14 *409:16 1.27802e-05
25 *211:122 *409:16 1.20516e-05
26 *277:56 *409:12 1.00223e-05
*RES
1 *971:Y *409:6 20.9438 
2 *409:6 *409:12 41.3311 
3 *409:12 *409:16 41.2671 
4 *409:16 *702:A2 17.2 
5 *409:6 *409:27 46.7897 
6 *409:27 *655:A2 20.9438 
*END

*D_NET *410 0.000994217
*CONN
*I *678:C I *D OA211x2_ASAP7_75t_R
*I *683:A2 I *D OA211x2_ASAP7_75t_R
*I *732:A2 I *D OA21x2_ASAP7_75t_R
*I *727:A2 I *D OA21x2_ASAP7_75t_R
*I *972:Y O *D BUFx3_ASAP7_75t_R
*CAP
1 *678:C 0
2 *683:A2 1.10612e-05
3 *732:A2 3.26356e-07
4 *727:A2 1.54221e-05
5 *972:Y 4.10347e-06
6 *410:81 5.30983e-06
7 *410:40 3.59972e-05
8 *410:32 2.09015e-05
9 *410:30 8.05353e-05
10 *410:28 8.05353e-05
11 *410:26 7.78943e-05
12 *410:24 6.68331e-05
13 *410:22 7.4934e-06
14 *410:18 2.51048e-05
15 *410:10 6.70529e-05
16 *410:8 4.82352e-05
17 *683:A2 *437:35 3.05118e-08
18 *683:A2 *451:51 1.70136e-05
19 *683:A2 *482:141 0
20 *727:A2 *727:B 7.57325e-06
21 *732:A2 *439:18 1.30673e-07
22 *732:A2 *462:125 4.97876e-07
23 *410:8 *482:208 6.44983e-06
24 *410:10 *461:140 2.68255e-06
25 *410:10 *462:37 5.41851e-06
26 *410:10 *462:52 3.12807e-06
27 *410:10 *487:8 1.48011e-05
28 *410:18 *677:A 6.44983e-06
29 *410:18 *462:52 2.86248e-05
30 *410:26 *627:A2 2.10835e-05
31 *410:26 *435:16 4.63251e-06
32 *410:26 *437:35 3.38681e-06
33 *410:26 *445:35 5.25035e-05
34 *410:26 *462:52 1.82177e-06
35 *410:26 *462:56 1.13054e-05
36 *410:26 *462:68 0
37 *410:30 *466:16 3.74363e-05
38 *410:30 *466:46 2.44397e-05
39 *410:30 *482:149 3.20407e-06
40 *410:40 *432:10 6.33206e-07
41 *410:40 *439:18 7.12313e-06
42 *410:40 *462:125 3.12189e-06
43 *410:81 *435:8 3.28023e-07
44 *410:81 *462:56 2.20028e-06
45 *607:B *727:A2 5.37221e-06
46 *622:B2 *410:26 0
47 *22:6 *410:8 1.66706e-05
48 *47:12 *727:A2 3.32579e-06
49 *48:10 *727:A2 4.53819e-06
50 *179:16 *727:A2 3.65131e-06
51 *180:6 *410:40 9.42272e-06
52 *180:14 *410:30 1.84515e-06
53 *187:20 *410:26 1.12894e-06
54 *187:28 *683:A2 1.70708e-06
55 *187:28 *410:26 1.62225e-05
56 *189:12 *410:26 1.34329e-05
57 *190:19 *410:26 0
58 *197:10 *410:26 0
59 *225:14 *410:18 1.02842e-06
60 *225:14 *410:22 6.02341e-06
61 *225:14 *410:81 4.26607e-06
62 *225:22 *410:26 0
63 *227:8 *410:26 2.74606e-07
64 *266:8 *727:A2 5.22376e-07
65 *274:18 *410:10 2.33064e-05
66 *274:20 *410:10 9.17492e-06
67 *274:246 *410:30 0
68 *274:250 *727:A2 1.85254e-05
69 *287:18 *410:10 3.80253e-05
70 *338:8 *410:26 8.90818e-07
71 *338:14 *410:81 2.03526e-06
*RES
1 *972:Y *410:8 39.2134 
2 *410:8 *410:10 38.2953 
3 *410:10 *410:18 49.3504 
4 *410:18 *410:22 18.8045 
5 *410:22 *410:24 17.2 
6 *410:24 *410:26 59.6017 
7 *410:26 *410:28 17.2 
8 *410:28 *410:30 33.5479 
9 *410:30 *410:32 17.2 
10 *410:32 *410:40 49.0298 
11 *410:40 *727:A2 48.8723 
12 *410:32 *732:A2 35.057 
13 *410:26 *683:A2 42.1798 
14 *410:22 *410:81 40.4248 
15 *410:81 *678:C 17.2 
*END

*D_NET *411 0.000367805
*CONN
*I *1002:A I *D BUFx3_ASAP7_75t_R
*I *1062:Y O *D BUFx3_ASAP7_75t_R
*CAP
1 *1002:A 6.22717e-06
2 *1062:Y 1.07588e-06
3 *411:16 2.31061e-05
4 *411:12 6.49193e-05
5 *411:8 4.91163e-05
6 *1002:A *440:8 1.34465e-05
7 *411:8 *438:21 5.31312e-06
8 *411:8 *461:110 2.21053e-06
9 *411:12 *491:68 2.7397e-05
10 *411:12 *491:91 8.98153e-06
11 *411:16 *440:12 1.09842e-06
12 *750:C2 *411:16 4.74885e-06
13 *15:22 *411:16 1.28603e-05
14 *148:14 *411:12 2.83687e-05
15 *236:10 *411:16 7.43522e-06
16 *240:10 *411:16 7.14014e-05
17 *289:8 *411:16 3.50839e-05
18 *289:14 *411:16 5.01491e-06
*RES
1 *1062:Y *411:8 36.1834 
2 *411:8 *411:12 35.1644 
3 *411:12 *411:16 43.1995 
4 *411:16 *1002:A 38.1438 
*END

*D_NET *412 0.00076878
*CONN
*I *987:A I *D BUFx3_ASAP7_75t_R
*I *525:A1 I *D OA21x2_ASAP7_75t_R
*I *1061:Y O *D BUFx3_ASAP7_75t_R
*CAP
1 *987:A 8.53769e-06
2 *525:A1 1.10037e-05
3 *1061:Y 1.13403e-05
4 *412:51 6.30779e-05
5 *412:45 8.28158e-05
6 *412:30 3.79913e-05
7 *412:22 5.72031e-05
8 *412:16 7.38435e-05
9 *412:8 2.66928e-05
10 *525:A1 *416:26 2.03526e-06
11 *525:A1 *424:78 1.21934e-06
12 *525:A1 *427:37 1.3988e-05
13 *987:A *493:6 1.20469e-05
14 *412:8 *414:8 1.73917e-06
15 *412:8 *471:29 8.58704e-06
16 *412:16 *414:8 0
17 *412:30 *486:59 1.02137e-06
18 *412:45 *586:A 1.92522e-05
19 *412:45 *443:10 1.30801e-05
20 *412:45 *443:25 2.82106e-05
21 *412:51 *425:12 3.22888e-06
22 *412:51 *469:16 3.14406e-06
23 *412:51 *506:14 5.23485e-05
24 *793:D *412:45 1.32305e-06
25 *53:24 *412:45 7.90414e-06
26 *56:10 *412:45 1.93482e-06
27 *57:14 *412:45 2.94789e-06
28 *59:10 *412:8 0
29 *59:10 *412:16 0
30 *59:10 *412:30 0
31 *59:10 *412:45 0
32 *111:6 *525:A1 1.23489e-06
33 *115:18 *412:30 5.7435e-05
34 *158:64 *412:51 1.52008e-05
35 *211:24 *412:30 1.49407e-08
36 *211:30 *412:30 1.70323e-05
37 *211:64 *412:30 1.63179e-05
38 *256:25 *412:51 1.38201e-06
39 *258:14 *987:A 3.18415e-05
40 *274:308 *412:51 1.58074e-05
41 *294:20 *412:8 6.09949e-06
42 *347:14 *412:16 5.19552e-07
43 *347:14 *412:22 5.24808e-05
44 *347:20 *412:16 9.51745e-07
45 *348:18 *412:51 4.06433e-06
46 *348:22 *412:51 1.88042e-06
*RES
1 *1061:Y *412:8 43.4107 
2 *412:8 *412:16 43.269 
3 *412:16 *412:22 47.7706 
4 *412:22 *412:30 48.0454 
5 *412:30 *525:A1 40.8657 
6 *412:16 *412:45 43.1995 
7 *412:45 *412:51 43.2994 
8 *412:51 *987:A 43.492 
*END

*D_NET *413 0.000104776
*CONN
*I *568:B I *D XNOR2x2_ASAP7_75t_R
*I *975:Y O *D BUFx3_ASAP7_75t_R
*CAP
1 *568:B 0
2 *975:Y 0
3 *413:12 2.70689e-05
4 *413:6 2.70689e-05
5 *413:12 *423:8 0
6 *413:12 *484:54 1.19086e-05
7 *413:12 *484:60 0
8 *413:12 *492:16 2.34246e-06
9 *413:12 *505:26 0
10 *413:12 *505:34 7.18922e-06
11 *577:B *413:12 1.63901e-05
12 *156:8 *413:12 1.11296e-05
13 *345:8 *413:12 1.67815e-06
*RES
1 *975:Y *413:6 34.4 
2 *413:6 *413:12 41.2744 
3 *413:12 *568:B 17.2 
*END

*D_NET *414 0.00050996
*CONN
*I *1061:A I *D BUFx3_ASAP7_75t_R
*I *523:A I *D OR3x1_ASAP7_75t_R
*I *1060:Y O *D BUFx3_ASAP7_75t_R
*CAP
1 *1061:A 2.66127e-06
2 *523:A 4.11574e-06
3 *1060:Y 0
4 *414:18 2.14775e-05
5 *414:10 8.95706e-05
6 *414:8 0.000102855
7 *414:6 2.79849e-05
8 *414:8 *471:29 2.05883e-06
9 *414:8 *485:112 1.73917e-06
10 *414:8 *485:123 2.66154e-06
11 *414:10 *464:56 0
12 *414:10 *471:8 2.43534e-06
13 *414:10 *471:29 2.06563e-05
14 *414:10 *472:29 0
15 *414:10 *485:112 7.22263e-06
16 *414:18 *420:14 1.46827e-05
17 *414:18 *484:72 6.2241e-05
18 *775:B *1061:A 2.03526e-06
19 *793:D *414:8 1.90807e-05
20 *10:10 *414:8 1.29418e-05
21 *53:24 *414:8 2.08535e-06
22 *58:25 *1061:A 1.95129e-06
23 *58:25 *414:8 6.72009e-06
24 *58:25 *414:10 4.83862e-06
25 *67:20 *414:18 1.01803e-05
26 *67:28 *414:10 3.05118e-08
27 *79:18 *414:10 1.41754e-05
28 *105:8 *414:10 0
29 *157:22 *414:10 4.03568e-05
30 *291:10 *414:10 2.44197e-05
31 *301:8 *414:10 1.70866e-06
32 *301:38 *414:10 4.3339e-06
33 *347:20 *414:8 9.99599e-07
34 *412:8 *414:8 1.73917e-06
35 *412:16 *414:8 0
*RES
1 *1060:Y *414:6 34.4 
2 *414:6 *414:8 24.7793 
3 *414:8 *414:10 64.2948 
4 *414:10 *414:18 46.9037 
5 *414:18 *523:A 36.5393 
6 *414:8 *1061:A 36.0045 
*END

*D_NET *415 0.000596979
*CONN
*I *621:B I *D OR2x4_ASAP7_75t_R
*I *617:B I *D AND3x1_ASAP7_75t_R
*I *977:Y O *D BUFx3_ASAP7_75t_R
*CAP
1 *621:B 0
2 *617:B 8.33917e-06
3 *977:Y 0
4 *415:16 2.9572e-05
5 *415:12 2.94202e-05
6 *415:8 7.56774e-05
7 *415:6 6.749e-05
8 *617:B *437:35 7.35354e-06
9 *415:8 *433:52 1.15945e-06
10 *415:8 *435:28 5.06311e-07
11 *415:8 *461:56 1.95276e-06
12 *415:8 *461:132 3.79933e-06
13 *415:8 *461:151 1.20147e-05
14 *415:12 *461:155 4.92332e-06
15 *415:16 *437:39 3.05118e-08
16 *415:16 *437:59 3.05118e-08
17 *737:A2 *415:8 2.08284e-06
18 *44:8 *617:B 2.03526e-06
19 *44:12 *415:8 3.79923e-06
20 *44:12 *415:16 7.99798e-05
21 *44:35 *415:8 8.19503e-06
22 *45:10 *617:B 6.7842e-07
23 *177:10 *415:8 2.33787e-05
24 *181:16 *415:16 1.15587e-05
25 *207:44 *415:8 5.49212e-07
26 *207:55 *415:8 0.000103174
27 *210:10 *415:8 1.6226e-05
28 *210:58 *415:8 7.34069e-05
29 *230:39 *415:8 0
30 *230:39 *415:16 2.96459e-05
*RES
1 *977:Y *415:6 34.4 
2 *415:6 *415:8 70.9589 
3 *415:8 *415:12 20.9438 
4 *415:12 *415:16 46.4846 
5 *415:16 *617:B 39.7482 
6 *415:12 *621:B 17.2 
*END

*D_NET *416 0.000863478
*CONN
*I *585:A I *D XNOR2x2_ASAP7_75t_R
*I *591:C I *D OR3x1_ASAP7_75t_R
*I *588:C I *D AND4x1_ASAP7_75t_R
*I *978:Y O *D BUFx3_ASAP7_75t_R
*CAP
1 *585:A 0
2 *591:C 0
3 *588:C 0
4 *978:Y 3.60945e-06
5 *416:62 2.62186e-05
6 *416:49 4.24876e-05
7 *416:45 4.57598e-05
8 *416:30 5.19401e-05
9 *416:26 3.74004e-05
10 *416:18 5.7481e-05
11 *416:16 4.9627e-05
12 *416:12 3.30487e-05
13 *416:8 2.95611e-05
14 *416:12 *570:A2 1.14585e-05
15 *416:12 *573:A1 1.05734e-05
16 *416:12 *422:33 6.61153e-05
17 *416:16 *492:24 1.32074e-05
18 *416:18 *424:78 1.2583e-05
19 *416:18 *428:47 1.41311e-05
20 *416:18 *430:27 2.8376e-06
21 *416:26 *427:37 6.49184e-07
22 *416:26 *428:47 1.82798e-05
23 *416:26 *428:66 1.10137e-05
24 *416:26 *430:27 1.55973e-05
25 *416:45 *417:53 3.42994e-06
26 *416:49 *426:10 1.95724e-05
27 *416:49 *426:25 1.85329e-05
28 *416:49 *501:27 1.52167e-06
29 *416:62 *425:49 2.53282e-06
30 *416:62 *443:60 2.68933e-07
31 *416:62 *462:112 5.07985e-07
32 *416:62 *467:10 3.62817e-05
33 *416:62 *501:27 5.49212e-07
34 *525:A1 *416:26 2.03526e-06
35 *978:A *416:12 1.21934e-06
36 *22:26 *416:12 1.90579e-05
37 *47:12 *416:62 0
38 *59:16 *416:18 2.83874e-07
39 *62:25 *416:18 0
40 *63:8 *416:12 1.57037e-06
41 *110:18 *416:18 2.47265e-05
42 *111:6 *416:26 9.75645e-06
43 *152:6 *416:16 2.40119e-05
44 *153:8 *416:18 1.67519e-05
45 *153:16 *416:18 5.74232e-07
46 *157:49 *416:49 5.85595e-05
47 *157:49 *416:62 7.65079e-06
48 *157:89 *416:62 6.36172e-06
49 *158:18 *416:45 1.49407e-08
50 *158:22 *416:45 3.96944e-06
51 *159:25 *416:62 2.03526e-06
52 *162:6 *416:30 3.44943e-05
53 *162:12 *416:45 1.6287e-06
54 *165:22 *416:26 7.84338e-06
55 *166:20 *416:62 0
56 *266:14 *416:62 0
57 *346:16 *416:12 1.53116e-06
58 *346:37 *416:12 1.98037e-06
59 *407:32 *416:45 6.43673e-07
*RES
1 *978:Y *416:8 36.0045 
2 *416:8 *416:12 45.3583 
3 *416:12 *416:16 24.1527 
4 *416:16 *416:18 34.3531 
5 *416:18 *416:26 47.2111 
6 *416:26 *416:30 26.292 
7 *416:30 *588:C 17.2 
8 *416:30 *416:45 43.6478 
9 *416:45 *416:49 37.5678 
10 *416:49 *591:C 34.4 
11 *416:49 *416:62 38.5153 
12 *416:62 *585:A 17.2 
*END

*D_NET *417 0.000828729
*CONN
*I *588:B I *D AND4x1_ASAP7_75t_R
*I *581:A I *D XNOR2x2_ASAP7_75t_R
*I *979:Y O *D BUFx3_ASAP7_75t_R
*CAP
1 *588:B 0
2 *581:A 3.23047e-06
3 *979:Y 7.33181e-06
4 *417:53 1.1141e-05
5 *417:36 5.06464e-05
6 *417:30 0.000119936
7 *417:26 8.94536e-05
8 *417:18 8.19351e-05
9 *417:16 5.38606e-05
10 *417:14 2.79976e-05
11 *417:8 3.53294e-05
12 *417:14 *483:93 1.89392e-05
13 *417:14 *483:108 2.20032e-05
14 *417:14 *506:91 0
15 *417:14 *506:106 0
16 *417:18 *463:133 3.29471e-05
17 *417:18 *486:13 0
18 *417:18 *486:57 0
19 *417:18 *506:87 2.68933e-07
20 *417:26 *539:A1 0
21 *417:26 *539:A2 7.41569e-06
22 *417:30 *425:22 1.83164e-07
23 *417:30 *462:98 3.88563e-07
24 *417:30 *506:85 2.49344e-08
25 *417:36 *425:22 1.79289e-06
26 *417:36 *428:47 3.05118e-08
27 *417:36 *428:55 1.99876e-05
28 *417:36 *431:8 6.47832e-06
29 *417:36 *443:29 3.30589e-06
30 *417:36 *506:14 0
31 *588:D *417:53 4.05232e-06
32 *655:B *417:14 2.22736e-06
33 *681:B *417:14 1.5963e-06
34 *1065:A *417:18 4.9137e-07
35 *13:10 *417:18 1.2927e-05
36 *56:30 *417:36 7.9884e-06
37 *114:10 *417:26 3.65518e-06
38 *119:16 *417:30 2.5993e-06
39 *122:14 *417:26 5.75943e-07
40 *123:12 *581:A 2.03526e-06
41 *126:8 *417:18 5.33881e-07
42 *131:12 *417:18 2.08535e-06
43 *139:83 *417:18 1.83502e-06
44 *140:24 *417:14 1.40879e-06
45 *157:45 *417:30 6.18868e-06
46 *158:16 *417:30 1.86294e-06
47 *162:6 *417:53 8.48643e-06
48 *164:10 *417:53 7.89181e-07
49 *168:10 *417:53 0
50 *208:16 *417:14 2.43869e-07
51 *210:41 *417:18 2.83874e-07
52 *246:8 *417:14 8.6072e-07
53 *277:56 *417:18 1.67815e-06
54 *284:18 *417:30 0
55 *349:12 *417:36 1.14647e-05
56 *404:8 *417:18 3.24832e-06
57 *404:16 *417:14 2.98814e-08
58 *404:16 *417:18 1.95873e-06
59 *404:37 *417:14 2.58274e-06
60 *407:32 *417:30 7.70845e-05
61 *407:32 *417:53 6.11402e-07
62 *409:12 *417:18 6.46529e-05
63 *409:27 *417:18 4.63284e-06
64 *416:45 *417:53 3.42994e-06
*RES
1 *979:Y *417:8 37.0741 
2 *417:8 *417:14 35.7879 
3 *417:14 *417:16 17.2 
4 *417:16 *417:18 49.4647 
5 *417:18 *417:26 46.8515 
6 *417:26 *417:30 39.0602 
7 *417:30 *417:36 38.4559 
8 *417:36 *581:A 36.0045 
9 *417:30 *417:53 41.9637 
10 *417:53 *588:B 17.2 
*END

*D_NET *418 0.000465326
*CONN
*I *589:A I *D OR3x1_ASAP7_75t_R
*I *592:A1 I *D OA211x2_ASAP7_75t_R
*I *586:A I *D AND3x1_ASAP7_75t_R
*I *980:Y O *D BUFx3_ASAP7_75t_R
*CAP
1 *589:A 2.45675e-06
2 *592:A1 2.37753e-05
3 *586:A 6.09615e-06
4 *980:Y 3.60105e-06
5 *418:37 6.37285e-05
6 *418:31 7.63714e-05
7 *418:16 1.91393e-05
8 *418:10 5.37751e-05
9 *418:6 1.03715e-05
10 *586:A *442:22 1.35684e-06
11 *592:A1 *443:33 5.60174e-06
12 *418:10 *425:20 9.69576e-07
13 *418:10 *427:30 7.07183e-08
14 *418:31 *425:16 4.278e-06
15 *418:31 *425:20 9.94081e-06
16 *418:31 *442:52 3.03654e-06
17 *418:31 *443:25 0
18 *418:37 *474:19 8.06799e-07
19 *536:A1 *418:37 0
20 *536:B *418:37 2.03526e-06
21 *980:A *418:16 8.20846e-06
22 *1074:A *592:A1 2.03526e-06
23 *50:16 *418:37 2.03526e-06
24 *50:20 *589:A 6.49184e-07
25 *50:20 *418:16 5.19561e-05
26 *53:8 *418:31 6.24449e-06
27 *53:18 *418:31 2.2401e-05
28 *53:24 *586:A 1.97351e-05
29 *56:10 *418:31 0
30 *56:22 *418:37 5.51397e-07
31 *59:10 *418:10 3.44292e-07
32 *59:10 *418:31 1.49407e-08
33 *134:8 *418:37 9.81516e-06
34 *165:22 *592:A1 1.15169e-05
35 *168:8 *592:A1 2.90209e-08
36 *211:76 *418:37 1.97337e-05
37 *351:43 *592:A1 3.3921e-06
38 *412:45 *586:A 1.92522e-05
*RES
1 *980:Y *418:6 19.8741 
2 *418:6 *418:10 20.0158 
3 *418:10 *418:16 47.7706 
4 *418:16 *586:A 42.2276 
5 *418:10 *418:31 45.3583 
6 *418:31 *418:37 36.259 
7 *418:37 *592:A1 48.3055 
8 *418:6 *589:A 18.8045 
*END

*D_NET *419 0.000357801
*CONN
*I *570:A2 I *D OA21x2_ASAP7_75t_R
*I *575:A2 I *D OA211x2_ASAP7_75t_R
*I *981:Y O *D BUFx3_ASAP7_75t_R
*CAP
1 *570:A2 1.0971e-05
2 *575:A2 1.77057e-06
3 *981:Y 1.8963e-05
4 *419:18 2.5965e-05
5 *419:16 3.2091e-05
6 *419:10 3.78306e-05
7 *570:A2 *492:18 4.08996e-05
8 *575:A2 *485:51 3.90258e-06
9 *419:10 *424:42 1.49079e-05
10 *419:18 *492:18 5.12934e-05
11 *1036:A *419:10 2.61188e-06
12 *1072:A *419:10 3.3921e-06
13 *1072:A *419:16 7.81138e-06
14 *22:26 *570:A2 1.12901e-05
15 *22:26 *419:18 2.53954e-05
16 *22:32 *419:18 3.71503e-05
17 *65:22 *419:18 1.67815e-06
18 *108:14 *570:A2 3.90258e-06
19 *344:12 *419:10 1.45158e-05
20 *416:12 *570:A2 1.14585e-05
*RES
1 *981:Y *419:10 46.4212 
2 *419:10 *419:16 44.5617 
3 *419:16 *419:18 20.8371 
4 *419:18 *575:A2 35.4697 
5 *419:18 *570:A2 49.5488 
*END

*D_NET *420 0.000203226
*CONN
*I *981:A I *D BUFx3_ASAP7_75t_R
*I *973:Y O *D BUFx3_ASAP7_75t_R
*CAP
1 *981:A 0
2 *973:Y 5.21054e-06
3 *420:22 4.69114e-06
4 *420:14 5.28952e-05
5 *420:8 5.34146e-05
6 *420:8 *464:33 3.65131e-06
7 *420:14 *484:72 1.4491e-05
8 *420:14 *508:8 1.30409e-05
9 *420:22 *464:56 3.05118e-08
10 *646:A *420:22 5.41446e-06
11 *22:32 *420:14 4.52385e-06
12 *23:10 *420:22 4.38963e-06
13 *63:8 *420:14 0
14 *65:22 *420:14 1.42054e-05
15 *67:20 *420:14 1.03649e-05
16 *107:14 *420:14 0
17 *110:14 *420:14 1.49407e-08
18 *293:8 *420:22 2.20493e-06
19 *301:12 *420:14 0
20 *414:18 *420:14 1.46827e-05
*RES
1 *973:Y *420:8 37.0741 
2 *420:8 *420:14 48.9066 
3 *420:14 *420:22 38.1633 
4 *420:22 *981:A 17.2 
*END

*D_NET *421 0.000718963
*CONN
*I *550:B I *D AO21x1_ASAP7_75t_R
*I *999:A I *D BUFx3_ASAP7_75t_R
*I *541:A2 I *D OA21x2_ASAP7_75t_R
*I *974:Y O *D BUFx3_ASAP7_75t_R
*CAP
1 *550:B 6.13217e-06
2 *999:A 0
3 *541:A2 8.28815e-06
4 *974:Y 2.46985e-05
5 *421:62 3.67657e-05
6 *421:58 3.72899e-05
7 *421:49 2.22694e-05
8 *421:43 3.24823e-05
9 *421:24 4.25807e-05
10 *421:20 3.0736e-05
11 *421:18 1.53961e-05
12 *421:14 3.9541e-05
13 *421:8 4.88434e-05
14 *421:8 *465:6 0
15 *421:14 *434:10 7.2538e-06
16 *421:14 *434:12 1.00413e-05
17 *421:49 *437:12 7.58265e-07
18 *421:49 *437:88 7.58265e-07
19 *421:49 *446:23 6.7842e-07
20 *421:49 *447:55 6.6421e-06
21 *550:A2 *550:B 1.24124e-05
22 *630:A2 *421:43 2.10248e-05
23 *974:A *421:8 2.0895e-06
24 *1078:A *421:24 4.07069e-05
25 *29:6 *421:58 7.58545e-06
26 *29:8 *421:24 1.95129e-06
27 *29:8 *421:58 5.62196e-06
28 *29:26 *421:18 2.89264e-05
29 *30:18 *421:18 1.91437e-05
30 *31:22 *421:8 7.58265e-07
31 *41:8 *421:62 2.31692e-05
32 *128:33 *421:18 8.10464e-06
33 *129:8 *421:62 6.94376e-06
34 *132:10 *541:A2 2.99383e-06
35 *137:8 *550:B 2.13304e-06
36 *137:12 *421:62 3.59004e-06
37 *139:18 *421:62 5.16902e-07
38 *184:31 *421:49 1.98917e-05
39 *200:8 *421:43 4.74894e-06
40 *201:14 *541:A2 9.94583e-06
41 *201:14 *421:43 9.93857e-06
42 *204:22 *541:A2 1.64747e-05
43 *204:22 *421:43 1.12901e-05
44 *205:10 *421:14 4.93044e-07
45 *205:10 *421:18 7.34922e-06
46 *205:10 *421:62 3.53529e-05
47 *218:8 *550:B 1.00854e-05
48 *280:12 *421:14 0
49 *285:24 *421:14 1.45224e-05
50 *285:28 *421:14 8.45637e-06
51 *285:28 *421:18 2.12201e-06
52 *285:34 *421:62 9.46491e-06
*RES
1 *974:Y *421:8 45.6313 
2 *421:8 *421:14 37.3323 
3 *421:14 *421:18 34.6581 
4 *421:18 *421:20 17.2 
5 *421:20 *421:24 29.501 
6 *421:24 *541:A2 42.171 
7 *421:24 *421:43 44.2252 
8 *421:43 *421:49 33.05 
9 *421:49 *999:A 17.2 
10 *421:20 *421:58 20.9438 
11 *421:58 *421:62 47.0478 
12 *421:62 *550:B 22.0134 
*END

*D_NET *422 0.000553502
*CONN
*I *576:B I *D OR2x2_ASAP7_75t_R
*I *573:A1 I *D OA21x2_ASAP7_75t_R
*I *572:A I *D XOR2x2_ASAP7_75t_R
*I *523:C I *D OR3x1_ASAP7_75t_R
*I *984:Y O *D BUFx3_ASAP7_75t_R
*CAP
1 *576:B 0
2 *573:A1 1.05111e-05
3 *572:A 3.15963e-06
4 *523:C 4.8772e-06
5 *984:Y 0
6 *422:61 1.67889e-05
7 *422:33 2.61185e-05
8 *422:31 1.90471e-05
9 *422:25 3.13065e-05
10 *422:12 2.95843e-05
11 *422:10 2.15153e-05
12 *422:4 3.83042e-05
13 *572:A *492:24 2.03526e-06
14 *422:10 *464:33 6.6195e-06
15 *422:25 *474:8 4.71813e-05
16 *422:31 *485:51 1.3659e-05
17 *422:61 *576:A 1.29753e-05
18 *62:8 *573:A1 1.40419e-08
19 *63:8 *573:A1 2.10524e-05
20 *63:8 *422:10 4.95795e-06
21 *63:8 *422:25 1.5753e-05
22 *63:8 *422:33 6.63524e-05
23 *110:8 *422:25 5.22376e-07
24 *301:16 *422:25 3.59323e-06
25 *301:25 *422:25 3.02496e-05
26 *344:12 *422:10 3.98486e-05
27 *344:12 *422:25 1.02719e-05
28 *344:12 *422:61 0
29 *346:37 *573:A1 5.15195e-07
30 *416:12 *573:A1 1.05734e-05
31 *416:12 *422:33 6.61153e-05
*RES
1 *984:Y *422:4 17.2 
2 *422:4 *422:10 35.5294 
3 *422:10 *422:12 17.2 
4 *422:12 *523:C 19.3393 
5 *422:12 *422:25 44.7101 
6 *422:25 *422:31 38.1438 
7 *422:31 *422:33 22.5266 
8 *422:33 *572:A 36.0045 
9 *422:33 *573:A1 43.354 
10 *422:4 *422:61 47.9974 
11 *422:61 *576:B 17.2 
*END

*D_NET *423 4.45602e-05
*CONN
*I *975:A I *D BUFx3_ASAP7_75t_R
*I *976:Y O *D BUFx3_ASAP7_75t_R
*CAP
1 *975:A 0
2 *976:Y 1.78373e-05
3 *423:8 1.78373e-05
4 *423:8 *464:29 7.75665e-06
5 *423:8 *505:34 1.12894e-06
6 *577:B *423:8 0
7 *413:12 *423:8 0
*RES
1 *976:Y *423:8 47.3528 
2 *423:8 *975:A 34.4 
*END

*D_NET *424 0.00119478
*CONN
*I *524:A1 I *D OA21x2_ASAP7_75t_R
*I *574:A I *D XOR2x2_ASAP7_75t_R
*I *523:B I *D OR3x1_ASAP7_75t_R
*I *576:A I *D OR2x2_ASAP7_75t_R
*I *986:Y O *D BUFx3_ASAP7_75t_R
*CAP
1 *524:A1 4.3732e-06
2 *574:A 2.88887e-06
3 *523:B 0
4 *576:A 3.01274e-05
5 *986:Y 6.79338e-06
6 *424:78 2.91801e-05
7 *424:70 6.17799e-05
8 *424:68 3.11154e-05
9 *424:66 3.65102e-05
10 *424:46 4.6659e-05
11 *424:42 3.62235e-05
12 *424:38 4.67017e-05
13 *424:32 7.94188e-05
14 *424:26 2.40927e-05
15 *424:18 2.06982e-05
16 *424:10 1.92977e-05
17 *524:A1 *427:37 3.90258e-06
18 *524:A1 *474:19 6.06983e-06
19 *424:10 *453:10 2.83874e-07
20 *424:10 *472:6 0
21 *424:10 *489:56 2.19482e-06
22 *424:18 *470:10 8.27594e-07
23 *424:18 *472:14 4.93443e-06
24 *424:18 *489:50 1.9257e-06
25 *424:26 *472:14 2.37562e-05
26 *424:26 *472:29 7.72241e-06
27 *424:38 *496:10 1.14708e-05
28 *424:66 *489:23 0
29 *424:66 *496:10 3.39664e-05
30 *424:70 *474:19 0.000105331
31 *424:78 *427:37 3.81305e-05
32 *525:A1 *424:78 1.21934e-06
33 *573:B *424:70 2.68933e-07
34 *778:A *424:32 2.10126e-05
35 *1072:A *424:42 1.95804e-05
36 *12:10 *424:38 1.44955e-05
37 *24:24 *424:42 7.0982e-06
38 *60:16 *424:18 4.62226e-06
39 *60:16 *424:66 0
40 *62:25 *424:78 0
41 *63:8 *424:70 8.86227e-06
42 *79:12 *424:32 9.92676e-06
43 *107:14 *424:38 5.28707e-05
44 *127:10 *424:42 0
45 *127:10 *424:46 0
46 *134:8 *424:70 1.89125e-06
47 *152:12 *424:70 1.45085e-05
48 *153:16 *574:A 2.55346e-06
49 *153:16 *424:78 7.64042e-07
50 *157:16 *424:66 2.50787e-05
51 *157:22 *424:32 9.08513e-06
52 *165:10 *524:A1 6.7842e-07
53 *211:64 *524:A1 7.31605e-06
54 *211:64 *424:70 5.12124e-06
55 *245:10 *424:42 0
56 *250:10 *424:26 3.32524e-06
57 *291:14 *424:10 6.7842e-07
58 *291:14 *424:26 2.74873e-05
59 *291:14 *424:32 3.48408e-05
60 *293:10 *424:38 1.03659e-05
61 *293:22 *424:18 2.02493e-06
62 *293:39 *424:38 7.41784e-06
63 *293:39 *424:66 1.33012e-05
64 *301:12 *424:38 5.33125e-05
65 *344:12 *424:42 1.39139e-05
66 *344:12 *424:46 4.89331e-06
67 *344:21 *424:42 2.89621e-06
68 *347:14 *424:70 1.51078e-05
69 *351:14 *424:70 0
70 *351:18 *424:70 4.60934e-06
71 *379:10 *424:46 3.68044e-05
72 *416:18 *424:78 1.2583e-05
73 *419:10 *424:42 1.49079e-05
74 *422:61 *576:A 1.29753e-05
*RES
1 *986:Y *424:10 37.9189 
2 *424:10 *424:18 40.0505 
3 *424:18 *424:26 45.2382 
4 *424:26 *424:32 49.9099 
5 *424:32 *424:38 43.8137 
6 *424:38 *424:42 36.6292 
7 *424:42 *424:46 33.5318 
8 *424:46 *576:A 36.9885 
9 *424:42 *523:B 34.4 
10 *424:32 *424:66 40.5916 
11 *424:66 *424:68 17.2 
12 *424:68 *424:70 36.5119 
13 *424:70 *424:78 49.067 
14 *424:78 *574:A 36.0045 
15 *424:70 *524:A1 38.2855 
*END

*D_NET *425 0.00125384
*CONN
*I *579:A I *D XOR2x2_ASAP7_75t_R
*I *582:B I *D OR2x2_ASAP7_75t_R
*I *596:A I *D OR2x2_ASAP7_75t_R
*I *987:Y O *D BUFx3_ASAP7_75t_R
*CAP
1 *579:A 3.81543e-06
2 *582:B 2.32303e-06
3 *596:A 0
4 *987:Y 9.93299e-06
5 *425:49 3.96094e-05
6 *425:47 5.21482e-05
7 *425:41 5.15753e-05
8 *425:30 5.17402e-06
9 *425:22 0.000109568
10 *425:20 7.58203e-05
11 *425:16 1.74585e-05
12 *425:12 9.4367e-05
13 *425:8 9.87967e-05
14 *579:A *442:39 2.03526e-06
15 *582:B *467:46 2.20493e-06
16 *425:8 *484:208 4.31861e-05
17 *425:12 *443:25 1.84407e-05
18 *425:12 *469:16 1.41217e-05
19 *425:12 *506:14 1.22314e-05
20 *425:16 *442:52 1.49022e-05
21 *425:20 *589:B 1.9238e-05
22 *425:20 *427:30 3.36331e-07
23 *425:20 *442:52 6.29149e-06
24 *425:22 *486:59 0
25 *425:41 *426:25 2.83874e-07
26 *425:41 *439:28 0
27 *425:41 *443:60 2.40255e-05
28 *425:41 *443:66 2.61953e-05
29 *425:41 *506:81 2.19482e-06
30 *425:47 *443:52 9.03629e-06
31 *425:49 *431:31 0
32 *425:49 *431:40 0
33 *425:49 *467:10 7.59152e-05
34 *425:49 *467:18 1.22148e-06
35 *425:49 *467:46 2.86166e-05
36 *425:49 *501:14 2.9484e-06
37 *584:A2 *425:49 7.24542e-06
38 *596:B *425:30 7.66617e-06
39 *46:12 *425:49 7.2538e-06
40 *115:18 *425:12 0
41 *115:18 *425:22 0.000110842
42 *117:33 *425:30 7.28654e-06
43 *117:33 *425:41 2.04445e-05
44 *123:18 *425:41 5.76364e-06
45 *123:20 *425:47 0
46 *157:45 *425:22 5.24101e-07
47 *157:49 *425:49 1.49525e-05
48 *157:53 *425:47 7.05157e-07
49 *157:89 *425:49 1.80322e-05
50 *158:16 *425:22 1.29145e-05
51 *158:22 *425:47 0
52 *161:10 *425:49 1.6528e-05
53 *162:6 *579:A 9.75645e-06
54 *170:10 *425:41 2.94282e-06
55 *179:8 *425:41 5.79724e-07
56 *210:45 *425:41 1.47043e-05
57 *267:8 *425:49 1.6313e-06
58 *274:308 *425:8 2.68112e-05
59 *274:314 *425:8 1.6046e-05
60 *348:14 *425:12 6.42735e-05
61 *412:51 *425:12 3.22888e-06
62 *416:62 *425:49 2.53282e-06
63 *417:30 *425:22 1.83164e-07
64 *417:36 *425:22 1.79289e-06
65 *418:10 *425:20 9.69576e-07
66 *418:31 *425:16 4.278e-06
67 *418:31 *425:20 9.94081e-06
*RES
1 *987:Y *425:8 49.3239 
2 *425:8 *425:12 47.5013 
3 *425:12 *425:16 22.5501 
4 *425:16 *425:20 26.4922 
5 *425:20 *425:22 25.1068 
6 *425:22 *425:30 38.5387 
7 *425:30 *596:A 17.2 
8 *425:22 *425:41 49.5302 
9 *425:41 *425:47 39.3781 
10 *425:47 *425:49 44.584 
11 *425:49 *582:B 36.0045 
12 *425:16 *579:A 37.0741 
*END

*D_NET *426 0.000427618
*CONN
*I *598:B I *D OR3x1_ASAP7_75t_R
*I *606:D I *D OR4x1_ASAP7_75t_R
*I *595:C I *D OR3x1_ASAP7_75t_R
*I *988:Y O *D BUFx3_ASAP7_75t_R
*CAP
1 *598:B 1.43423e-05
2 *606:D 0
3 *595:C 1.50762e-05
4 *988:Y 3.09327e-06
5 *426:25 3.31023e-05
6 *426:10 4.99742e-05
7 *426:8 1.92312e-05
8 *598:B *598:A 2.25122e-05
9 *598:B *606:A 9.75645e-06
10 *598:B *606:C 2.03526e-06
11 *598:B *502:14 1.29877e-05
12 *426:8 *427:46 1.95129e-06
13 *426:25 *443:60 5.03974e-06
14 *426:25 *502:14 3.59255e-05
15 *596:B *426:10 8.06593e-06
16 *598:C *598:B 1.95129e-06
17 *47:20 *598:B 1.04475e-06
18 *111:23 *426:10 4.90467e-06
19 *123:12 *595:C 5.39744e-05
20 *157:49 *426:10 7.38773e-06
21 *170:8 *595:C 4.15203e-05
22 *170:10 *426:10 4.53522e-05
23 *416:49 *426:10 1.95724e-05
24 *416:49 *426:25 1.85329e-05
25 *425:41 *426:25 2.83874e-07
*RES
1 *988:Y *426:8 36.0045 
2 *426:8 *426:10 19.7108 
3 *426:10 *595:C 48.8403 
4 *426:10 *426:25 34.6545 
5 *426:25 *606:D 17.2 
6 *426:25 *598:B 28.9662 
*END

*D_NET *427 0.00115251
*CONN
*I *536:A2 I *D OA21x2_ASAP7_75t_R
*I *530:A I *D INVx1_ASAP7_75t_R
*I *988:A I *D BUFx3_ASAP7_75t_R
*I *589:C I *D OR3x1_ASAP7_75t_R
*I *989:Y O *D BUFx3_ASAP7_75t_R
*CAP
1 *536:A2 2.10642e-06
2 *530:A 1.29621e-05
3 *988:A 0
4 *589:C 0
5 *989:Y 1.08398e-05
6 *427:65 8.88887e-06
7 *427:48 4.9166e-05
8 *427:46 5.07532e-05
9 *427:37 5.23265e-05
10 *427:30 5.54497e-05
11 *427:26 4.26771e-05
12 *427:22 4.26026e-05
13 *427:12 4.75646e-05
14 *427:8 3.4024e-05
15 *427:8 *468:23 1.95129e-06
16 *427:12 *468:31 2.34033e-06
17 *427:26 *442:52 7.09944e-05
18 *427:26 *467:24 5.9896e-06
19 *427:26 *469:39 3.2842e-06
20 *427:30 *589:B 1.88585e-05
21 *427:30 *442:52 3.54634e-05
22 *427:30 *496:16 2.69683e-06
23 *427:37 *428:47 4.75447e-05
24 *427:46 *428:47 1.56103e-05
25 *427:48 *428:35 1.47231e-05
26 *427:65 *474:19 1.61136e-05
27 *427:65 *493:22 3.48165e-06
28 *524:A1 *427:37 3.90258e-06
29 *525:A1 *427:37 1.3988e-05
30 *596:B *427:48 2.04934e-06
31 *729:B1 *427:8 1.07377e-06
32 *8:8 *427:22 9.75247e-06
33 *49:23 *427:22 0
34 *49:23 *427:26 4.57677e-07
35 *50:8 *427:26 1.40947e-05
36 *50:16 *536:A2 1.35684e-06
37 *50:16 *427:26 2.32356e-05
38 *50:16 *427:30 5.01042e-05
39 *50:16 *427:65 1.63749e-05
40 *50:20 *427:37 6.49184e-07
41 *51:12 *427:12 5.04802e-05
42 *56:14 *427:65 9.75645e-06
43 *56:38 *427:37 2.741e-06
44 *59:16 *427:37 1.18174e-06
45 *62:25 *427:37 3.90258e-06
46 *86:10 *427:22 1.04475e-06
47 *111:6 *427:37 5.96787e-07
48 *111:21 *427:37 1.67832e-06
49 *111:21 *427:46 5.96787e-07
50 *111:23 *427:48 9.69607e-05
51 *112:10 *427:37 4.37244e-06
52 *112:10 *427:46 6.7842e-07
53 *116:14 *427:48 1.182e-05
54 *117:31 *530:A 0
55 *117:33 *427:48 1.49407e-08
56 *156:8 *427:48 1.16177e-05
57 *157:35 *427:48 3.04601e-05
58 *211:92 *427:8 5.85387e-06
59 *211:92 *427:12 2.59836e-05
60 *211:101 *427:48 1.12894e-06
61 *297:18 *427:26 0
62 *350:14 *427:22 9.44292e-06
63 *350:20 *427:22 2.4389e-06
64 *350:33 *427:12 2.11521e-05
65 *351:45 *427:22 5.38703e-06
66 *351:45 *427:26 1.49407e-08
67 *360:30 *427:12 2.6613e-05
68 *416:26 *427:37 6.49184e-07
69 *418:10 *427:30 7.07183e-08
70 *424:78 *427:37 3.81305e-05
71 *425:20 *427:30 3.36331e-07
72 *426:8 *427:46 1.95129e-06
*RES
1 *989:Y *427:8 39.2134 
2 *427:8 *427:12 46.4846 
3 *427:12 *427:22 48.8664 
4 *427:22 *427:26 43.0118 
5 *427:26 *427:30 38.0371 
6 *427:30 *589:C 17.2 
7 *427:30 *427:37 28.3457 
8 *427:37 *988:A 17.2 
9 *427:37 *427:46 25.2224 
10 *427:46 *427:48 43.9269 
11 *427:48 *530:A 39.2134 
12 *427:26 *427:65 42.7058 
13 *427:65 *536:A2 35.4697 
*END

*D_NET *428 0.000999917
*CONN
*I *1066:A I *D BUFx3_ASAP7_75t_R
*I *1067:A I *D BUFx3_ASAP7_75t_R
*I *595:A I *D OR3x1_ASAP7_75t_R
*I *588:A I *D AND4x1_ASAP7_75t_R
*I *528:A I *D INVx1_ASAP7_75t_R
*I *990:Y O *D BUFx3_ASAP7_75t_R
*CAP
1 *1066:A 1.8062e-05
2 *1067:A 4.73776e-06
3 *595:A 7.4856e-06
4 *588:A 1.77098e-06
5 *528:A 6.03756e-06
6 *990:Y 0
7 *428:79 2.8777e-05
8 *428:66 2.23688e-05
9 *428:55 1.29e-05
10 *428:47 6.93983e-05
11 *428:41 5.33756e-05
12 *428:35 1.38477e-05
13 *428:20 2.94612e-05
14 *428:16 3.64517e-05
15 *428:8 4.91056e-05
16 *428:6 2.62421e-05
17 *595:A *595:B 1.95129e-06
18 *1066:A *502:14 9.64826e-06
19 *428:8 *429:28 1.54069e-05
20 *428:8 *464:172 5.17179e-05
21 *428:8 *464:180 8.58704e-06
22 *428:8 *489:8 1.22503e-05
23 *428:16 *473:64 8.36476e-06
24 *428:47 *430:27 2.86696e-06
25 *428:55 *506:14 0
26 *428:66 *431:8 1.64352e-05
27 *428:79 *431:8 2.13984e-05
28 *587:A2 *1066:A 1.4164e-05
29 *587:A2 *1067:A 4.74894e-06
30 *587:B *1066:A 1.02586e-05
31 *704:C *428:8 2.96327e-05
32 *1075:A *428:20 2.11853e-06
33 *48:18 *428:8 2.03755e-05
34 *56:30 *588:A 2.4974e-06
35 *59:16 *428:47 0
36 *80:8 *428:8 9.4492e-06
37 *112:25 *428:35 6.7842e-07
38 *115:12 *428:35 1.75616e-05
39 *115:35 *428:20 0
40 *116:18 *428:8 4.84588e-06
41 *116:41 *428:8 1.79936e-05
42 *116:43 *428:8 3.69262e-05
43 *116:43 *428:16 8.30225e-06
44 *117:33 *428:16 1.30925e-05
45 *123:12 *595:A 1.07377e-06
46 *157:35 *428:35 1.47231e-05
47 *158:56 *1066:A 6.00625e-05
48 *158:56 *1067:A 1.3659e-05
49 *162:6 *588:A 2.27522e-06
50 *163:10 *428:41 1.2583e-05
51 *164:10 *428:41 1.26336e-05
52 *165:22 *428:66 6.21468e-06
53 *165:22 *428:79 9.18577e-06
54 *168:10 *428:55 1.93482e-06
55 *210:45 *428:16 2.95693e-06
56 *416:18 *428:47 1.41311e-05
57 *416:26 *428:47 1.82798e-05
58 *416:26 *428:66 1.10137e-05
59 *417:36 *428:47 3.05118e-08
60 *417:36 *428:55 1.99876e-05
61 *427:37 *428:47 4.75447e-05
62 *427:46 *428:47 1.56103e-05
63 *427:48 *428:35 1.47231e-05
*RES
1 *990:Y *428:6 34.4 
2 *428:6 *428:8 42.8006 
3 *428:8 *428:16 49.9703 
4 *428:16 *428:20 23.0831 
5 *428:20 *528:A 19.8741 
6 *428:20 *428:35 44.2819 
7 *428:35 *428:41 38.9053 
8 *428:41 *428:47 44.949 
9 *428:47 *428:55 38.7365 
10 *428:55 *588:A 36.0045 
11 *428:47 *428:66 9.10452 
12 *428:66 *595:A 38.1438 
13 *428:66 *428:79 25.0843 
14 *428:79 *1067:A 20.9438 
15 *428:79 *1066:A 35.9189 
*END

*D_NET *429 0.000796799
*CONN
*I *532:A I *D NOR2x1_ASAP7_75t_R
*I *995:A I *D BUFx3_ASAP7_75t_R
*I *982:Y O *D BUFx3_ASAP7_75t_R
*CAP
1 *532:A 0
2 *995:A 1.10398e-05
3 *982:Y 2.73898e-06
4 *429:28 2.35994e-05
5 *429:20 1.70455e-05
6 *429:12 0.000206486
7 *429:10 0.000202
8 *429:8 2.73898e-06
9 *995:A *473:64 1.32196e-05
10 *995:A *473:70 1.10279e-06
11 *429:12 *452:14 9.08065e-06
12 *429:12 *461:140 3.78656e-05
13 *429:12 *462:79 5.62007e-05
14 *429:12 *463:125 8.02187e-06
15 *429:12 *487:62 0
16 *429:12 *506:91 2.00722e-06
17 *429:12 *506:106 1.36142e-05
18 *429:20 *488:20 2.38499e-06
19 *18:25 *429:8 0
20 *48:18 *429:28 2.9793e-05
21 *113:35 *995:A 9.16822e-06
22 *113:35 *429:28 6.90847e-06
23 *116:43 *429:28 2.84943e-06
24 *135:14 *429:12 2.10696e-06
25 *147:89 *429:12 6.15224e-05
26 *211:126 *429:12 2.21398e-05
27 *214:14 *429:12 2.22187e-05
28 *277:22 *429:12 1.41061e-05
29 *279:14 *429:8 1.43247e-06
30 *428:8 *429:28 1.54069e-05
*RES
1 *982:Y *429:8 36.3711 
2 *429:8 *429:10 17.2 
3 *429:10 *429:12 86.7916 
4 *429:12 *429:20 36.8492 
5 *429:20 *429:28 47.2111 
6 *429:28 *995:A 25.2224 
7 *429:20 *532:A 17.2 
*END

*D_NET *430 0.000639054
*CONN
*I *595:B I *D OR3x1_ASAP7_75t_R
*I *529:A I *D INVx1_ASAP7_75t_R
*I *983:A I *D BUFx3_ASAP7_75t_R
*I *985:Y O *D BUFx3_ASAP7_75t_R
*CAP
1 *595:B 3.73985e-06
2 *529:A 2.6728e-06
3 *983:A 1.06355e-05
4 *985:Y 1.08937e-05
5 *430:27 6.8535e-05
6 *430:25 6.58622e-05
7 *430:16 2.22056e-05
8 *430:10 3.37907e-05
9 *430:8 2.93743e-05
10 *430:8 *431:25 7.55667e-06
11 *430:10 *431:8 1.94229e-07
12 *430:10 *431:31 0
13 *430:10 *509:10 2.22736e-06
14 *430:27 *571:A1 3.79923e-06
15 *430:27 *473:70 0
16 *430:27 *504:40 5.84138e-06
17 *571:B *430:27 2.55638e-05
18 *595:A *595:B 1.95129e-06
19 *22:22 *529:A 6.17507e-06
20 *22:22 *430:27 1.88168e-06
21 *56:30 *983:A 3.06888e-05
22 *56:30 *430:16 4.07212e-06
23 *65:16 *430:27 4.16542e-06
24 *65:44 *430:27 8.68417e-06
25 *68:29 *430:27 8.23174e-06
26 *109:18 *430:27 0
27 *109:29 *430:27 0
28 *110:30 *430:27 1.49407e-08
29 *111:12 *430:27 8.28056e-06
30 *123:12 *595:B 2.71839e-06
31 *151:10 *430:27 1.60829e-05
32 *153:8 *430:27 4.10544e-05
33 *165:16 *983:A 1.55103e-05
34 *165:16 *430:16 6.7842e-07
35 *165:22 *430:10 5.18761e-05
36 *165:22 *430:16 2.62001e-05
37 *168:10 *430:10 4.06503e-05
38 *168:10 *430:16 3.20851e-05
39 *168:10 *430:27 1.81803e-05
40 *169:8 *430:27 5.67735e-06
41 *416:18 *430:27 2.8376e-06
42 *416:26 *430:27 1.55973e-05
43 *428:47 *430:27 2.86696e-06
*RES
1 *985:Y *430:8 39.2134 
2 *430:8 *430:10 22.5266 
3 *430:10 *430:16 30.0678 
4 *430:16 *983:A 27.3617 
5 *430:16 *430:25 17.2 
6 *430:25 *430:27 59.6956 
7 *430:27 *529:A 36.0045 
8 *430:10 *595:B 36.5393 
*END

*D_NET *431 0.000531664
*CONN
*I *582:A I *D OR2x2_ASAP7_75t_R
*I *587:A1 I *D OA21x2_ASAP7_75t_R
*I *583:A1 I *D OA21x2_ASAP7_75t_R
*I *983:Y O *D BUFx3_ASAP7_75t_R
*CAP
1 *582:A 2.77008e-06
2 *587:A1 0
3 *583:A1 1.54472e-05
4 *983:Y 0
5 *431:46 2.91984e-05
6 *431:40 6.4709e-05
7 *431:31 2.58897e-05
8 *431:25 8.15804e-05
9 *431:8 5.83748e-05
10 *431:6 2.55174e-05
11 *583:A1 *583:B 2.6409e-06
12 *431:8 *443:29 4.62065e-05
13 *431:8 *443:46 2.1895e-06
14 *431:8 *509:10 9.93857e-06
15 *431:25 *509:10 8.06436e-06
16 *431:31 *467:18 0
17 *431:31 *501:14 0
18 *431:31 *502:10 1.63049e-05
19 *431:31 *509:10 0
20 *431:40 *509:10 0
21 *431:46 *467:46 6.6206e-06
22 *584:A2 *431:40 0
23 *587:A2 *431:31 1.41856e-05
24 *592:C *431:31 7.53304e-06
25 *985:A *583:A1 7.58265e-07
26 *985:A *431:25 6.53466e-06
27 *7:8 *431:40 9.81516e-06
28 *46:25 *431:46 1.47781e-05
29 *54:14 *583:A1 1.48346e-06
30 *56:49 *583:A1 3.89037e-06
31 *56:49 *431:8 7.32095e-07
32 *157:89 *431:31 0
33 *159:8 *431:46 4.45472e-06
34 *160:8 *431:25 6.25562e-06
35 *160:14 *431:40 1.12894e-06
36 *165:22 *431:8 3.17281e-06
37 *230:51 *582:A 1.04475e-06
38 *267:8 *431:40 1.64764e-06
39 *267:14 *431:46 5.68629e-06
40 *268:12 *431:40 0
41 *349:12 *431:8 1.04709e-06
42 *417:36 *431:8 6.47832e-06
43 *425:49 *431:31 0
44 *425:49 *431:40 0
45 *428:66 *431:8 1.64352e-05
46 *428:79 *431:8 2.13984e-05
47 *430:8 *431:25 7.55667e-06
48 *430:10 *431:8 1.94229e-07
49 *430:10 *431:31 0
*RES
1 *983:Y *431:6 34.4 
2 *431:6 *431:8 28.7215 
3 *431:8 *583:A1 41.8876 
4 *431:8 *431:25 48.4472 
5 *431:25 *431:31 36.1493 
6 *431:31 *587:A1 17.2 
7 *431:25 *431:40 43.1056 
8 *431:40 *431:46 36.3156 
9 *431:46 *582:A 36.0045 
*END

*D_NET *432 0.000199701
*CONN
*I *609:B I *D OR3x1_ASAP7_75t_R
*I *601:A I *D XNOR2x2_ASAP7_75t_R
*I *991:Y O *D BUFx3_ASAP7_75t_R
*CAP
1 *609:B 1.87635e-06
2 *601:A 0
3 *991:Y 0
4 *432:21 2.10287e-05
5 *432:10 2.2831e-05
6 *432:4 4.19834e-05
7 *609:B *433:35 5.0551e-07
8 *432:10 *439:18 1.13549e-06
9 *432:10 *462:102 5.3263e-06
10 *432:10 *462:125 2.62067e-05
11 *432:21 *462:102 1.37455e-06
12 *47:28 *432:21 8.45637e-06
13 *160:33 *432:10 5.49402e-06
14 *160:33 *432:21 4.77194e-05
15 *172:17 *432:21 1.25222e-05
16 *173:10 *432:21 5.67747e-07
17 *270:14 *432:10 0
18 *270:14 *432:21 2.04037e-06
19 *410:40 *432:10 6.33206e-07
*RES
1 *991:Y *432:4 17.2 
2 *432:4 *432:10 33.3901 
3 *432:10 *601:A 34.4 
4 *432:4 *432:21 38.6003 
5 *432:21 *609:B 35.4697 
*END

*D_NET *433 0.000828483
*CONN
*I *609:A I *D OR3x1_ASAP7_75t_R
*I *628:B I *D OR2x2_ASAP7_75t_R
*I *605:A I *D XOR2x2_ASAP7_75t_R
*I *608:A1 I *D OA21x2_ASAP7_75t_R
*I *539:B1 I *D AOI221x1_ASAP7_75t_R
*I *606:A I *D OR4x1_ASAP7_75t_R
*I *995:Y O *D BUFx3_ASAP7_75t_R
*CAP
1 *609:A 2.59653e-06
2 *628:B 1.22622e-05
3 *605:A 0
4 *608:A1 0
5 *539:B1 0
6 *606:A 4.5958e-06
7 *995:Y 8.09654e-07
8 *433:71 1.79077e-05
9 *433:67 3.4722e-05
10 *433:56 3.07762e-05
11 *433:52 4.1663e-05
12 *433:41 1.0208e-05
13 *433:35 8.89645e-05
14 *433:26 2.29651e-05
15 *433:18 5.71625e-05
16 *433:16 2.7408e-05
17 *433:14 3.57933e-05
18 *433:8 1.17915e-05
19 *628:B *435:28 1.41375e-05
20 *433:16 *462:98 7.3624e-05
21 *433:26 *462:102 2.94034e-05
22 *433:26 *488:24 6.39482e-06
23 *433:41 *435:36 2.8836e-06
24 *433:41 *463:133 1.02842e-06
25 *433:67 *444:33 3.56177e-06
26 *433:71 *435:28 6.5975e-06
27 *598:B *606:A 9.75645e-06
28 *609:B *433:35 5.0551e-07
29 *44:18 *433:56 5.62196e-06
30 *44:35 *433:56 1.73158e-06
31 *44:35 *433:67 1.4939e-05
32 *48:18 *433:8 4.0698e-06
33 *113:41 *433:16 3.68526e-05
34 *116:43 *433:8 1.88468e-06
35 *121:51 *433:52 4.89215e-06
36 *122:14 *433:35 1.01907e-05
37 *122:29 *433:35 7.63254e-07
38 *126:8 *433:41 2.3426e-06
39 *139:101 *609:A 6.72662e-07
40 *139:101 *433:16 1.45498e-05
41 *139:109 *433:26 3.3921e-06
42 *158:38 *433:41 0
43 *166:12 *433:26 1.34329e-05
44 *176:14 *433:52 6.28016e-06
45 *177:10 *433:52 1.00883e-05
46 *177:10 *433:56 2.88806e-06
47 *177:10 *433:67 6.7842e-07
48 *181:10 *433:67 1.49079e-05
49 *182:8 *433:35 0
50 *197:10 *433:67 0
51 *210:41 *433:14 4.32995e-05
52 *211:16 *433:14 1.71849e-05
53 *230:39 *433:52 1.76438e-05
54 *274:234 *433:67 5.14976e-05
55 *415:8 *433:52 1.15945e-06
*RES
1 *995:Y *433:8 35.8079 
2 *433:8 *433:14 41.9753 
3 *433:14 *433:16 27.8767 
4 *433:16 *433:18 17.2 
5 *433:18 *433:26 49.3504 
6 *433:26 *606:A 19.8741 
7 *433:18 *433:35 17.6492 
8 *433:35 *433:41 41.158 
9 *433:41 *539:B1 17.2 
10 *433:35 *433:52 43.017 
11 *433:52 *433:56 19.3393 
12 *433:56 *608:A1 17.2 
13 *433:56 *433:67 43.2153 
14 *433:67 *433:71 20.9438 
15 *433:71 *605:A 17.2 
16 *433:71 *628:B 25.7572 
17 *433:16 *609:A 36.0895 
*END

*D_NET *434 0.000394947
*CONN
*I *631:A I *D XOR2x2_ASAP7_75t_R
*I *635:A1 I *D OAI21x1_ASAP7_75t_R
*I *633:B I *D AOI21x1_ASAP7_75t_R
*I *996:Y O *D BUFx3_ASAP7_75t_R
*CAP
1 *631:A 3.06146e-06
2 *635:A1 2.45921e-06
3 *633:B 1.48016e-05
4 *996:Y 2.71069e-05
5 *434:31 1.91426e-05
6 *434:12 4.40158e-05
7 *434:10 4.95746e-05
8 *434:8 3.39823e-05
9 *434:6 2.71069e-05
10 *633:B *633:A1 2.20493e-06
11 *633:B *447:12 2.84286e-06
12 *434:6 *451:8 6.70433e-06
13 *434:10 *451:10 2.71304e-05
14 *434:10 *451:16 9.29587e-06
15 *434:10 *482:179 1.24958e-05
16 *434:12 *451:16 7.02605e-06
17 *434:31 *447:40 1.76867e-05
18 *434:31 *447:55 1.17606e-06
19 *434:31 *482:125 1.1181e-05
20 *635:A2 *635:A1 6.7842e-07
21 *1013:A *434:6 5.25794e-06
22 *1013:A *434:10 1.35961e-06
23 *16:8 *434:10 1.30409e-05
24 *31:22 *434:10 1.19526e-07
25 *32:12 *434:12 2.98814e-07
26 *147:182 *434:10 7.3874e-07
27 *184:29 *635:A1 5.0551e-07
28 *184:31 *434:31 2.25196e-06
29 *285:28 *633:B 1.66692e-05
30 *285:28 *434:12 3.97187e-06
31 *288:27 *434:10 3.05716e-06
32 *339:14 *434:31 1.07064e-05
33 *421:14 *434:10 7.2538e-06
34 *421:14 *434:12 1.00413e-05
*RES
1 *996:Y *434:6 35.9189 
2 *434:6 *434:8 17.2 
3 *434:8 *434:10 34.3531 
4 *434:10 *434:12 10.9817 
5 *434:12 *633:B 44.057 
6 *434:12 *434:31 43.4694 
7 *434:31 *635:A1 36.0045 
8 *434:10 *631:A 36.0045 
*END

*D_NET *435 0.000564303
*CONN
*I *612:A I *D XNOR2x2_ASAP7_75t_R
*I *615:A1 I *D AO21x1_ASAP7_75t_R
*I *627:A2 I *D OA211x2_ASAP7_75t_R
*I *628:A I *D OR2x2_ASAP7_75t_R
*I *539:A1 I *D AOI221x1_ASAP7_75t_R
*I *997:Y O *D BUFx3_ASAP7_75t_R
*CAP
1 *612:A 0
2 *615:A1 4.70483e-06
3 *627:A2 6.4189e-06
4 *628:A 0
5 *539:A1 1.45725e-05
6 *997:Y 1.69021e-05
7 *435:70 3.42054e-05
8 *435:36 3.09378e-05
9 *435:28 5.23171e-05
10 *435:18 3.59519e-05
11 *435:16 1.58604e-05
12 *435:10 1.41463e-05
13 *435:8 5.11076e-05
14 *615:A1 *444:16 1.24002e-05
15 *627:A2 *445:35 1.35684e-06
16 *627:A2 *462:56 2.24088e-05
17 *435:8 *436:42 5.35164e-06
18 *435:8 *444:18 1.17096e-06
19 *435:8 *462:56 2.59286e-06
20 *435:16 *444:16 1.00854e-05
21 *435:16 *462:56 4.58188e-06
22 *435:36 *445:56 1.30488e-05
23 *435:70 *436:42 5.34262e-06
24 *435:70 *444:18 1.65445e-06
25 *435:70 *444:33 4.1009e-06
26 *435:70 *445:50 2.9987e-05
27 *435:70 *446:31 9.48496e-06
28 *435:70 *462:56 5.61417e-06
29 *628:B *435:28 1.41375e-05
30 *39:20 *435:8 6.36702e-07
31 *121:22 *435:28 3.11132e-05
32 *158:32 *435:36 1.44811e-05
33 *187:12 *435:70 1.64348e-06
34 *197:10 *627:A2 3.90258e-06
35 *198:8 *435:70 2.64317e-05
36 *199:10 *435:70 9.67723e-06
37 *228:12 *435:8 9.5466e-06
38 *230:39 *435:28 1.03945e-05
39 *410:26 *627:A2 2.10835e-05
40 *410:26 *435:16 4.63251e-06
41 *410:81 *435:8 3.28023e-07
42 *415:8 *435:28 5.06311e-07
43 *417:26 *539:A1 0
44 *433:41 *435:36 2.8836e-06
45 *433:71 *435:28 6.5975e-06
*RES
1 *997:Y *435:8 47.3528 
2 *435:8 *435:10 17.2 
3 *435:10 *435:16 23.7029 
4 *435:16 *435:18 17.2 
5 *435:18 *435:28 46.3445 
6 *435:28 *435:36 41.7092 
7 *435:36 *539:A1 39.2134 
8 *435:18 *628:A 17.2 
9 *435:16 *627:A2 43.354 
10 *435:10 *615:A1 20.9438 
11 *435:8 *435:70 34.3531 
12 *435:70 *612:A 34.4 
*END

*D_NET *436 0.000842052
*CONN
*I *614:A I *D XNOR2x2_ASAP7_75t_R
*I *615:B I *D AO21x1_ASAP7_75t_R
*I *618:A1 I *D OA21x2_ASAP7_75t_R
*I *677:A I *D NOR3x1_ASAP7_75t_R
*I *675:B I *D AND2x2_ASAP7_75t_R
*I *998:Y O *D BUFx3_ASAP7_75t_R
*CAP
1 *614:A 0
2 *615:B 2.96452e-06
3 *618:A1 1.29216e-05
4 *677:A 1.71316e-05
5 *675:B 8.57639e-06
6 *998:Y 0
7 *436:55 2.19189e-05
8 *436:42 5.90145e-05
9 *436:31 6.73349e-05
10 *436:18 2.64362e-05
11 *436:14 5.07714e-05
12 *436:12 2.38784e-05
13 *436:8 5.74957e-05
14 *436:6 5.1685e-05
15 *615:B *444:16 2.03526e-06
16 *615:B *445:12 6.7842e-07
17 *618:A1 *618:A2 5.09299e-06
18 *618:A1 *446:23 2.03526e-06
19 *675:B *445:8 2.98814e-08
20 *436:8 *463:182 6.33206e-07
21 *436:8 *482:28 6.10236e-08
22 *436:31 *445:8 1.49407e-08
23 *436:42 *445:8 2.38613e-06
24 *436:42 *445:27 1.02642e-06
25 *436:42 *446:31 1.63973e-05
26 *436:55 *445:8 5.63956e-05
27 *436:55 *446:10 1.51689e-05
28 *553:A *436:55 0
29 *614:B *436:14 5.09299e-06
30 *35:10 *436:55 0
31 *36:10 *436:8 3.10767e-06
32 *38:31 *436:8 8.11309e-05
33 *39:20 *677:A 2.90665e-05
34 *39:20 *436:42 7.71341e-06
35 *39:26 *677:A 2.27019e-05
36 *41:18 *436:55 1.02525e-06
37 *71:8 *436:8 2.99546e-05
38 *135:20 *436:8 6.60103e-06
39 *140:12 *436:8 2.18135e-06
40 *185:25 *675:B 3.46317e-06
41 *186:10 *436:42 1.51763e-05
42 *187:12 *436:42 1.67893e-05
43 *189:12 *618:A1 5.19552e-07
44 *198:8 *436:42 1.10456e-05
45 *198:16 *436:42 1.67815e-06
46 *211:134 *436:8 1.37182e-05
47 *211:145 *436:8 8.37651e-06
48 *211:145 *436:12 1.07377e-06
49 *225:8 *675:B 3.68287e-06
50 *228:12 *675:B 7.47036e-07
51 *228:12 *436:31 5.52807e-07
52 *337:12 *436:8 7.84037e-07
53 *337:29 *436:8 5.10111e-05
54 *338:20 *436:42 2.18485e-06
55 *402:8 *436:55 3.44497e-06
56 *410:18 *677:A 6.44983e-06
57 *435:8 *436:42 5.35164e-06
58 *435:70 *436:42 5.34262e-06
*RES
1 *998:Y *436:6 34.4 
2 *436:6 *436:8 54.0639 
3 *436:8 *436:12 19.8741 
4 *436:12 *436:14 8.02238 
5 *436:14 *436:18 23.0831 
6 *436:18 *675:B 39.975 
7 *436:18 *436:31 2.81583 
8 *436:31 *677:A 48.8403 
9 *436:31 *436:42 41.6743 
10 *436:42 *618:A1 41.8876 
11 *436:14 *436:55 36.9108 
12 *436:55 *615:B 36.0045 
13 *436:12 *614:A 17.2 
*END

*D_NET *437 0.000586385
*CONN
*I *632:B I *D AO21x1_ASAP7_75t_R
*I *634:A1 I *D OA21x2_ASAP7_75t_R
*I *623:A1 I *D AO21x1_ASAP7_75t_R
*I *617:A I *D AND3x1_ASAP7_75t_R
*I *624:A I *D NOR2x1_ASAP7_75t_R
*I *621:A I *D OR2x4_ASAP7_75t_R
*I *622:A1 I *D OAI22x1_ASAP7_75t_R
*I *999:Y O *D BUFx3_ASAP7_75t_R
*CAP
1 *632:B 2.91413e-06
2 *634:A1 0
3 *623:A1 0
4 *617:A 0
5 *624:A 6.42219e-06
6 *621:A 1.0055e-05
7 *622:A1 3.17771e-06
8 *999:Y 0
9 *437:88 3.30972e-05
10 *437:72 3.42151e-05
11 *437:59 3.8929e-05
12 *437:39 3.38989e-05
13 *437:37 2.21356e-05
14 *437:35 2.97325e-05
15 *437:20 5.70504e-05
16 *437:14 2.85629e-05
17 *437:12 2.7168e-05
18 *437:4 5.29283e-05
19 *437:12 *447:55 2.21123e-06
20 *437:12 *482:133 3.05118e-08
21 *437:20 *482:133 2.05732e-05
22 *437:72 *466:10 7.06615e-06
23 *437:72 *466:69 1.09842e-06
24 *437:88 *446:10 0
25 *437:88 *446:23 0
26 *437:88 *447:55 3.00916e-05
27 *617:B *437:35 7.35354e-06
28 *617:C *437:35 3.89493e-05
29 *634:A2 *437:14 2.61188e-06
30 *634:A2 *437:20 3.16328e-06
31 *683:A2 *437:35 3.05118e-08
32 *35:25 *632:B 6.7842e-07
33 *44:12 *621:A 1.29228e-05
34 *44:12 *437:39 1.35953e-05
35 *181:16 *624:A 1.59615e-06
36 *184:20 *437:12 0
37 *184:31 *437:88 2.19629e-06
38 *187:12 *437:20 2.35969e-05
39 *187:12 *437:88 0
40 *187:20 *437:20 2.0895e-06
41 *187:28 *437:35 7.14604e-06
42 *188:10 *437:35 1.56713e-06
43 *189:23 *437:12 0
44 *190:19 *437:20 2.35211e-06
45 *190:19 *437:35 1.41724e-06
46 *190:29 *437:35 5.52807e-07
47 *193:8 *622:A1 2.11853e-06
48 *193:8 *437:20 1.40419e-08
49 *193:12 *437:35 1.18996e-06
50 *195:8 *437:39 0
51 *196:14 *437:39 0
52 *196:14 *437:59 0
53 *199:18 *437:88 5.52807e-07
54 *230:39 *437:72 0
55 *230:74 *437:72 6.32656e-06
56 *274:242 *621:A 4.45472e-06
57 *274:242 *437:39 3.05118e-08
58 *299:25 *437:72 1.12894e-06
59 *339:10 *437:12 2.42729e-06
60 *410:26 *437:35 3.38681e-06
61 *415:16 *437:39 3.05118e-08
62 *415:16 *437:59 3.05118e-08
63 *421:49 *437:12 7.58265e-07
64 *421:49 *437:88 7.58265e-07
*RES
1 *999:Y *437:4 17.2 
2 *437:4 *437:12 48.9573 
3 *437:12 *437:14 3.20895 
4 *437:14 *437:20 37.0735 
5 *437:20 *622:A1 38.1438 
6 *437:20 *437:35 42.7902 
7 *437:35 *437:37 17.2 
8 *437:37 *437:39 14.0792 
9 *437:39 *621:A 44.537 
10 *437:39 *624:A 37.0741 
11 *437:37 *437:59 2.81583 
12 *437:59 *617:A 34.4 
13 *437:59 *437:72 40.9627 
14 *437:72 *623:A1 17.2 
15 *437:14 *634:A1 17.2 
16 *437:4 *437:88 39.5849 
17 *437:88 *632:B 36.0045 
*END

*D_NET *438 0.000590919
*CONN
*I *996:A I *D BUFx3_ASAP7_75t_R
*I *549:A2 I *D AO21x1_ASAP7_75t_R
*I *1000:Y O *D BUFx3_ASAP7_75t_R
*CAP
1 *996:A 0
2 *549:A2 9.69498e-06
3 *1000:Y 5.05847e-06
4 *438:31 6.6015e-06
5 *438:25 0.000119501
6 *438:23 0.0001129
7 *438:21 8.88949e-05
8 *438:8 0.000103648
9 *549:A2 *482:98 3.90258e-06
10 *549:A2 *512:10 9.63175e-06
11 *438:21 *690:A1 0
12 *438:21 *461:110 1.96925e-06
13 *697:A2 *438:21 9.47659e-06
14 *25:10 *438:21 1.15978e-05
15 *27:41 *549:A2 2.99506e-05
16 *27:41 *438:21 4.2004e-05
17 *27:56 *438:21 2.1623e-05
18 *30:41 *549:A2 0
19 *30:41 *438:21 0
20 *77:10 *438:21 0
21 *136:10 *549:A2 1.40419e-08
22 *147:161 *438:21 0
23 *147:174 *438:21 0
24 *238:14 *438:21 1.49407e-08
25 *239:10 *438:21 0
26 *243:14 *438:21 9.41947e-07
27 *342:18 *438:21 0
28 *343:10 *438:21 8.18029e-06
29 *411:8 *438:21 5.31312e-06
*RES
1 *1000:Y *438:8 36.0045 
2 *438:8 *549:A2 45.6066 
3 *438:8 *438:21 70.9589 
4 *438:21 *438:23 17.2 
5 *438:23 *438:25 50.8084 
6 *438:25 *438:31 38.9053 
7 *438:31 *996:A 17.2 
*END

*D_NET *439 0.00110468
*CONN
*I *991:A I *D BUFx3_ASAP7_75t_R
*I *606:C I *D OR4x1_ASAP7_75t_R
*I *537:A1 I *D OA21x2_ASAP7_75t_R
*I *535:A I *D OR2x2_ASAP7_75t_R
*I *532:B I *D NOR2x1_ASAP7_75t_R
*I *602:A I *D OR2x2_ASAP7_75t_R
*I *993:Y O *D BUFx3_ASAP7_75t_R
*CAP
1 *991:A 0
2 *606:C 3.9114e-06
3 *537:A1 5.91765e-06
4 *535:A 3.15963e-06
5 *532:B 0
6 *602:A 0
7 *993:Y 2.30422e-05
8 *439:77 6.05325e-05
9 *439:57 1.7131e-05
10 *439:51 3.23539e-05
11 *439:40 2.46588e-05
12 *439:34 8.70583e-05
13 *439:28 4.90408e-05
14 *439:22 2.76647e-05
15 *439:18 4.12112e-05
16 *439:16 3.88279e-05
17 *439:14 5.21161e-05
18 *439:10 7.51583e-05
19 *439:18 *762:C1 2.67188e-05
20 *439:18 *462:102 1.95993e-06
21 *439:18 *462:125 0
22 *439:18 *466:26 2.74606e-06
23 *439:18 *488:24 5.00149e-05
24 *439:34 *443:66 0
25 *439:34 *510:10 4.80608e-06
26 *439:40 *488:24 9.29976e-06
27 *439:51 *488:24 2.51824e-05
28 *439:57 *473:52 7.53304e-06
29 *439:57 *488:20 8.4461e-06
30 *439:57 *488:24 1.23446e-05
31 *439:77 *462:98 1.49407e-08
32 *439:77 *506:121 0
33 *533:A *439:77 1.35593e-05
34 *597:B *439:28 8.43525e-06
35 *598:B *606:C 2.03526e-06
36 *607:B *439:28 3.05118e-08
37 *610:A2 *439:22 2.03526e-06
38 *610:A2 *439:28 3.3921e-06
39 *732:A2 *439:18 1.30673e-07
40 *1028:A *439:14 1.35684e-06
41 *1075:A *535:A 2.03526e-06
42 *43:10 *439:10 3.875e-06
43 *47:20 *439:28 1.31716e-05
44 *47:36 *537:A1 1.08167e-05
45 *48:10 *439:28 5.42239e-05
46 *48:10 *439:34 3.36949e-05
47 *48:10 *439:40 3.85478e-05
48 *48:10 *439:51 7.17998e-06
49 *48:10 *439:57 6.33206e-07
50 *48:18 *439:57 1.30417e-06
51 *103:8 *439:18 2.22736e-06
52 *122:14 *439:77 4.64819e-06
53 *123:28 *439:77 1.23016e-06
54 *171:16 *439:34 3.9103e-06
55 *171:16 *439:77 1.35684e-06
56 *171:18 *439:40 7.55095e-06
57 *172:17 *439:77 8.75628e-06
58 *179:8 *439:28 1.3687e-06
59 *179:16 *439:28 9.75645e-06
60 *230:39 *439:10 5.37866e-07
61 *230:47 *439:10 8.06436e-06
62 *230:51 *439:14 9.09056e-05
63 *247:14 *439:57 1.30125e-05
64 *283:8 *439:18 2.99203e-05
65 *299:12 *439:10 1.12894e-06
66 *352:10 *439:18 0
67 *352:18 *439:18 0
68 *352:33 *439:18 0
69 *407:24 *439:57 4.82595e-06
70 *408:14 *439:10 1.9914e-05
71 *410:40 *439:18 7.12313e-06
72 *425:41 *439:28 0
73 *432:10 *439:18 1.13549e-06
*RES
1 *993:Y *439:10 49.2937 
2 *439:10 *439:14 45.5457 
3 *439:14 *439:16 17.2 
4 *439:16 *439:18 38.8585 
5 *439:18 *439:22 18.8045 
6 *439:22 *439:28 40.5979 
7 *439:28 *439:34 31.7006 
8 *439:34 *439:40 47.916 
9 *439:40 *602:A 17.2 
10 *439:40 *439:51 27.8151 
11 *439:51 *439:57 32.8836 
12 *439:57 *532:B 17.2 
13 *439:51 *535:A 36.0045 
14 *439:34 *439:77 43.4668 
15 *439:77 *537:A1 37.609 
16 *439:28 *606:C 36.0045 
17 *439:22 *991:A 17.2 
*END

*D_NET *440 0.000133132
*CONN
*I *637:A I *D XNOR2x2_ASAP7_75t_R
*I *1002:Y O *D BUFx3_ASAP7_75t_R
*CAP
1 *637:A 0
2 *1002:Y 8.4327e-06
3 *440:12 1.50912e-05
4 *440:8 2.35239e-05
5 *440:12 *465:17 7.84567e-06
6 *1002:A *440:8 1.34465e-05
7 *236:10 *440:12 3.51106e-05
8 *236:18 *440:12 2.04071e-05
9 *289:8 *440:12 5.97901e-06
10 *342:12 *440:12 2.19685e-06
11 *411:16 *440:12 1.09842e-06
*RES
1 *1002:Y *440:8 38.1438 
2 *440:8 *440:12 35.7845 
3 *440:12 *637:A 17.2 
*END

*D_NET *441 0.00142237
*CONN
*I *789:CLK I *D DFFHQNx1_ASAP7_75t_R
*I *805:CLK I *D DFFHQNx1_ASAP7_75t_R
*I *804:CLK I *D DFFHQNx1_ASAP7_75t_R
*I *992:A I *D BUFx4f_ASAP7_75t_R
*I *801:CLK I *D DFFHQNx1_ASAP7_75t_R
*I *800:CLK I *D DFFHQNx1_ASAP7_75t_R
*I *788:CLK I *D DFFHQNx1_ASAP7_75t_R
*I *803:CLK I *D DFFHQNx1_ASAP7_75t_R
*I *787:CLK I *D DFFHQNx1_ASAP7_75t_R
*I *1003:Y O *D BUFx4_ASAP7_75t_R
*CAP
1 *789:CLK 0
2 *805:CLK 2.18455e-06
3 *804:CLK 0
4 *992:A 0
5 *801:CLK 0
6 *800:CLK 0
7 *788:CLK 7.55654e-05
8 *803:CLK 0
9 *787:CLK 0
10 *1003:Y 0
11 *441:110 4.1079e-05
12 *441:85 3.7202e-05
13 *441:74 4.52084e-05
14 *441:63 6.76043e-05
15 *441:57 6.48654e-05
16 *441:55 2.12743e-05
17 *441:49 3.50802e-05
18 *441:45 7.99406e-05
19 *441:24 2.55217e-05
20 *441:20 7.11662e-05
21 *441:14 6.3244e-05
22 *441:12 9.31649e-05
23 *441:10 3.86262e-05
24 *441:8 4.99278e-05
25 *441:4 3.32744e-05
26 *788:CLK *689:A 4.55998e-06
27 *441:8 *482:121 3.16328e-06
28 *441:10 *475:12 8.29794e-07
29 *441:10 *475:33 0
30 *441:10 *482:121 5.81334e-06
31 *441:10 *482:171 5.48168e-05
32 *441:10 *487:139 0
33 *441:20 *687:A1 3.05302e-06
34 *441:20 *451:10 0
35 *441:45 *750:C1 1.37072e-05
36 *441:45 *482:121 1.07377e-06
37 *441:49 *491:91 0
38 *441:55 *487:112 2.01799e-06
39 *441:57 *487:112 2.69065e-06
40 *441:63 *749:A1 6.23232e-06
41 *441:63 *482:78 2.16771e-05
42 *441:63 *482:105 3.09296e-05
43 *441:74 *487:85 0
44 *441:74 *487:98 0
45 *441:85 *749:A1 5.41446e-06
46 *441:110 *491:72 0
47 *696:A1 *441:45 5.85387e-06
48 *750:C2 *441:49 1.02996e-05
49 *750:C2 *441:110 3.04177e-06
50 *787:D *441:24 8.146e-06
51 *800:D *441:74 1.29965e-05
52 *1043:A *441:20 3.35592e-05
53 *14:34 *805:CLK 4.24552e-06
54 *14:34 *441:55 6.01313e-06
55 *14:40 *441:49 1.4697e-05
56 *14:40 *441:55 4.80141e-06
57 *15:6 *788:CLK 3.85212e-05
58 *27:14 *441:63 0
59 *31:8 *788:CLK 0
60 *31:14 *788:CLK 5.94108e-06
61 *31:14 *441:10 1.00103e-06
62 *31:14 *441:14 1.36537e-05
63 *31:14 *441:20 3.65131e-06
64 *42:10 *441:63 3.47203e-05
65 *89:8 *441:74 9.48786e-06
66 *92:8 *441:10 3.11431e-06
67 *138:16 *441:85 4.39764e-05
68 *147:186 *441:20 1.59615e-06
69 *148:22 *441:45 7.35354e-06
70 *209:22 *441:85 2.88806e-06
71 *217:12 *441:74 5.43721e-07
72 *220:16 *441:74 0
73 *236:24 *441:55 0
74 *240:10 *441:110 2.72163e-05
75 *273:16 *441:74 9.24628e-07
76 *274:158 *441:63 2.03526e-06
77 *274:158 *441:74 1.35684e-06
78 *274:164 *441:63 5.77304e-06
79 *274:179 *441:63 5.79724e-07
80 *279:22 *441:74 1.49407e-08
81 *280:12 *441:10 2.83874e-07
82 *286:16 *441:74 7.50787e-06
83 *288:27 *441:20 0
84 *289:14 *441:49 1.67815e-06
85 *289:14 *441:55 1.88791e-05
86 *289:22 *441:55 1.98062e-06
87 *289:22 *441:57 4.38758e-06
88 *289:22 *441:63 1.98472e-06
89 *289:33 *441:45 2.47847e-05
90 *341:16 *441:24 9.30483e-06
91 *343:6 *441:110 0
92 *397:10 *441:20 1.67893e-05
93 *397:31 *441:10 2.58754e-05
94 *397:48 *441:10 0
*RES
1 *1003:Y *441:4 17.2 
2 *441:4 *441:8 23.0831 
3 *441:8 *441:10 35.4795 
4 *441:10 *441:12 17.2 
5 *441:12 *441:14 10.1617 
6 *441:14 *441:20 42.6202 
7 *441:20 *441:24 34.8492 
8 *441:24 *787:CLK 17.2 
9 *441:14 *803:CLK 17.2 
10 *441:12 *788:CLK 49.8243 
11 *441:4 *441:45 31.6403 
12 *441:45 *441:49 29.5897 
13 *441:49 *441:55 28.8848 
14 *441:55 *441:57 4.50533 
15 *441:57 *441:63 39.6416 
16 *441:63 *800:CLK 17.2 
17 *441:63 *441:74 45.7761 
18 *441:74 *801:CLK 34.4 
19 *441:57 *441:85 33.7796 
20 *441:85 *992:A 17.2 
21 *441:55 *804:CLK 34.4 
22 *441:49 *805:CLK 18.8045 
23 *441:45 *441:110 37.4987 
24 *441:110 *789:CLK 17.2 
*END

*D_NET *442 0.000767685
*CONN
*I *583:B I *D OA21x2_ASAP7_75t_R
*I *589:B I *D OR3x1_ASAP7_75t_R
*I *586:B I *D AND3x1_ASAP7_75t_R
*I *1004:Y O *D BUFx3_ASAP7_75t_R
*CAP
1 *583:B 1.56707e-05
2 *589:B 6.81136e-06
3 *586:B 0
4 *1004:Y 3.70482e-05
5 *442:52 5.00802e-05
6 *442:39 5.91031e-05
7 *442:35 3.08534e-05
8 *442:22 3.14891e-05
9 *442:20 2.78985e-05
10 *442:14 4.52167e-05
11 *442:8 7.28843e-05
12 *442:8 *755:A1 1.35684e-06
13 *442:8 *455:22 3.06518e-07
14 *442:14 *455:37 6.72662e-07
15 *442:14 *489:70 1.07614e-05
16 *442:14 *489:83 9.21172e-06
17 *442:14 *492:71 0
18 *442:20 *463:74 5.30784e-06
19 *442:35 *586:C 1.36155e-06
20 *579:A *442:39 2.03526e-06
21 *583:A1 *583:B 2.6409e-06
22 *586:A *442:22 1.35684e-06
23 *640:A *583:B 3.48165e-06
24 *755:C2 *442:8 9.75645e-06
25 *985:A *583:B 1.60115e-05
26 *50:20 *589:B 3.90258e-06
27 *53:8 *442:52 0
28 *53:18 *442:52 8.193e-06
29 *53:28 *442:14 2.09971e-05
30 *53:36 *442:8 2.8275e-06
31 *54:8 *442:52 1.62854e-06
32 *54:14 *583:B 3.58744e-05
33 *55:25 *442:22 2.50424e-06
34 *56:49 *583:B 1.36155e-06
35 *57:14 *442:22 3.9027e-05
36 *162:6 *442:35 6.19506e-06
37 *162:6 *442:39 7.46313e-06
38 *274:314 *442:8 2.8275e-06
39 *295:10 *442:20 5.35192e-07
40 *295:18 *442:14 1.01088e-05
41 *295:22 *442:8 0
42 *295:39 *442:20 9.47071e-07
43 *297:18 *442:52 0
44 *348:6 *442:22 4.84756e-06
45 *348:6 *442:35 6.48839e-06
46 *370:6 *442:8 1.85506e-06
47 *418:31 *442:52 3.03654e-06
48 *425:16 *442:52 1.49022e-05
49 *425:20 *589:B 1.9238e-05
50 *425:20 *442:52 6.29149e-06
51 *427:26 *442:52 7.09944e-05
52 *427:30 *589:B 1.88585e-05
53 *427:30 *442:52 3.54634e-05
*RES
1 *1004:Y *442:8 49.9099 
2 *442:8 *442:14 34.0367 
3 *442:14 *442:20 40.6887 
4 *442:20 *442:22 13.3706 
5 *442:22 *586:B 17.2 
6 *442:22 *442:35 43.0989 
7 *442:35 *442:39 27.3617 
8 *442:39 *589:B 42.2276 
9 *442:39 *442:52 36.6058 
10 *442:52 *583:B 48.8403 
*END

*D_NET *443 0.000781388
*CONN
*I *597:A2 I *D OA21x2_ASAP7_75t_R
*I *590:A I *D INVx1_ASAP7_75t_R
*I *592:A2 I *D OA211x2_ASAP7_75t_R
*I *586:C I *D AND3x1_ASAP7_75t_R
*I *1005:Y O *D BUFx3_ASAP7_75t_R
*CAP
1 *597:A2 5.83593e-06
2 *590:A 0
3 *592:A2 0
4 *586:C 2.07914e-06
5 *1005:Y 8.82721e-06
6 *443:66 3.12757e-05
7 *443:60 4.91582e-05
8 *443:52 5.80699e-05
9 *443:46 3.56502e-05
10 *443:33 8.6249e-06
11 *443:29 1.89069e-05
12 *443:25 6.27723e-05
13 *443:10 6.20979e-05
14 *597:A2 *501:27 3.89037e-06
15 *443:25 *506:14 0.000105431
16 *443:52 *467:24 5.0068e-05
17 *443:52 *506:14 0
18 *443:60 *501:27 1.2782e-05
19 *443:66 *510:10 4.74375e-07
20 *587:A2 *443:29 1.70708e-06
21 *592:A1 *443:33 5.60174e-06
22 *1071:B *443:66 1.05315e-06
23 *1071:C *443:66 5.85387e-06
24 *47:12 *597:A2 3.90258e-06
25 *47:12 *443:60 3.05118e-08
26 *50:20 *443:10 5.62196e-06
27 *139:109 *443:66 2.20493e-06
28 *157:53 *443:52 2.17492e-05
29 *158:60 *443:29 1.08539e-05
30 *165:22 *443:46 5.16782e-06
31 *166:12 *597:A2 1.56713e-06
32 *166:20 *597:A2 5.62196e-06
33 *179:8 *443:60 1.94229e-07
34 *210:45 *443:66 4.38963e-06
35 *349:12 *443:29 1.25639e-05
36 *412:45 *443:10 1.30801e-05
37 *412:45 *443:25 2.82106e-05
38 *416:62 *443:60 2.68933e-07
39 *417:36 *443:29 3.30589e-06
40 *418:31 *443:25 0
41 *425:12 *443:25 1.84407e-05
42 *425:41 *443:60 2.40255e-05
43 *425:41 *443:66 2.61953e-05
44 *425:47 *443:52 9.03629e-06
45 *426:25 *443:60 5.03974e-06
46 *431:8 *443:29 4.62065e-05
47 *431:8 *443:46 2.1895e-06
48 *439:34 *443:66 0
49 *442:35 *586:C 1.36155e-06
*RES
1 *1005:Y *443:10 40.5098 
2 *443:10 *586:C 35.4697 
3 *443:10 *443:25 45.7706 
4 *443:25 *443:29 33.0625 
5 *443:29 *443:33 21.4786 
6 *443:33 *592:A2 17.2 
7 *443:33 *443:46 36.1834 
8 *443:46 *443:52 31.9255 
9 *443:52 *443:60 48.3374 
10 *443:60 *443:66 35.3027 
11 *443:66 *590:A 17.2 
12 *443:52 *597:A2 38.6786 
*END

*D_NET *444 0.000374213
*CONN
*I *608:B I *D OA21x2_ASAP7_75t_R
*I *627:A1 I *D OA211x2_ASAP7_75t_R
*I *1006:Y O *D BUFx3_ASAP7_75t_R
*CAP
1 *608:B 0
2 *627:A1 2.42378e-06
3 *1006:Y 2.48427e-05
4 *444:33 3.64939e-05
5 *444:18 4.8541e-05
6 *444:16 3.98953e-05
7 *444:10 5.51147e-05
8 *627:A1 *445:29 3.90258e-06
9 *627:A1 *445:35 5.85387e-06
10 *444:10 *446:10 1.14131e-05
11 *444:16 *445:12 8.75221e-07
12 *444:18 *445:50 2.9987e-05
13 *444:18 *462:56 3.88472e-05
14 *444:33 *446:31 2.71368e-06
15 *444:33 *462:56 1.84022e-05
16 *615:A1 *444:16 1.24002e-05
17 *615:B *444:16 2.03526e-06
18 *636:A1 *444:10 2.03526e-06
19 *35:25 *444:10 4.7643e-07
20 *41:18 *444:10 1.13965e-06
21 *186:29 *444:10 6.7842e-07
22 *199:10 *627:A1 5.62196e-06
23 *199:10 *444:33 9.94583e-06
24 *433:67 *444:33 3.56177e-06
25 *435:8 *444:18 1.17096e-06
26 *435:16 *444:16 1.00854e-05
27 *435:70 *444:18 1.65445e-06
28 *435:70 *444:33 4.1009e-06
*RES
1 *1006:Y *444:10 48.5038 
2 *444:10 *444:16 47.7706 
3 *444:16 *444:18 13.516 
4 *444:18 *627:A1 36.5393 
5 *444:18 *444:33 42.6769 
6 *444:33 *608:B 17.2 
*END

*D_NET *445 0.000890717
*CONN
*I *627:B I *D OA211x2_ASAP7_75t_R
*I *539:A2 I *D AOI221x1_ASAP7_75t_R
*I *618:A2 I *D OA21x2_ASAP7_75t_R
*I *615:A2 I *D AO21x1_ASAP7_75t_R
*I *1007:Y O *D BUFx3_ASAP7_75t_R
*CAP
1 *627:B 0
2 *539:A2 7.63737e-06
3 *618:A2 4.28225e-06
4 *615:A2 0
5 *1007:Y 0
6 *445:56 8.86448e-05
7 *445:50 8.67058e-05
8 *445:35 1.90634e-05
9 *445:29 2.5445e-05
10 *445:27 1.76431e-05
11 *445:12 1.50478e-05
12 *445:8 0.00011321
13 *445:6 0.00011084
14 *445:8 *446:10 2.25481e-06
15 *445:8 *463:172 0
16 *445:8 *511:10 8.3668e-07
17 *445:27 *446:10 3.05118e-08
18 *445:35 *462:56 5.21188e-05
19 *445:56 *463:133 1.83502e-06
20 *615:B *445:12 6.7842e-07
21 *618:A1 *618:A2 5.09299e-06
22 *627:A1 *445:29 3.90258e-06
23 *627:A1 *445:35 5.85387e-06
24 *627:A2 *445:35 1.35684e-06
25 *627:C *445:27 1.4939e-05
26 *675:B *445:8 2.98814e-08
27 *767:A *445:8 1.09081e-05
28 *34:18 *445:8 7.3486e-06
29 *34:27 *445:8 5.49212e-07
30 *38:41 *445:8 7.17155e-07
31 *121:16 *445:56 1.18649e-05
32 *130:26 *445:56 1.92889e-06
33 *186:10 *445:12 7.9646e-06
34 *186:10 *445:27 1.95303e-05
35 *189:12 *618:A2 5.77141e-06
36 *197:10 *445:27 5.51397e-07
37 *197:27 *445:27 1.15587e-05
38 *198:16 *445:27 7.81138e-06
39 *198:16 *445:29 6.7842e-07
40 *199:10 *445:35 2.71368e-06
41 *228:12 *445:8 0
42 *278:8 *445:8 0
43 *287:14 *445:8 2.16061e-06
44 *338:20 *445:8 8.16553e-06
45 *402:8 *445:8 1.94049e-05
46 *410:26 *445:35 5.25035e-05
47 *417:26 *539:A2 7.41569e-06
48 *435:36 *445:56 1.30488e-05
49 *435:70 *445:50 2.9987e-05
50 *436:31 *445:8 1.49407e-08
51 *436:42 *445:8 2.38613e-06
52 *436:42 *445:27 1.02642e-06
53 *436:55 *445:8 5.63956e-05
54 *444:16 *445:12 8.75221e-07
55 *444:18 *445:50 2.9987e-05
*RES
1 *1007:Y *445:6 34.4 
2 *445:6 *445:8 81.0959 
3 *445:8 *445:12 19.3393 
4 *445:12 *615:A2 17.2 
5 *445:12 *445:27 48.1674 
6 *445:27 *445:29 2.67412 
7 *445:29 *445:35 38.4019 
8 *445:35 *618:A2 38.6786 
9 *445:29 *445:50 44.6308 
10 *445:50 *445:56 42.9638 
11 *445:56 *539:A2 39.2134 
12 *445:27 *627:B 17.2 
*END

*D_NET *446 0.000259128
*CONN
*I *618:B I *D OA21x2_ASAP7_75t_R
*I *616:A I *D NAND2x1_ASAP7_75t_R
*I *632:A1 I *D AO21x1_ASAP7_75t_R
*I *1008:Y O *D BUFx3_ASAP7_75t_R
*CAP
1 *618:B 0
2 *616:A 0
3 *632:A1 0
4 *1008:Y 4.18486e-06
5 *446:31 1.86364e-05
6 *446:23 5.17368e-05
7 *446:10 5.17607e-05
8 *446:8 2.28452e-05
9 *618:A1 *446:23 2.03526e-06
10 *128:20 *446:10 2.78959e-06
11 *130:20 *446:10 3.88042e-07
12 *184:31 *446:10 0
13 *186:29 *446:10 1.32095e-05
14 *187:12 *446:23 0
15 *187:12 *446:31 2.84286e-06
16 *189:12 *446:23 5.01287e-06
17 *197:27 *446:10 5.30889e-06
18 *197:27 *446:23 7.7278e-06
19 *198:16 *446:23 1.09842e-06
20 *199:18 *446:23 8.33296e-06
21 *199:18 *446:31 7.72307e-07
22 *338:20 *446:8 2.30405e-06
23 *421:49 *446:23 6.7842e-07
24 *435:70 *446:31 9.48496e-06
25 *436:42 *446:31 1.63973e-05
26 *436:55 *446:10 1.51689e-05
27 *437:88 *446:10 0
28 *437:88 *446:23 0
29 *444:10 *446:10 1.14131e-05
30 *444:33 *446:31 2.71368e-06
31 *445:8 *446:10 2.25481e-06
32 *445:27 *446:10 3.05118e-08
*RES
1 *1008:Y *446:8 36.0045 
2 *446:8 *446:10 16.3318 
3 *446:10 *632:A1 34.4 
4 *446:10 *446:23 41.5542 
5 *446:23 *446:31 48.7022 
6 *446:31 *616:A 17.2 
7 *446:23 *618:B 17.2 
*END

*D_NET *447 0.000416943
*CONN
*I *630:A1 I *D AO221x1_ASAP7_75t_R
*I *634:B I *D OA21x2_ASAP7_75t_R
*I *633:A1 I *D AOI21x1_ASAP7_75t_R
*I *551:C I *D AND4x1_ASAP7_75t_R
*I *1009:Y O *D BUFx3_ASAP7_75t_R
*CAP
1 *630:A1 6.87598e-06
2 *634:B 3.06146e-06
3 *633:A1 2.73945e-06
4 *551:C 0
5 *1009:Y 7.58056e-06
6 *447:55 3.24869e-05
7 *447:44 4.6471e-05
8 *447:40 3.07003e-05
9 *447:18 1.92592e-05
10 *447:12 2.96261e-05
11 *447:10 2.81097e-05
12 *447:10 *448:14 1.07377e-06
13 *447:18 *513:8 2.68664e-05
14 *551:B *447:18 7.79295e-06
15 *630:A2 *630:A1 3.65131e-06
16 *630:A2 *447:18 1.01813e-05
17 *633:B *633:A1 2.20493e-06
18 *633:B *447:12 2.84286e-06
19 *32:12 *447:40 1.20049e-05
20 *32:18 *447:10 4.74168e-08
21 *32:18 *447:12 4.62686e-06
22 *32:18 *447:18 2.16283e-06
23 *32:18 *447:40 5.25164e-06
24 *132:10 *447:40 1.64764e-06
25 *184:31 *447:55 7.37004e-06
26 *189:23 *447:55 0
27 *200:12 *447:40 2.94577e-05
28 *202:8 *633:A1 3.56648e-06
29 *202:14 *447:18 4.04904e-06
30 *203:8 *447:55 5.30715e-06
31 *211:166 *447:55 1.34466e-06
32 *285:28 *447:12 1.12894e-06
33 *285:28 *447:18 1.18996e-06
34 *339:10 *447:55 8.87832e-07
35 *339:14 *447:40 1.75678e-05
36 *421:49 *447:55 6.6421e-06
37 *434:31 *447:40 1.76867e-05
38 *434:31 *447:55 1.17606e-06
39 *437:12 *447:55 2.21123e-06
40 *437:88 *447:55 3.00916e-05
*RES
1 *1009:Y *447:10 37.7312 
2 *447:10 *447:12 6.66413 
3 *447:12 *447:18 33.5848 
4 *447:18 *551:C 17.2 
5 *447:12 *633:A1 37.0741 
6 *447:10 *447:40 49.9136 
7 *447:40 *447:44 26.292 
8 *447:44 *634:B 18.8045 
9 *447:44 *447:55 41.9793 
10 *447:55 *630:A1 38.6786 
*END

*D_NET *448 0.000133337
*CONN
*I *635:B I *D OAI21x1_ASAP7_75t_R
*I *1010:Y O *D BUFx3_ASAP7_75t_R
*CAP
1 *635:B 0
2 *1010:Y 1.31665e-05
3 *448:14 2.81955e-05
4 *448:10 4.1362e-05
5 *448:10 *513:12 5.46684e-06
6 *448:14 *451:16 1.3842e-05
7 *32:18 *448:14 2.03526e-06
8 *205:22 *448:10 3.48165e-06
9 *280:8 *448:14 2.20493e-06
10 *280:12 *448:10 9.30097e-06
11 *285:24 *448:14 1.32074e-05
12 *447:10 *448:14 1.07377e-06
*RES
1 *1010:Y *448:10 42.7058 
2 *448:10 *448:14 35.9189 
3 *448:14 *635:B 17.2 
*END

*D_NET *449 0.0012168
*CONN
*I *784:CLK I *D DFFHQNx1_ASAP7_75t_R
*I *785:CLK I *D DFFHQNx1_ASAP7_75t_R
*I *994:A I *D BUFx4f_ASAP7_75t_R
*I *783:CLK I *D DFFHQNx1_ASAP7_75t_R
*I *799:CLK I *D DFFHQNx1_ASAP7_75t_R
*I *802:CLK I *D DFFHQNx1_ASAP7_75t_R
*I *786:CLK I *D DFFHQNx1_ASAP7_75t_R
*I *782:CLK I *D DFFHQNx1_ASAP7_75t_R
*I *780:CLK I *D DFFHQNx1_ASAP7_75t_R
*I *1011:Y O *D BUFx4_ASAP7_75t_R
*CAP
1 *784:CLK 0
2 *785:CLK 1.58341e-05
3 *994:A 1.58616e-05
4 *783:CLK 3.32884e-06
5 *799:CLK 0
6 *802:CLK 0
7 *786:CLK 0
8 *782:CLK 0
9 *780:CLK 0
10 *1011:Y 4.53074e-06
11 *449:122 2.58607e-05
12 *449:79 4.22218e-06
13 *449:66 9.74986e-06
14 *449:50 2.03384e-05
15 *449:44 2.43827e-05
16 *449:40 7.28688e-05
17 *449:34 9.28502e-05
18 *449:30 6.14019e-05
19 *449:28 4.70983e-05
20 *449:20 1.54587e-05
21 *449:14 3.08766e-05
22 *449:12 3.87621e-05
23 *449:10 2.63131e-05
24 *449:8 3.42534e-05
25 *449:12 *463:207 0
26 *449:12 *491:33 8.52654e-07
27 *449:14 *491:33 5.225e-06
28 *449:28 *491:14 1.93482e-06
29 *449:30 *487:34 5.04845e-06
30 *449:40 *461:56 1.3359e-05
31 *449:44 *483:93 1.69507e-05
32 *449:50 *462:30 5.20324e-06
33 *449:50 *483:93 3.81034e-05
34 *449:66 *452:20 0
35 *449:66 *461:56 4.67528e-05
36 *449:66 *482:216 3.00666e-05
37 *449:79 *462:37 1.70708e-06
38 *449:122 *666:A2 1.53862e-05
39 *666:B2 *449:122 6.10236e-08
40 *667:A1 *449:122 0
41 *779:A *783:CLK 5.51397e-07
42 *782:D *449:40 0
43 *13:10 *449:50 1.49407e-08
44 *20:8 *449:40 2.03412e-05
45 *21:8 *449:50 5.0551e-07
46 *21:23 *449:50 1.06925e-05
47 *34:39 *449:14 1.49417e-05
48 *35:36 *994:A 9.59239e-06
49 *35:36 *449:10 1.46538e-05
50 *35:36 *449:12 8.19887e-06
51 *35:36 *449:122 2.4382e-05
52 *36:25 *785:CLK 5.62196e-06
53 *36:25 *994:A 0
54 *36:25 *449:10 1.2903e-05
55 *36:25 *449:122 1.47929e-05
56 *36:33 *449:8 2.66797e-07
57 *38:20 *449:122 6.0726e-07
58 *38:31 *449:122 0
59 *41:12 *449:122 6.07405e-06
60 *70:25 *785:CLK 5.09299e-06
61 *71:12 *449:79 9.08513e-06
62 *133:16 *785:CLK 3.3547e-05
63 *133:22 *449:8 1.66706e-05
64 *139:22 *449:8 2.03412e-05
65 *140:14 *449:30 0.000113333
66 *140:14 *449:34 4.32593e-05
67 *206:8 *785:CLK 5.19552e-07
68 *206:10 *449:14 2.17623e-06
69 *206:10 *449:20 5.55315e-06
70 *207:10 *449:40 4.51547e-06
71 *207:10 *449:66 1.23321e-06
72 *208:39 *449:34 7.77172e-06
73 *211:157 *449:122 9.13351e-07
74 *223:10 *449:66 1.09842e-06
75 *223:16 *449:66 1.09842e-06
76 *274:105 *449:30 6.49541e-06
77 *274:105 *449:34 2.74278e-07
78 *285:34 *449:122 0
79 *287:18 *449:79 1.93482e-06
80 *300:31 *449:14 3.13195e-05
81 *300:31 *449:20 2.73885e-05
82 *404:22 *449:44 6.76552e-06
83 *404:22 *449:50 7.63078e-06
*RES
1 *1011:Y *449:8 40.2831 
2 *449:8 *449:10 5.63166 
3 *449:10 *449:12 5.06849 
4 *449:12 *449:14 16.3318 
5 *449:14 *449:20 28.8848 
6 *449:20 *449:28 36.6615 
7 *449:28 *449:30 20.5616 
8 *449:30 *449:34 24.7753 
9 *449:34 *449:40 48.0056 
10 *449:40 *449:44 23.3948 
11 *449:44 *449:50 36.0359 
12 *449:50 *780:CLK 17.2 
13 *449:44 *782:CLK 34.4 
14 *449:34 *449:66 33.438 
15 *449:66 *786:CLK 17.2 
16 *449:30 *449:79 37.7312 
17 *449:79 *802:CLK 17.2 
18 *449:20 *799:CLK 17.2 
19 *449:14 *783:CLK 36.0045 
20 *449:12 *994:A 42.4224 
21 *449:10 *785:CLK 48.8403 
22 *449:8 *449:122 37.2756 
23 *449:122 *784:CLK 17.2 
*END

*D_NET *450 0.000320536
*CONN
*I *543:B I *D OAI21x1_ASAP7_75t_R
*I *552:A1 I *D AOI21x1_ASAP7_75t_R
*I *1012:Y O *D BUFx3_ASAP7_75t_R
*CAP
1 *543:B 0
2 *552:A1 7.55942e-06
3 *1012:Y 3.44238e-05
4 *450:25 2.73142e-05
5 *450:10 3.64981e-05
6 *450:6 3.60483e-05
7 *450:6 *482:94 5.32102e-06
8 *450:6 *482:98 1.3195e-05
9 *450:10 *482:105 4.45124e-06
10 *450:25 *482:105 1.57195e-05
11 *552:A2 *450:6 1.00777e-05
12 *26:27 *450:25 3.0511e-05
13 *26:35 *450:6 1.87433e-05
14 *27:14 *450:25 4.545e-05
15 *27:22 *450:25 2.11853e-06
16 *42:6 *552:A1 1.3659e-05
17 *138:22 *450:6 8.22078e-06
18 *138:22 *450:10 2.05574e-06
19 *138:22 *450:25 4.83914e-06
20 *209:22 *450:25 4.32973e-06
*RES
1 *1012:Y *450:6 43.4064 
2 *450:6 *450:10 18.8895 
3 *450:10 *552:A1 41.3527 
4 *450:10 *450:25 42.6202 
5 *450:25 *543:B 17.2 
*END

*D_NET *451 0.000633154
*CONN
*I *545:D I *D AND4x1_ASAP7_75t_R
*I *685:A1 I *D OA21x2_ASAP7_75t_R
*I *683:A1 I *D OA211x2_ASAP7_75t_R
*I *747:A I *D INVx1_ASAP7_75t_R
*I *1013:Y O *D BUFx3_ASAP7_75t_R
*CAP
1 *545:D 0
2 *685:A1 8.64742e-06
3 *683:A1 0
4 *747:A 0
5 *1013:Y 1.48682e-05
6 *451:51 1.89829e-05
7 *451:45 4.00607e-05
8 *451:39 4.7836e-05
9 *451:33 4.83046e-05
10 *451:25 2.09395e-05
11 *451:16 3.46531e-05
12 *451:10 7.10227e-05
13 *451:8 4.31973e-05
14 *685:A1 *461:197 2.30873e-06
15 *451:10 *475:20 3.05118e-08
16 *451:10 *481:8 5.37866e-07
17 *451:25 *545:B 1.94746e-05
18 *451:25 *465:6 2.61188e-06
19 *451:33 *545:B 9.30483e-06
20 *451:39 *482:147 1.70708e-06
21 *451:45 *461:197 2.77053e-05
22 *451:51 *462:68 2.12481e-06
23 *451:51 *482:147 0
24 *683:A2 *451:51 1.70136e-05
25 *684:B *451:39 2.20493e-06
26 *685:A2 *685:A1 1.35684e-06
27 *959:A *451:39 6.78445e-06
28 *16:8 *451:10 1.30409e-05
29 *32:8 *451:25 9.30483e-06
30 *32:12 *451:16 1.55085e-05
31 *132:8 *451:25 3.65131e-06
32 *187:28 *451:51 3.56177e-06
33 *191:12 *685:A1 1.87026e-05
34 *191:12 *451:51 1.66977e-05
35 *193:12 *451:51 0
36 *211:166 *451:33 7.90851e-06
37 *231:28 *451:39 1.04475e-06
38 *232:8 *451:33 0
39 *232:8 *451:39 0
40 *233:10 *451:39 0
41 *288:10 *451:10 3.80569e-05
42 *341:8 *685:A1 0
43 *434:6 *451:8 6.70433e-06
44 *434:10 *451:10 2.71304e-05
45 *434:10 *451:16 9.29587e-06
46 *434:12 *451:16 7.02605e-06
47 *441:20 *451:10 0
48 *448:14 *451:16 1.3842e-05
*RES
1 *1013:Y *451:8 41.3527 
2 *451:8 *451:10 29.2846 
3 *451:10 *451:16 41.4408 
4 *451:16 *747:A 17.2 
5 *451:10 *451:25 26.292 
6 *451:25 *451:33 43.8321 
7 *451:33 *451:39 35.5258 
8 *451:39 *451:45 44.5617 
9 *451:45 *451:51 33.1067 
10 *451:51 *683:A1 17.2 
11 *451:45 *685:A1 42.2276 
12 *451:25 *545:D 17.2 
*END

*D_NET *452 0.000384919
*CONN
*I *680:A2 I *D OA33x2_ASAP7_75t_R
*I *746:B2 I *D OA222x2_ASAP7_75t_R
*I *1014:Y O *D BUFx3_ASAP7_75t_R
*CAP
1 *680:A2 1.62038e-05
2 *746:B2 0
3 *1014:Y 0
4 *452:20 1.72991e-05
5 *452:14 4.43651e-05
6 *452:8 3.68589e-05
7 *452:6 2.59968e-05
8 *680:A2 *680:A1 2.88806e-06
9 *680:A2 *461:132 0
10 *680:A2 *511:6 1.29186e-06
11 *452:8 *462:14 3.59323e-06
12 *452:8 *462:37 2.05154e-05
13 *452:8 *463:172 7.84037e-07
14 *452:8 *487:16 3.15056e-05
15 *452:8 *487:22 4.83862e-06
16 *452:8 *511:10 0
17 *452:14 *506:106 1.43509e-05
18 *452:20 *461:56 0
19 *452:20 *461:132 0
20 *452:20 *482:216 1.95129e-06
21 *746:A2 *452:20 7.36575e-06
22 *746:B1 *452:20 5.62196e-06
23 *746:C2 *452:20 2.03526e-06
24 *1024:A *452:8 1.31727e-05
25 *75:10 *680:A2 1.10181e-05
26 *75:10 *452:20 8.71771e-07
27 *223:10 *452:20 1.89962e-06
28 *223:16 *452:20 3.31686e-06
29 *224:14 *452:8 7.48349e-05
30 *229:8 *452:20 2.28376e-05
31 *274:18 *680:A2 5.07332e-06
32 *274:18 *452:20 5.34815e-06
33 *429:12 *452:14 9.08065e-06
34 *449:66 *452:20 0
*RES
1 *1014:Y *452:6 34.4 
2 *452:6 *452:8 34.0715 
3 *452:8 *452:14 40.6767 
4 *452:14 *452:20 33.0518 
5 *452:20 *746:B2 17.2 
6 *452:14 *680:A2 46.1396 
*END

*D_NET *453 0.00038016
*CONN
*I *751:B2 I *D OA222x2_ASAP7_75t_R
*I *698:B I *D AND3x1_ASAP7_75t_R
*I *1015:Y O *D BUFx3_ASAP7_75t_R
*CAP
1 *751:B2 1.51306e-06
2 *698:B 3.57396e-05
3 *1015:Y 1.16142e-05
4 *453:22 6.14755e-05
5 *453:18 3.84738e-05
6 *453:10 3.24982e-05
7 *453:8 2.98614e-05
8 *698:B *483:45 1.46265e-05
9 *698:B *484:80 7.14604e-06
10 *698:B *484:86 4.24124e-05
11 *751:B2 *485:26 2.12481e-06
12 *453:10 *485:26 3.49765e-05
13 *453:10 *489:56 0
14 *453:18 *751:A1 1.95129e-06
15 *453:18 *485:26 0
16 *453:22 *464:70 1.16088e-06
17 *453:22 *484:96 4.45472e-06
18 *707:B *453:22 7.76918e-07
19 *61:20 *453:10 1.99307e-05
20 *105:20 *751:B2 5.62196e-06
21 *105:20 *453:18 1.44167e-06
22 *107:20 *453:22 1.73917e-06
23 *147:16 *453:18 6.97852e-07
24 *147:16 *453:22 9.94583e-06
25 *274:70 *453:18 1.06372e-06
26 *274:74 *453:10 9.07093e-06
27 *274:74 *453:18 3.36331e-07
28 *291:20 *453:8 8.146e-06
29 *291:20 *453:10 1.07573e-06
30 *424:10 *453:10 2.83874e-07
*RES
1 *1015:Y *453:8 40.2831 
2 *453:8 *453:10 19.7108 
3 *453:10 *453:18 41.0163 
4 *453:18 *453:22 38.6003 
5 *453:22 *698:B 46.6154 
6 *453:10 *751:B2 36.0045 
*END

*D_NET *454 0.000282298
*CONN
*I *709:A1 I *D OA21x2_ASAP7_75t_R
*I *754:B2 I *D OA222x2_ASAP7_75t_R
*I *1016:Y O *D BUFx3_ASAP7_75t_R
*CAP
1 *709:A1 3.39192e-05
2 *754:B2 1.78745e-06
3 *1016:Y 0
4 *454:35 4.45836e-05
5 *454:16 1.6362e-05
6 *454:12 3.1108e-05
7 *454:6 2.71978e-05
8 *454:12 *710:A 2.83874e-07
9 *454:12 *754:A1 5.62196e-06
10 *454:12 *464:80 0
11 *454:12 *471:14 2.38044e-05
12 *454:12 *484:102 9.8079e-06
13 *454:12 *484:121 5.29476e-05
14 *454:16 *484:138 0
15 *454:35 *471:14 7.58265e-07
16 *454:35 *484:138 0
17 *454:35 *489:62 1.31716e-05
18 *708:C *709:A1 1.07377e-06
19 *709:B *709:A1 1.07377e-06
20 *754:B1 *754:B2 5.85387e-06
21 *754:B1 *454:12 5.85387e-06
22 *754:B1 *454:35 6.83133e-07
23 *147:12 *454:12 0
24 *147:217 *454:12 0
25 *274:74 *454:16 4.83862e-06
26 *369:14 *454:12 1.56713e-06
27 *369:14 *454:35 0
*RES
1 *1016:Y *454:6 34.4 
2 *454:6 *454:12 45.553 
3 *454:12 *454:16 20.0158 
4 *454:16 *754:B2 36.0045 
5 *454:16 *454:35 43.269 
6 *454:35 *709:A1 47.7706 
*END

*D_NET *455 0.00025203
*CONN
*I *713:A1 I *D OA21x2_ASAP7_75t_R
*I *755:B2 I *D OA222x2_ASAP7_75t_R
*I *1017:Y O *D BUFx3_ASAP7_75t_R
*CAP
1 *713:A1 0
2 *755:B2 0
3 *1017:Y 6.71542e-06
4 *455:37 2.54485e-05
5 *455:22 4.16612e-06
6 *455:14 4.56401e-05
7 *455:8 2.27409e-05
8 *455:14 *809:CLK 5.66862e-06
9 *455:14 *484:140 3.81217e-05
10 *455:37 *492:71 4.74168e-07
11 *53:28 *455:14 9.37165e-06
12 *53:28 *455:37 3.51397e-05
13 *147:230 *455:14 2.35515e-05
14 *147:230 *455:22 1.03167e-05
15 *253:45 *455:37 9.29598e-06
16 *274:314 *455:22 3.33004e-06
17 *294:30 *455:8 1.59615e-06
18 *295:22 *455:22 3.90258e-06
19 *295:22 *455:37 3.15342e-06
20 *347:26 *455:37 2.41791e-06
21 *442:8 *455:22 3.06518e-07
22 *442:14 *455:37 6.72662e-07
*RES
1 *1017:Y *455:8 37.0741 
2 *455:8 *455:14 32.3536 
3 *455:14 *455:22 38.9425 
4 *455:22 *755:B2 17.2 
5 *455:14 *455:37 46.7103 
6 *455:37 *713:A1 17.2 
*END

*D_NET *456 0.000132073
*CONN
*I *756:B2 I *D OA222x2_ASAP7_75t_R
*I *715:B I *D AND3x1_ASAP7_75t_R
*I *1018:Y O *D BUFx3_ASAP7_75t_R
*CAP
1 *756:B2 2.00718e-06
2 *715:B 0
3 *1018:Y 0
4 *456:27 2.66256e-05
5 *456:12 3.24975e-05
6 *456:6 5.7116e-05
7 *456:12 *715:C 1.61096e-06
8 *456:12 *756:A1 4.7643e-07
9 *456:12 *464:88 1.02842e-06
10 *456:12 *484:163 1.49407e-08
11 *456:27 *756:A1 5.16409e-06
12 *456:27 *464:88 3.05118e-08
13 *147:230 *456:27 1.12894e-06
14 *257:10 *456:12 2.8275e-06
15 *371:12 *456:27 1.54461e-06
*RES
1 *1018:Y *456:6 34.4 
2 *456:6 *456:12 34.4561 
3 *456:12 *715:B 17.2 
4 *456:6 *456:27 47.5476 
5 *456:27 *756:B2 35.4697 
*END

*D_NET *457 0.000315872
*CONN
*I *757:B2 I *D OA222x2_ASAP7_75t_R
*I *719:B I *D AND3x1_ASAP7_75t_R
*I *1019:Y O *D BUFx3_ASAP7_75t_R
*CAP
1 *757:B2 0
2 *719:B 0
3 *1019:Y 1.52038e-05
4 *457:41 5.05154e-06
5 *457:33 4.08252e-05
6 *457:24 6.36105e-06
7 *457:16 4.46277e-05
8 *457:10 8.92441e-05
9 *457:10 *464:114 3.44002e-05
10 *457:10 *464:118 2.12481e-06
11 *457:16 *464:103 2.0917e-07
12 *457:16 *464:114 1.81935e-05
13 *457:16 *483:74 2.90209e-08
14 *457:24 *464:103 0
15 *457:24 *483:74 7.55605e-06
16 *457:41 *489:96 3.09749e-06
17 *757:B1 *457:41 3.46317e-06
18 *147:230 *457:16 0
19 *147:242 *457:41 3.09749e-06
20 *258:14 *457:16 1.49407e-08
21 *260:8 *457:16 3.0471e-06
22 *261:6 *457:33 0
23 *274:306 *457:33 5.0551e-07
24 *274:306 *457:41 2.03526e-06
25 *358:14 *457:33 4.2449e-06
26 *359:8 *457:10 1.35859e-05
27 *359:8 *457:16 7.84037e-07
28 *372:14 *457:33 1.81703e-05
*RES
1 *1019:Y *457:10 48.9006 
2 *457:10 *457:16 41.9473 
3 *457:16 *457:24 38.8203 
4 *457:24 *719:B 17.2 
5 *457:10 *457:33 33.7796 
6 *457:33 *457:41 39.89 
7 *457:41 *757:B2 17.2 
*END

*D_NET *458 0.000158974
*CONN
*I *725:A1 I *D OA21x2_ASAP7_75t_R
*I *758:B2 I *D OA222x2_ASAP7_75t_R
*I *1020:Y O *D BUFx3_ASAP7_75t_R
*CAP
1 *725:A1 2.99943e-05
2 *758:B2 0
3 *1020:Y 1.58469e-05
4 *458:14 6.64568e-06
5 *458:6 5.24869e-05
6 *725:A1 *758:C1 3.89037e-06
7 *458:6 *484:231 1.41135e-05
8 *458:6 *484:244 1.28817e-05
9 *458:14 *484:244 8.07251e-06
10 *758:B1 *458:14 1.95129e-06
11 *262:20 *458:14 7.31605e-06
12 *274:273 *725:A1 0
13 *274:281 *725:A1 5.77516e-06
*RES
1 *1020:Y *458:6 26.292 
2 *458:6 *458:14 39.3551 
3 *458:14 *758:B2 17.2 
4 *458:6 *725:A1 30.5706 
*END

*D_NET *459 0.000236008
*CONN
*I *730:A1 I *D OA22x2_ASAP7_75t_R
*I *760:B2 I *D OA222x2_ASAP7_75t_R
*I *1021:Y O *D BUFx3_ASAP7_75t_R
*CAP
1 *730:A1 0
2 *760:B2 5.11227e-06
3 *1021:Y 1.13511e-05
4 *459:29 5.98283e-06
5 *459:12 4.71327e-05
6 *459:6 5.93544e-05
7 *459:6 *728:A 4.32502e-06
8 *459:6 *760:C1 9.52454e-06
9 *459:12 *760:C1 5.39143e-05
10 *459:29 *730:A2 1.44639e-06
11 *459:29 *464:130 1.27953e-05
12 *760:B1 *760:B2 7.14604e-06
13 *760:B1 *459:12 2.25196e-06
14 *49:23 *459:12 2.39622e-06
15 *274:273 *760:B2 5.25794e-06
16 *274:273 *459:12 3.6736e-06
17 *350:33 *459:29 4.34288e-06
*RES
1 *1021:Y *459:6 23.0831 
2 *459:6 *459:12 38.7914 
3 *459:12 *760:B2 39.2134 
4 *459:6 *459:29 39.975 
5 *459:29 *730:A1 17.2 
*END

*D_NET *460 0.000374854
*CONN
*I *735:A1 I *D OA22x2_ASAP7_75t_R
*I *762:B2 I *D OA222x2_ASAP7_75t_R
*I *1022:Y O *D BUFx3_ASAP7_75t_R
*CAP
1 *735:A1 0
2 *762:B2 0
3 *1022:Y 6.8163e-06
4 *460:40 5.61722e-06
5 *460:32 3.55815e-05
6 *460:26 6.625e-05
7 *460:22 4.01819e-05
8 *460:14 3.48269e-05
9 *460:8 3.7747e-05
10 *460:8 *1022:A 1.25483e-05
11 *460:14 *1063:A 1.99326e-05
12 *460:14 *498:8 0
13 *762:A2 *460:32 1.25483e-05
14 *762:A2 *460:40 5.62196e-06
15 *87:10 *460:26 2.6409e-06
16 *159:8 *460:32 0
17 *159:8 *460:40 1.34466e-06
18 *272:12 *460:14 0
19 *352:33 *460:26 2.27303e-05
20 *361:14 *460:14 0
21 *375:10 *460:32 7.04658e-05
*RES
1 *1022:Y *460:8 38.1438 
2 *460:8 *460:14 36.3511 
3 *460:14 *460:22 36.6615 
4 *460:22 *460:26 41.2671 
5 *460:26 *460:32 44.5967 
6 *460:32 *460:40 38.8203 
7 *460:40 *762:B2 17.2 
8 *460:22 *735:A1 17.2 
*END

*D_NET *461 0.00274664
*CONN
*I *684:A1 I *D AO21x1_ASAP7_75t_R
*I *734:A1 I *D AO221x2_ASAP7_75t_R
*I *733:A I *D NOR2x1_ASAP7_75t_R
*I *680:A1 I *D OA33x2_ASAP7_75t_R
*I *665:A1 I *D AO21x1_ASAP7_75t_R
*I *690:A1 I *D AO21x1_ASAP7_75t_R
*I *695:A1 I *D AO21x1_ASAP7_75t_R
*I *661:A1 I *D AO21x1_ASAP7_75t_R
*I *679:A1 I *D AO21x1_ASAP7_75t_R
*I *567:A2 I *D AO221x1_ASAP7_75t_R
*I *1023:Y O *D BUFx3_ASAP7_75t_R
*CAP
1 *684:A1 0
2 *734:A1 1.84084e-06
3 *733:A 1.10063e-05
4 *680:A1 2.61353e-06
5 *665:A1 1.46257e-05
6 *690:A1 1.34947e-05
7 *695:A1 3.81267e-06
8 *661:A1 0
9 *679:A1 7.16489e-06
10 *567:A2 1.55683e-06
11 *1023:Y 4.73469e-05
12 *461:197 9.68036e-06
13 *461:189 6.37122e-05
14 *461:174 0.000101852
15 *461:172 4.59791e-05
16 *461:163 3.57736e-05
17 *461:155 5.36617e-05
18 *461:151 9.11514e-05
19 *461:140 8.61441e-06
20 *461:132 8.21712e-05
21 *461:110 2.28403e-05
22 *461:102 2.87656e-05
23 *461:85 7.96649e-05
24 *461:83 6.26838e-05
25 *461:77 4.95718e-05
26 *461:66 3.01158e-05
27 *461:60 0.000158064
28 *461:58 0.000156642
29 *461:56 3.91245e-05
30 *461:54 3.84407e-05
31 *461:35 3.21223e-05
32 *461:31 2.63941e-05
33 *461:18 3.00141e-05
34 *461:10 2.95406e-05
35 *461:6 6.30965e-05
36 *680:A1 *511:6 2.71839e-06
37 *461:54 *463:12 1.49407e-08
38 *461:56 *463:12 3.21546e-06
39 *461:60 *506:106 0.000315147
40 *461:140 *462:79 3.80397e-05
41 *461:163 *463:133 8.2174e-07
42 *461:174 *466:16 1.16088e-06
43 *461:174 *506:131 2.19629e-06
44 *461:189 *463:141 0
45 *461:189 *482:149 6.31106e-05
46 *461:189 *506:131 2.68933e-07
47 *567:B1 *461:10 2.7665e-05
48 *665:A2 *461:85 3.05118e-08
49 *677:C *461:151 1.97634e-05
50 *679:A2 *679:A1 6.7842e-07
51 *680:A2 *680:A1 2.88806e-06
52 *680:A2 *461:132 0
53 *685:A1 *461:197 2.30873e-06
54 *734:C *734:A1 7.14604e-06
55 *743:A2 *665:A1 5.85387e-06
56 *958:A *461:6 1.76928e-06
57 *958:A *461:10 1.6528e-05
58 *972:A *461:56 1.63901e-05
59 *1045:A *461:35 6.44983e-06
60 *1059:A *461:155 6.7842e-07
61 *1059:A *461:163 2.52755e-07
62 *3:12 *461:31 5.1735e-05
63 *14:10 *461:110 0
64 *14:18 *461:102 2.63006e-07
65 *14:18 *461:110 0
66 *14:30 *461:102 1.39843e-05
67 *20:8 *461:54 5.19552e-07
68 *22:12 *461:56 0
69 *27:41 *461:85 0
70 *37:6 *461:83 1.99018e-05
71 *38:37 *461:60 1.09094e-05
72 *39:26 *461:151 0
73 *44:12 *461:151 0
74 *44:35 *461:151 3.16603e-06
75 *75:10 *461:132 0
76 *106:8 *461:10 4.45472e-06
77 *106:16 *461:18 3.97187e-06
78 *106:16 *461:31 6.97416e-06
79 *106:25 *461:31 7.39043e-05
80 *106:25 *461:56 0
81 *136:10 *461:85 0
82 *140:14 *461:60 0
83 *143:10 *679:A1 8.23647e-06
84 *143:10 *461:54 1.48539e-05
85 *143:10 *461:56 3.61626e-06
86 *144:29 *567:A2 1.52651e-06
87 *145:10 *679:A1 5.19552e-07
88 *145:10 *461:35 6.7842e-07
89 *147:89 *461:60 0
90 *147:97 *461:77 1.27344e-05
91 *147:108 *665:A1 1.91241e-06
92 *147:108 *461:77 9.11384e-07
93 *147:108 *461:85 2.942e-05
94 *147:123 *461:85 3.53647e-05
95 *147:127 *461:85 3.63611e-05
96 *147:127 *461:102 2.05883e-06
97 *147:142 *461:102 0
98 *147:161 *690:A1 1.66921e-05
99 *157:61 *461:163 1.26378e-06
100 *173:10 *461:174 1.10561e-06
101 *174:14 *461:174 1.19708e-05
102 *175:19 *461:174 2.06408e-06
103 *178:10 *461:151 1.30731e-05
104 *180:14 *461:174 2.48464e-06
105 *182:14 *461:174 3.33491e-05
106 *185:10 *461:132 2.68812e-07
107 *185:10 *461:151 4.37752e-06
108 *185:21 *461:151 2.19878e-05
109 *207:10 *461:56 1.04358e-06
110 *207:44 *461:56 0
111 *210:10 *461:132 5.60929e-06
112 *210:58 *461:132 6.76763e-07
113 *210:58 *461:151 1.1479e-05
114 *214:6 *461:77 5.19552e-07
115 *214:14 *461:60 1.32556e-05
116 *220:8 *461:85 0
117 *220:16 *461:77 0
118 *230:18 *461:18 5.47487e-06
119 *230:39 *461:163 0
120 *242:6 *695:A1 0
121 *270:14 *733:A 7.72307e-07
122 *270:14 *461:174 0
123 *271:10 *461:174 8.1685e-06
124 *273:16 *461:83 1.53057e-06
125 *274:12 *461:151 2.32753e-05
126 *274:18 *461:140 3.04043e-06
127 *274:18 *461:151 0
128 *274:234 *461:151 3.62256e-05
129 *274:242 *461:155 6.7842e-07
130 *275:6 *665:A1 6.7842e-07
131 *275:12 *665:A1 8.04009e-06
132 *286:8 *665:A1 2.62957e-06
133 *286:8 *461:77 5.52807e-07
134 *339:39 *461:85 1.56881e-06
135 *361:14 *734:A1 1.95129e-06
136 *361:14 *461:189 7.31606e-07
137 *364:8 *679:A1 2.35266e-06
138 *364:8 *461:31 0
139 *377:12 *461:18 3.6736e-06
140 *377:12 *461:31 1.9489e-05
141 *378:10 *461:10 1.25006e-05
142 *396:8 *461:10 6.33206e-07
143 *410:10 *461:140 2.68255e-06
144 *411:8 *461:110 2.21053e-06
145 *415:8 *461:56 1.95276e-06
146 *415:8 *461:132 3.79933e-06
147 *415:8 *461:151 1.20147e-05
148 *415:12 *461:155 4.92332e-06
149 *429:12 *461:140 3.78656e-05
150 *438:21 *690:A1 0
151 *438:21 *461:110 1.96925e-06
152 *449:40 *461:56 1.3359e-05
153 *449:66 *461:56 4.67528e-05
154 *451:45 *461:197 2.77053e-05
155 *452:20 *461:56 0
156 *452:20 *461:132 0
*RES
1 *1023:Y *461:6 40.1975 
2 *461:6 *461:10 36.0661 
3 *461:10 *461:18 40.1367 
4 *461:18 *567:A2 35.4697 
5 *461:18 *461:31 44.232 
6 *461:31 *461:35 24.1527 
7 *461:35 *679:A1 39.89 
8 *461:35 *461:54 42.7058 
9 *461:54 *461:56 26.7504 
10 *461:56 *461:58 17.2 
11 *461:58 *461:60 68.6108 
12 *461:60 *461:66 35.2447 
13 *461:66 *661:A1 17.2 
14 *461:66 *461:77 37.3323 
15 *461:77 *461:83 40.2831 
16 *461:83 *461:85 50.1218 
17 *461:85 *695:A1 36.0045 
18 *461:85 *461:102 49.4071 
19 *461:102 *461:110 41.0163 
20 *461:110 *690:A1 47.3528 
21 *461:77 *665:A1 46.1415 
22 *461:56 *461:132 11.0756 
23 *461:132 *461:140 41.7092 
24 *461:140 *680:A1 36.5393 
25 *461:132 *461:151 59.0386 
26 *461:151 *461:155 34.8492 
27 *461:155 *461:163 46.3079 
28 *461:163 *733:A 22.0134 
29 *461:163 *461:172 17.2 
30 *461:172 *461:174 36.6058 
31 *461:174 *734:A1 36.5393 
32 *461:174 *461:189 44.364 
33 *461:189 *461:197 43.8019 
34 *461:197 *684:A1 17.2 
*END

*D_NET *462 0.00232782
*CONN
*I *670:C I *D AND3x1_ASAP7_75t_R
*I *732:B I *D OA21x2_ASAP7_75t_R
*I *727:B I *D OA21x2_ASAP7_75t_R
*I *702:B I *D OA21x2_ASAP7_75t_R
*I *683:B I *D OA211x2_ASAP7_75t_R
*I *680:A3 I *D OA33x2_ASAP7_75t_R
*I *561:A I *D AND3x1_ASAP7_75t_R
*I *1024:Y O *D BUFx3_ASAP7_75t_R
*CAP
1 *670:C 3.10391e-06
2 *732:B 2.21479e-06
3 *727:B 6.80182e-06
4 *702:B 7.62805e-06
5 *683:B 0
6 *680:A3 1.77057e-06
7 *561:A 0
8 *1024:Y 0
9 *462:148 1.73363e-05
10 *462:140 8.04838e-05
11 *462:125 2.386e-05
12 *462:112 3.15796e-05
13 *462:104 4.64229e-05
14 *462:102 3.71231e-05
15 *462:98 6.98463e-05
16 *462:83 4.75505e-05
17 *462:79 5.25785e-05
18 *462:68 2.70443e-05
19 *462:62 3.24009e-05
20 *462:56 4.2648e-05
21 *462:54 3.72914e-05
22 *462:52 3.80187e-05
23 *462:37 0.000117806
24 *462:30 3.79222e-06
25 *462:22 5.71363e-05
26 *462:16 8.5982e-05
27 *462:14 1.7775e-05
28 *462:4 8.40264e-05
29 *670:C *499:12 5.51397e-07
30 *680:A3 *511:6 3.90258e-06
31 *732:B *466:20 2.20493e-06
32 *462:14 *482:20 1.33301e-05
33 *462:22 *463:16 1.01801e-05
34 *462:22 *482:20 5.14601e-06
35 *462:37 *487:16 5.23776e-05
36 *462:37 *487:22 5.23062e-06
37 *462:52 *486:15 0
38 *462:52 *487:16 1.5054e-05
39 *462:68 *482:141 5.55315e-06
40 *462:83 *473:44 1.64694e-05
41 *462:98 *506:85 1.63876e-05
42 *462:102 *488:24 1.18996e-06
43 *462:112 *488:28 0
44 *462:140 *742:C1 1.52651e-06
45 *462:140 *491:14 0
46 *462:148 *482:35 5.91696e-05
47 *462:148 *482:41 1.23321e-06
48 *462:148 *482:50 1.0023e-05
49 *627:A2 *462:56 2.24088e-05
50 *727:A2 *727:B 7.57325e-06
51 *732:A2 *462:125 4.97876e-07
52 *742:A2 *462:140 1.68903e-05
53 *742:B2 *462:140 2.11853e-06
54 *1024:A *462:22 1.43399e-05
55 *1024:A *462:37 3.04043e-06
56 *39:26 *462:52 0
57 *47:12 *462:112 3.05118e-08
58 *113:41 *462:98 2.6575e-06
59 *114:10 *462:98 1.80057e-06
60 *119:16 *462:98 7.1989e-07
61 *120:8 *462:98 4.70574e-06
62 *120:23 *462:83 2.29436e-05
63 *120:23 *462:98 5.2852e-05
64 *130:26 *462:52 5.48616e-06
65 *131:30 *462:83 1.1211e-07
66 *135:14 *462:79 2.03479e-05
67 *139:101 *462:102 1.2232e-05
68 *147:57 *462:22 0.000100409
69 *147:72 *462:22 3.63794e-05
70 *157:53 *462:112 0
71 *160:27 *727:B 5.41446e-06
72 *160:29 *462:112 1.93613e-05
73 *160:29 *462:125 4.31093e-06
74 *160:33 *462:102 5.45769e-06
75 *160:52 *462:125 8.35078e-07
76 *166:12 *462:102 1.54963e-05
77 *171:26 *462:125 5.79724e-07
78 *172:17 *462:102 0
79 *184:14 *462:62 5.09299e-06
80 *187:12 *462:56 0
81 *187:12 *462:68 1.49407e-08
82 *187:20 *462:68 3.47607e-06
83 *187:28 *462:68 5.52807e-07
84 *189:12 *462:56 1.31716e-05
85 *206:10 *462:140 3.17029e-06
86 *208:39 *462:22 0
87 *211:126 *462:79 9.51221e-05
88 *225:14 *462:52 1.94229e-07
89 *227:8 *462:52 1.82419e-05
90 *228:12 *462:52 0
91 *266:8 *727:B 6.53466e-06
92 *270:14 *462:125 1.38949e-06
93 *274:105 *462:14 1.31689e-05
94 *274:120 *462:148 6.81435e-05
95 *274:246 *462:112 1.07096e-05
96 *274:246 *462:125 5.19085e-06
97 *287:18 *462:22 4.61889e-06
98 *287:18 *462:37 2.98545e-05
99 *352:10 *462:125 3.16931e-06
100 *378:39 *462:30 5.85387e-06
101 *404:22 *462:30 5.31192e-06
102 *409:16 *702:B 2.01215e-05
103 *410:10 *462:37 5.41851e-06
104 *410:10 *462:52 3.12807e-06
105 *410:18 *462:52 2.86248e-05
106 *410:26 *462:52 1.82177e-06
107 *410:26 *462:56 1.13054e-05
108 *410:26 *462:68 0
109 *410:40 *462:125 3.12189e-06
110 *410:81 *462:56 2.20028e-06
111 *416:62 *462:112 5.07985e-07
112 *417:30 *462:98 3.88563e-07
113 *429:12 *462:79 5.62007e-05
114 *432:10 *462:102 5.3263e-06
115 *432:10 *462:125 2.62067e-05
116 *432:21 *462:102 1.37455e-06
117 *433:16 *462:98 7.3624e-05
118 *433:26 *462:102 2.94034e-05
119 *435:8 *462:56 2.59286e-06
120 *435:16 *462:56 4.58188e-06
121 *435:70 *462:56 5.61417e-06
122 *439:18 *462:102 1.95993e-06
123 *439:18 *462:125 0
124 *439:77 *462:98 1.49407e-08
125 *444:18 *462:56 3.88472e-05
126 *444:33 *462:56 1.84022e-05
127 *445:35 *462:56 5.21188e-05
128 *449:50 *462:30 5.20324e-06
129 *449:79 *462:37 1.70708e-06
130 *451:51 *462:68 2.12481e-06
131 *452:8 *462:14 3.59323e-06
132 *452:8 *462:37 2.05154e-05
133 *461:140 *462:79 3.80397e-05
*RES
1 *1024:Y *462:4 17.2 
2 *462:4 *462:14 43.8841 
3 *462:14 *462:16 17.2 
4 *462:16 *462:22 45.4274 
5 *462:22 *462:30 37.7878 
6 *462:30 *561:A 17.2 
7 *462:16 *462:37 38.2014 
8 *462:37 *680:A3 35.4697 
9 *462:37 *462:52 44.7279 
10 *462:52 *462:54 17.2 
11 *462:54 *462:56 43.0822 
12 *462:56 *462:62 38.1438 
13 *462:62 *462:68 35.6144 
14 *462:68 *683:B 17.2 
15 *462:37 *462:79 46.852 
16 *462:79 *462:83 25.1782 
17 *462:83 *702:B 40.2831 
18 *462:83 *462:98 49.4209 
19 *462:98 *462:102 49.3005 
20 *462:102 *462:104 17.2 
21 *462:104 *462:112 45.5189 
22 *462:112 *727:B 23.0831 
23 *462:104 *462:125 34.8802 
24 *462:125 *732:B 36.0045 
25 *462:4 *462:140 47.8356 
26 *462:140 *462:148 46.9037 
27 *462:148 *670:C 36.0045 
*END

*D_NET *463 0.00344992
*CONN
*I *667:A2 I *D OA21x2_ASAP7_75t_R
*I *663:A2 I *D OA21x2_ASAP7_75t_R
*I *735:A2 I *D OA22x2_ASAP7_75t_R
*I *705:A2 I *D OA22x2_ASAP7_75t_R
*I *730:A2 I *D OA22x2_ASAP7_75t_R
*I *725:A2 I *D OA21x2_ASAP7_75t_R
*I *713:A2 I *D OA21x2_ASAP7_75t_R
*I *709:A2 I *D OA21x2_ASAP7_75t_R
*I *1025:Y O *D BUFx3_ASAP7_75t_R
*CAP
1 *667:A2 4.71819e-06
2 *663:A2 2.50424e-06
3 *735:A2 2.11982e-06
4 *705:A2 3.82584e-06
5 *730:A2 2.38621e-06
6 *725:A2 0
7 *713:A2 0
8 *709:A2 0
9 *1025:Y 0
10 *463:207 5.24409e-05
11 *463:205 5.9673e-05
12 *463:188 4.05039e-05
13 *463:182 3.17061e-05
14 *463:176 4.30883e-05
15 *463:172 5.32802e-05
16 *463:164 6.59569e-05
17 *463:149 1.90362e-05
18 *463:141 5.90223e-05
19 *463:139 4.74931e-05
20 *463:133 7.92211e-05
21 *463:131 8.1909e-05
22 *463:125 2.89688e-05
23 *463:106 2.68037e-05
24 *463:95 2.90115e-05
25 *463:84 1.32321e-05
26 *463:78 4.39676e-05
27 *463:74 7.11598e-05
28 *463:72 6.70495e-05
29 *463:65 1.22414e-05
30 *463:55 4.30184e-05
31 *463:49 4.27371e-05
32 *463:34 1.84017e-05
33 *463:30 7.92328e-05
34 *463:28 7.82633e-05
35 *463:22 4.98765e-05
36 *463:18 6.15891e-05
37 *463:16 6.91912e-05
38 *463:12 7.80475e-05
39 *463:8 3.06788e-05
40 *463:4 5.68302e-05
41 *463:18 *488:8 1.34786e-05
42 *463:22 *489:23 0
43 *463:22 *506:91 2.85559e-05
44 *463:30 *492:41 3.98339e-05
45 *463:30 *506:91 0.000126701
46 *463:34 *472:29 1.85107e-05
47 *463:49 *472:29 1.46856e-05
48 *463:55 *472:29 2.45482e-05
49 *463:55 *485:112 1.28841e-05
50 *463:55 *485:123 4.75371e-06
51 *463:74 *721:A2 0
52 *463:74 *469:16 1.09575e-05
53 *463:74 *479:14 0
54 *463:74 *489:117 2.21272e-06
55 *463:74 *506:18 4.16243e-05
56 *463:74 *506:35 1.64671e-05
57 *463:78 *464:126 3.44591e-05
58 *463:95 *464:126 0.000123612
59 *463:95 *467:24 0
60 *463:125 *483:108 1.10419e-06
61 *463:125 *506:91 1.40818e-05
62 *463:131 *500:14 7.72307e-07
63 *463:131 *500:22 1.44639e-06
64 *463:133 *506:87 2.50711e-05
65 *463:133 *506:121 2.04995e-05
66 *463:164 *482:16 0
67 *463:188 *491:8 2.12481e-06
68 *463:188 *491:14 0
69 *463:205 *491:14 0
70 *463:205 *499:20 2.03526e-06
71 *625:B *463:141 6.89377e-06
72 *667:A1 *667:A2 3.67067e-06
73 *709:B *463:49 2.71839e-06
74 *713:B *463:65 1.1118e-05
75 *725:B *463:74 0
76 *725:B *463:84 6.6876e-06
77 *740:B *463:133 4.31541e-05
78 *1024:A *463:172 6.10236e-08
79 *1053:A *463:176 6.64487e-05
80 *1053:A *463:188 6.53938e-06
81 *22:14 *463:16 8.85171e-07
82 *22:14 *463:22 0
83 *36:10 *463:182 1.94317e-06
84 *36:25 *463:207 0
85 *36:33 *667:A2 2.20493e-06
86 *43:10 *463:141 4.88258e-05
87 *44:18 *463:133 8.45637e-06
88 *52:22 *463:74 2.45085e-06
89 *55:10 *463:65 1.12997e-05
90 *55:10 *463:74 9.80968e-07
91 *58:12 *463:34 1.18996e-06
92 *58:12 *463:49 1.98924e-06
93 *70:25 *463:207 4.06224e-06
94 *72:8 *663:A2 7.63254e-07
95 *72:12 *463:205 9.54673e-06
96 *72:12 *463:207 5.11792e-05
97 *82:8 *463:55 4.43846e-06
98 *83:8 *463:74 7.11252e-08
99 *84:18 *463:74 1.23321e-06
100 *100:8 *463:74 6.2751e-07
101 *109:10 *463:28 1.23835e-05
102 *109:18 *463:28 2.68255e-06
103 *122:29 *463:133 2.01079e-05
104 *124:12 *463:133 4.70422e-06
105 *131:30 *463:125 1.24454e-05
106 *133:22 *463:207 5.28509e-06
107 *139:18 *463:207 0
108 *139:22 *667:A2 3.16328e-06
109 *145:22 *463:164 3.81335e-05
110 *145:22 *463:172 3.22044e-06
111 *147:47 *463:16 3.25311e-05
112 *147:57 *463:16 4.98688e-07
113 *147:72 *463:172 2.18921e-06
114 *154:14 *463:28 6.69035e-06
115 *157:16 *463:22 1.25301e-05
116 *157:16 *463:30 1.59164e-05
117 *157:61 *463:133 3.59323e-06
118 *157:65 *463:133 3.84098e-06
119 *157:65 *463:141 2.57437e-05
120 *158:38 *463:133 0
121 *174:18 *463:141 7.8519e-06
122 *180:22 *463:141 3.05118e-08
123 *181:20 *463:139 1.66706e-05
124 *183:10 *463:139 1.29186e-06
125 *185:6 *463:131 8.146e-06
126 *206:10 *463:205 9.59451e-06
127 *206:10 *463:207 6.96781e-06
128 *206:14 *463:188 1.04475e-06
129 *206:22 *463:188 6.81991e-06
130 *207:10 *463:12 8.03941e-05
131 *208:16 *463:16 1.77231e-05
132 *208:39 *463:16 2.69748e-05
133 *211:30 *463:55 1.60761e-06
134 *211:76 *463:95 0
135 *213:8 *463:12 1.12894e-06
136 *215:10 *463:205 1.12894e-06
137 *215:10 *463:207 9.23589e-05
138 *230:39 *463:141 0
139 *247:14 *463:18 3.28739e-05
140 *247:14 *463:106 8.49118e-06
141 *247:14 *463:125 9.17584e-06
142 *250:10 *463:34 1.54792e-06
143 *259:12 *463:74 1.15945e-06
144 *271:10 *463:133 2.75338e-05
145 *271:10 *463:141 0
146 *272:12 *463:141 1.45123e-05
147 *272:12 *463:149 3.06142e-05
148 *274:28 *463:16 0
149 *274:292 *463:74 0
150 *277:6 *463:131 2.70479e-05
151 *277:22 *463:125 8.35078e-07
152 *277:33 *463:125 2.98961e-07
153 *277:39 *463:16 2.07852e-05
154 *277:56 *463:131 9.08513e-06
155 *278:8 *463:182 9.93076e-07
156 *295:10 *463:55 1.53657e-05
157 *295:10 *463:74 0
158 *295:39 *463:74 0
159 *297:24 *463:74 2.13376e-07
160 *297:24 *463:84 0
161 *337:29 *463:182 8.90818e-07
162 *346:39 *463:30 4.0776e-06
163 *348:14 *463:74 1.10964e-06
164 *349:35 *463:74 4.73194e-06
165 *350:6 *730:A2 3.81627e-06
166 *350:20 *463:78 3.47403e-05
167 *350:20 *463:95 9.48505e-05
168 *350:33 *463:95 2.48762e-06
169 *361:14 *463:141 0
170 *361:14 *463:149 4.31787e-06
171 *364:8 *463:12 2.93171e-05
172 *407:16 *463:18 6.78803e-05
173 *407:16 *463:106 9.95439e-06
174 *407:16 *463:125 1.05397e-05
175 *417:18 *463:133 3.29471e-05
176 *429:12 *463:125 8.02187e-06
177 *433:41 *463:133 1.02842e-06
178 *436:8 *463:182 6.33206e-07
179 *442:20 *463:74 5.30784e-06
180 *445:8 *463:172 0
181 *445:56 *463:133 1.83502e-06
182 *449:12 *463:207 0
183 *452:8 *463:172 7.84037e-07
184 *459:29 *730:A2 1.44639e-06
185 *461:54 *463:12 1.49407e-08
186 *461:56 *463:12 3.21546e-06
187 *461:163 *463:133 8.2174e-07
188 *461:189 *463:141 0
189 *462:22 *463:16 1.01801e-05
*RES
1 *1025:Y *463:4 17.2 
2 *463:4 *463:8 19.8741 
3 *463:8 *463:12 48.0803 
4 *463:12 *463:16 43.6054 
5 *463:16 *463:18 23.0898 
6 *463:18 *463:22 33.2164 
7 *463:22 *463:28 39.4685 
8 *463:28 *463:30 34.1972 
9 *463:30 *463:34 23.4887 
10 *463:34 *709:A2 34.4 
11 *463:34 *463:49 42.1426 
12 *463:49 *463:55 43.4137 
13 *463:55 *463:65 43.6904 
14 *463:65 *713:A2 17.2 
15 *463:55 *463:72 17.2 
16 *463:72 *463:74 52.0929 
17 *463:74 *463:78 22.8274 
18 *463:78 *463:84 42.5659 
19 *463:84 *725:A2 17.2 
20 *463:78 *463:95 38.6064 
21 *463:95 *730:A2 37.0741 
22 *463:18 *463:106 3.47286 
23 *463:106 *705:A2 36.0045 
24 *463:106 *463:125 49.1242 
25 *463:125 *463:131 44.5617 
26 *463:131 *463:133 71.5221 
27 *463:133 *463:139 39.2134 
28 *463:139 *463:141 38.2953 
29 *463:141 *463:149 48.2808 
30 *463:149 *735:A2 35.4697 
31 *463:4 *463:164 48.367 
32 *463:164 *463:172 43.7342 
33 *463:172 *463:176 36.9885 
34 *463:176 *463:182 38.3422 
35 *463:182 *463:188 35.4691 
36 *463:188 *663:A2 36.0045 
37 *463:188 *463:205 42.7058 
38 *463:205 *463:207 46.1796 
39 *463:207 *667:A2 38.6786 
*END

*D_NET *464 0.00210504
*CONN
*I *704:A1 I *D AO221x2_ASAP7_75t_R
*I *941:A I *D BUFx2_ASAP7_75t_R
*I *707:A1 I *D AO21x1_ASAP7_75t_R
*I *711:A1 I *D AO21x1_ASAP7_75t_R
*I *723:A1 I *D AO21x1_ASAP7_75t_R
*I *729:A1 I *D AO221x2_ASAP7_75t_R
*I *728:A I *D NOR2x1_ASAP7_75t_R
*I *720:A1 I *D AO21x1_ASAP7_75t_R
*I *716:A1 I *D AO21x1_ASAP7_75t_R
*I *699:A1 I *D AO21x1_ASAP7_75t_R
*I *703:A I *D NOR2x1_ASAP7_75t_R
*I *1026:Y O *D BUFx3_ASAP7_75t_R
*CAP
1 *704:A1 1.89513e-06
2 *941:A 0
3 *707:A1 0
4 *711:A1 0
5 *723:A1 0
6 *729:A1 0
7 *728:A 1.12121e-05
8 *720:A1 0
9 *716:A1 2.54104e-05
10 *699:A1 1.88635e-06
11 *703:A 2.27052e-06
12 *1026:Y 1.11401e-05
13 *464:180 1.12855e-05
14 *464:172 4.86039e-05
15 *464:145 2.61062e-05
16 *464:130 4.68751e-05
17 *464:126 6.91626e-05
18 *464:124 6.15341e-05
19 *464:118 9.2932e-06
20 *464:114 3.33677e-05
21 *464:103 6.35569e-05
22 *464:88 0.000106556
23 *464:82 4.35918e-05
24 *464:80 6.29719e-05
25 *464:78 9.06577e-05
26 *464:74 3.23103e-05
27 *464:70 2.1113e-05
28 *464:62 5.31351e-05
29 *464:56 5.70878e-05
30 *464:43 5.00493e-05
31 *464:37 3.10558e-05
32 *464:33 4.92744e-05
33 *464:29 4.94964e-05
34 *464:23 5.24148e-05
35 *464:19 9.41377e-05
36 *464:8 1.9476e-05
37 *699:A1 *483:43 3.65131e-06
38 *703:A *473:10 5.62196e-06
39 *728:A *760:C1 5.85387e-06
40 *464:19 *473:10 3.79923e-06
41 *464:23 *492:8 0
42 *464:33 *973:A 2.28976e-06
43 *464:43 *483:43 3.05118e-07
44 *464:80 *562:A 1.32244e-05
45 *464:80 *483:49 1.32421e-05
46 *464:80 *483:59 0
47 *464:88 *483:59 0
48 *464:88 *483:74 0
49 *464:88 *484:153 0
50 *464:103 *756:A1 0
51 *464:103 *483:74 0
52 *464:114 *479:52 0
53 *464:114 *484:208 0
54 *464:114 *484:225 0
55 *464:114 *484:231 0
56 *464:124 *484:231 4.94008e-06
57 *464:126 *479:44 0
58 *464:126 *479:52 0
59 *464:126 *506:62 1.10955e-06
60 *464:126 *509:14 1.35855e-05
61 *464:130 *488:34 1.88168e-06
62 *464:130 *509:10 2.9349e-06
63 *464:172 *473:10 5.04414e-06
64 *464:172 *489:8 1.01223e-05
65 *464:172 *489:14 5.55243e-05
66 *464:172 *504:12 1.54581e-05
67 *577:A1 *464:33 1.121e-05
68 *577:B *464:23 2.94057e-06
69 *704:C *704:A1 6.7842e-07
70 *707:B *464:62 0
71 *707:B *464:70 4.30517e-07
72 *716:A2 *464:103 0
73 *716:B *716:A1 3.68287e-06
74 *720:B *464:114 5.79724e-07
75 *723:A2 *464:118 2.31575e-05
76 *771:A *728:A 3.34039e-05
77 *984:A *464:33 2.4256e-05
78 *12:10 *464:56 1.31289e-05
79 *23:10 *464:56 4.63162e-07
80 *48:18 *464:172 6.10236e-08
81 *48:18 *464:180 8.33296e-06
82 *53:36 *464:88 0
83 *104:6 *464:88 1.07377e-06
84 *105:14 *464:62 2.35969e-05
85 *107:10 *464:8 0
86 *107:10 *464:19 0
87 *107:10 *464:172 0
88 *107:14 *464:70 1.82344e-05
89 *113:22 *464:172 1.27445e-05
90 *118:8 *464:8 0
91 *127:10 *464:37 8.45637e-06
92 *127:10 *464:43 0
93 *147:12 *464:80 6.04134e-06
94 *147:22 *464:74 5.19552e-07
95 *147:22 *464:78 5.0551e-07
96 *147:217 *464:80 1.77579e-05
97 *147:217 *464:88 0
98 *158:70 *464:103 1.93482e-06
99 *208:28 *464:23 7.72307e-07
100 *208:28 *464:172 4.34937e-06
101 *244:10 *699:A1 9.08513e-06
102 *244:10 *464:43 0
103 *245:10 *464:56 0
104 *247:18 *464:172 1.09067e-06
105 *250:10 *464:62 3.05118e-08
106 *257:10 *464:88 0
107 *258:14 *464:103 0
108 *265:14 *464:130 2.98814e-08
109 *265:14 *464:145 1.15044e-06
110 *267:24 *464:145 3.68558e-06
111 *292:12 *464:172 3.22044e-06
112 *292:20 *464:172 1.45252e-05
113 *293:10 *464:56 3.90551e-06
114 *293:22 *464:70 0
115 *295:28 *464:88 9.80084e-07
116 *298:6 *728:A 1.95129e-06
117 *350:20 *464:126 1.52617e-05
118 *350:33 *464:130 8.43401e-07
119 *350:33 *464:145 8.98242e-06
120 *358:14 *464:103 3.16328e-06
121 *358:14 *464:114 5.22376e-07
122 *359:8 *464:114 2.19685e-06
123 *359:8 *464:124 0
124 *360:16 *464:126 7.4187e-05
125 *360:38 *464:145 2.72756e-05
126 *371:12 *716:A1 3.3139e-06
127 *372:14 *464:114 0
128 *374:12 *464:126 3.02352e-06
129 *379:8 *464:33 2.0895e-06
130 *390:8 *464:88 0
131 *414:10 *464:56 0
132 *420:8 *464:33 3.65131e-06
133 *420:22 *464:56 3.05118e-08
134 *422:10 *464:33 6.6195e-06
135 *423:8 *464:29 7.75665e-06
136 *428:8 *464:172 5.17179e-05
137 *428:8 *464:180 8.58704e-06
138 *453:22 *464:70 1.16088e-06
139 *454:12 *464:80 0
140 *456:12 *464:88 1.02842e-06
141 *456:27 *464:88 3.05118e-08
142 *457:10 *464:114 3.44002e-05
143 *457:10 *464:118 2.12481e-06
144 *457:16 *464:103 2.0917e-07
145 *457:16 *464:114 1.81935e-05
146 *457:24 *464:103 0
147 *459:6 *728:A 4.32502e-06
148 *459:29 *464:130 1.27953e-05
149 *463:78 *464:126 3.44591e-05
150 *463:95 *464:126 0.000123612
*RES
1 *1026:Y *464:8 42.2843 
2 *464:8 *703:A 36.0045 
3 *464:8 *464:19 4.50533 
4 *464:19 *464:23 36.9885 
5 *464:23 *464:29 37.2158 
6 *464:29 *464:33 49.8243 
7 *464:33 *464:37 20.0158 
8 *464:37 *464:43 33.1067 
9 *464:43 *699:A1 37.0741 
10 *464:43 *464:56 32.4055 
11 *464:56 *464:62 38.021 
12 *464:62 *464:70 43.0078 
13 *464:70 *464:74 19.8741 
14 *464:74 *464:78 33.7796 
15 *464:78 *464:80 59.6956 
16 *464:80 *464:82 17.2 
17 *464:82 *464:88 44.6534 
18 *464:88 *716:A1 45.6313 
19 *464:88 *464:103 38.9367 
20 *464:103 *720:A1 17.2 
21 *464:103 *464:114 39.0501 
22 *464:114 *464:118 24.1527 
23 *464:118 *464:124 36.1834 
24 *464:124 *464:126 41.3397 
25 *464:126 *464:130 24.9905 
26 *464:130 *728:A 44.5617 
27 *464:130 *464:145 39.0501 
28 *464:145 *729:A1 17.2 
29 *464:118 *723:A1 17.2 
30 *464:82 *711:A1 17.2 
31 *464:74 *707:A1 17.2 
32 *464:37 *941:A 17.2 
33 *464:19 *464:172 48.4323 
34 *464:172 *464:180 39.89 
35 *464:180 *704:A1 35.4697 
*END

*D_NET *465 0.000322537
*CONN
*I *688:A I *D INVx1_ASAP7_75t_R
*I *545:C I *D AND4x1_ASAP7_75t_R
*I *1027:Y O *D BUFx3_ASAP7_75t_R
*CAP
1 *688:A 0
2 *545:C 0
3 *1027:Y 0
4 *465:17 2.74257e-05
5 *465:6 8.92157e-05
6 *465:4 0.000116641
7 *465:6 *545:B 1.03556e-05
8 *465:17 *475:33 4.3871e-05
9 *974:A *465:6 3.05302e-06
10 *1027:A *465:6 1.02506e-06
11 *25:35 *465:17 1.25655e-06
12 *31:22 *465:6 5.41446e-06
13 *32:8 *465:6 2.66797e-07
14 *236:10 *465:17 4.01931e-06
15 *342:12 *465:17 9.53483e-06
16 *421:8 *465:6 0
17 *440:12 *465:17 7.84567e-06
18 *451:25 *465:6 2.61188e-06
*RES
1 *1027:Y *465:4 17.2 
2 *465:4 *465:6 38.5074 
3 *465:6 *545:C 17.2 
4 *465:4 *465:17 40.1481 
5 *465:17 *688:A 34.4 
*END

*D_NET *466 0.000643459
*CONN
*I *731:A I *D NOR2x1_ASAP7_75t_R
*I *545:A I *D AND4x1_ASAP7_75t_R
*I *732:A1 I *D OA21x2_ASAP7_75t_R
*I *761:A I *D INVx1_ASAP7_75t_R
*I *1028:Y O *D BUFx3_ASAP7_75t_R
*CAP
1 *731:A 0
2 *545:A 3.55285e-06
3 *732:A1 0
4 *761:A 4.62567e-06
5 *1028:Y 0
6 *466:69 4.73918e-05
7 *466:54 2.23619e-05
8 *466:46 5.21605e-05
9 *466:26 2.51938e-05
10 *466:20 5.65451e-05
11 *466:16 5.80746e-05
12 *466:10 7.06696e-05
13 *466:6 6.26123e-05
14 *466:16 *482:149 2.47986e-05
15 *466:26 *762:C1 6.50212e-06
16 *466:26 *479:138 2.28009e-05
17 *466:46 *482:147 6.41585e-07
18 *466:46 *482:149 2.72806e-05
19 *732:B *466:20 2.20493e-06
20 *762:B1 *466:26 8.37185e-06
21 *159:8 *466:26 0
22 *188:10 *466:10 1.32106e-05
23 *193:12 *466:10 0
24 *193:12 *466:69 0
25 *194:10 *466:10 0
26 *194:10 *466:69 0
27 *196:14 *466:10 1.25675e-06
28 *230:68 *466:69 0
29 *231:20 *466:46 4.61286e-07
30 *269:6 *466:69 1.1364e-05
31 *271:10 *466:16 2.68255e-06
32 *283:8 *466:26 6.76305e-06
33 *299:25 *466:69 0
34 *375:10 *466:26 3.79846e-05
35 *410:30 *466:16 3.74363e-05
36 *410:30 *466:46 2.44397e-05
37 *437:72 *466:10 7.06615e-06
38 *437:72 *466:69 1.09842e-06
39 *439:18 *466:26 2.74606e-06
40 *461:174 *466:16 1.16088e-06
*RES
1 *1028:Y *466:6 34.4 
2 *466:6 *466:10 30.6221 
3 *466:10 *466:16 32.9503 
4 *466:16 *466:20 35.9189 
5 *466:20 *466:26 41.2744 
6 *466:26 *761:A 36.0045 
7 *466:20 *732:A1 17.2 
8 *466:10 *466:46 35.7352 
9 *466:46 *466:54 45.2382 
10 *466:54 *545:A 36.5393 
11 *466:6 *466:69 48.3122 
12 *466:69 *731:A 17.2 
*END

*D_NET *467 0.000759631
*CONN
*I *726:A I *D NOR2x1_ASAP7_75t_R
*I *759:A I *D INVx1_ASAP7_75t_R
*I *727:A1 I *D OA21x2_ASAP7_75t_R
*I *547:A I *D AND4x1_ASAP7_75t_R
*I *1029:Y O *D BUFx3_ASAP7_75t_R
*CAP
1 *726:A 0
2 *759:A 1.38503e-05
3 *727:A1 1.16223e-05
4 *547:A 6.24904e-06
5 *1029:Y 0
6 *467:58 4.27378e-05
7 *467:52 5.53989e-05
8 *467:46 5.09397e-05
9 *467:24 5.58308e-05
10 *467:18 6.45435e-05
11 *467:10 4.58965e-05
12 *467:6 4.37409e-05
13 *547:A *547:B 2.03526e-06
14 *547:A *547:C 6.7842e-07
15 *467:52 *479:128 0
16 *582:B *467:46 2.20493e-06
17 *584:A1 *467:18 5.85387e-06
18 *607:A *467:10 0
19 *46:12 *467:46 1.12894e-06
20 *46:25 *467:10 1.34329e-05
21 *46:25 *467:46 1.53071e-05
22 *50:8 *467:24 5.88556e-06
23 *157:89 *467:18 9.93857e-06
24 *159:8 *467:10 0
25 *160:14 *727:A1 6.7842e-07
26 *160:14 *467:18 2.71368e-06
27 *160:27 *727:A1 8.146e-06
28 *211:76 *467:24 1.94886e-06
29 *230:51 *467:46 3.31915e-05
30 *265:8 *467:46 5.37337e-06
31 *265:8 *467:52 5.72934e-06
32 *265:14 *467:52 3.32771e-06
33 *266:14 *467:10 0
34 *282:8 *759:A 5.17782e-06
35 *349:14 *467:24 3.9652e-05
36 *350:33 *467:52 0
37 *350:39 *759:A 6.7842e-07
38 *350:39 *467:58 1.02506e-06
39 *416:62 *467:10 3.62817e-05
40 *425:49 *467:10 7.59152e-05
41 *425:49 *467:18 1.22148e-06
42 *425:49 *467:46 2.86166e-05
43 *427:26 *467:24 5.9896e-06
44 *431:31 *467:18 0
45 *431:46 *467:46 6.6206e-06
46 *443:52 *467:24 5.0068e-05
47 *463:95 *467:24 0
*RES
1 *1029:Y *467:6 34.4 
2 *467:6 *467:10 43.1056 
3 *467:10 *467:18 43.3061 
4 *467:18 *467:24 37.9725 
5 *467:24 *547:A 37.609 
6 *467:10 *727:A1 23.6179 
7 *467:6 *467:46 41.8906 
8 *467:46 *467:52 35.0229 
9 *467:52 *467:58 47.7706 
10 *467:58 *759:A 44.1686 
11 *467:46 *726:A 17.2 
*END

*D_NET *468 0.000510547
*CONN
*I *547:B I *D AND4x1_ASAP7_75t_R
*I *722:A I *D INVx1_ASAP7_75t_R
*I *1030:Y O *D BUFx3_ASAP7_75t_R
*CAP
1 *547:B 1.07278e-05
2 *722:A 0
3 *1030:Y 0
4 *468:31 3.78972e-05
5 *468:29 3.49406e-05
6 *468:23 3.10432e-05
7 *468:12 1.05177e-05
8 *468:6 7.21667e-05
9 *468:4 8.49211e-05
10 *468:12 *479:93 0
11 *468:31 *509:10 0
12 *547:A *547:B 2.03526e-06
13 *985:A *468:31 3.05118e-08
14 *50:8 *468:31 6.10236e-08
15 *51:12 *468:29 1.04475e-06
16 *51:12 *468:31 6.49851e-05
17 *51:20 *468:23 3.13426e-06
18 *56:49 *468:31 0
19 *102:10 *468:23 2.34615e-05
20 *211:76 *468:31 1.06791e-06
21 *211:92 *468:23 1.02359e-06
22 *211:92 *468:31 4.80936e-06
23 *351:43 *547:B 5.41446e-06
24 *351:45 *468:23 1.692e-05
25 *351:45 *468:31 0.000100053
26 *427:8 *468:23 1.95129e-06
27 *427:12 *468:31 2.34033e-06
*RES
1 *1030:Y *468:4 17.2 
2 *468:4 *468:6 35.8333 
3 *468:6 *468:12 42.2843 
4 *468:12 *722:A 17.2 
5 *468:4 *468:23 35.246 
6 *468:23 *468:29 37.0741 
7 *468:29 *468:31 35.4795 
8 *468:31 *547:B 40.2831 
*END

*D_NET *469 0.000324448
*CONN
*I *547:C I *D AND4x1_ASAP7_75t_R
*I *718:A I *D INVx1_ASAP7_75t_R
*I *1031:Y O *D BUFx3_ASAP7_75t_R
*CAP
1 *547:C 2.69447e-06
2 *718:A 0
3 *1031:Y 1.11775e-06
4 *469:39 3.7715e-05
5 *469:33 4.23891e-05
6 *469:20 8.59205e-06
7 *469:16 1.70005e-05
8 *469:8 1.68947e-05
9 *469:8 *479:14 5.35569e-06
10 *469:16 *479:10 1.79289e-07
11 *469:20 *493:14 5.62196e-06
12 *469:33 *493:14 1.12561e-05
13 *469:33 *506:18 1.39134e-05
14 *547:A *547:C 6.7842e-07
15 *50:8 *469:39 3.17029e-06
16 *83:8 *469:8 2.1301e-06
17 *83:8 *469:16 2.26336e-05
18 *158:64 *469:39 2.90144e-05
19 *259:12 *469:20 5.62196e-06
20 *259:12 *469:33 1.32196e-05
21 *259:29 *469:33 1.08196e-05
22 *349:14 *469:39 4.29225e-05
23 *412:51 *469:16 3.14406e-06
24 *425:12 *469:16 1.41217e-05
25 *427:26 *469:39 3.2842e-06
26 *463:74 *469:16 1.09575e-05
*RES
1 *1031:Y *469:8 36.1834 
2 *469:8 *469:16 47.9503 
3 *469:16 *469:20 18.8045 
4 *469:20 *718:A 17.2 
5 *469:20 *469:33 43.1184 
6 *469:33 *469:39 37.0339 
7 *469:39 *547:C 35.4697 
*END

*D_NET *470 0.000562786
*CONN
*I *548:A I *D AND5x1_ASAP7_75t_R
*I *714:A I *D INVx1_ASAP7_75t_R
*I *1032:Y O *D BUFx3_ASAP7_75t_R
*CAP
1 *548:A 0
2 *714:A 4.54412e-06
3 *1032:Y 3.35842e-06
4 *470:45 4.1944e-05
5 *470:43 4.4979e-05
6 *470:37 2.30705e-05
7 *470:18 3.52173e-05
8 *470:12 5.07087e-05
9 *470:10 3.69882e-05
10 *470:8 4.03466e-05
11 *470:10 *472:14 1.44003e-06
12 *470:10 *492:45 1.26641e-06
13 *470:10 *492:58 5.06565e-06
14 *470:18 *484:140 0
15 *470:18 *489:68 8.87763e-06
16 *470:37 *492:58 0
17 *470:43 *472:29 9.25072e-06
18 *470:45 *471:33 2.26211e-05
19 *775:B *470:45 4.50106e-05
20 *55:10 *470:10 5.18443e-06
21 *55:10 *470:37 7.49254e-06
22 *55:10 *470:43 0
23 *58:8 *470:45 1.02506e-06
24 *58:25 *470:45 5.19552e-07
25 *97:8 *470:10 5.79724e-07
26 *211:30 *470:43 1.1211e-07
27 *211:36 *470:37 7.29552e-06
28 *251:10 *470:10 8.55381e-05
29 *253:18 *470:18 1.2903e-05
30 *256:8 *714:A 2.52755e-07
31 *291:14 *470:8 2.12481e-06
32 *294:26 *470:37 3.16603e-07
33 *294:26 *470:45 4.6097e-05
34 *294:30 *470:18 1.27347e-05
35 *294:30 *470:37 2.12481e-06
36 *346:39 *470:37 0
37 *347:26 *470:37 0
38 *369:6 *714:A 2.96818e-06
39 *424:18 *470:10 8.27594e-07
*RES
1 *1032:Y *470:8 36.0045 
2 *470:8 *470:10 34.3531 
3 *470:10 *470:12 17.2 
4 *470:12 *470:18 34.0063 
5 *470:18 *714:A 37.609 
6 *470:12 *470:37 45.0068 
7 *470:37 *470:43 37.4974 
8 *470:43 *470:45 35.8333 
9 *470:45 *548:A 17.2 
*END

*D_NET *471 0.000521138
*CONN
*I *548:B I *D AND5x1_ASAP7_75t_R
*I *710:A I *D INVx1_ASAP7_75t_R
*I *1033:Y O *D BUFx3_ASAP7_75t_R
*CAP
1 *548:B 0
2 *710:A 8.863e-06
3 *1033:Y 1.29173e-05
4 *471:33 3.22505e-05
5 *471:29 6.17597e-05
6 *471:14 7.85162e-05
7 *471:10 9.91624e-05
8 *471:8 1.29173e-05
9 *710:A *484:121 0
10 *710:A *484:138 0
11 *471:8 *472:29 1.4814e-05
12 *471:14 *792:CLK 9.33789e-06
13 *471:14 *489:56 1.44167e-06
14 *471:14 *489:62 3.81627e-06
15 *471:29 *792:CLK 2.12481e-06
16 *471:29 *485:101 7.20837e-06
17 *754:B1 *471:14 7.63254e-07
18 *775:B *471:33 3.41939e-05
19 *61:31 *471:29 3.28775e-05
20 *79:18 *471:8 7.84037e-07
21 *147:217 *710:A 7.71949e-06
22 *157:22 *471:29 3.88115e-06
23 *250:14 *471:14 1.54461e-06
24 *253:10 *710:A 3.13755e-07
25 *294:20 *471:33 1.27255e-05
26 *412:8 *471:29 8.58704e-06
27 *414:8 *471:29 2.05883e-06
28 *414:10 *471:8 2.43534e-06
29 *414:10 *471:29 2.06563e-05
30 *454:12 *710:A 2.83874e-07
31 *454:12 *471:14 2.38044e-05
32 *454:35 *471:14 7.58265e-07
33 *470:45 *471:33 2.26211e-05
*RES
1 *1033:Y *471:8 46.2265 
2 *471:8 *471:10 17.2 
3 *471:10 *471:14 49.8243 
4 *471:14 *710:A 43.4107 
5 *471:10 *471:29 43.8635 
6 *471:29 *471:33 45.0109 
7 *471:33 *548:B 17.2 
*END

*D_NET *472 0.000697589
*CONN
*I *548:C I *D AND5x1_ASAP7_75t_R
*I *706:A I *D INVx1_ASAP7_75t_R
*I *1034:Y O *D BUFx3_ASAP7_75t_R
*CAP
1 *548:C 0
2 *706:A 0
3 *1034:Y 4.94153e-05
4 *472:41 4.7223e-06
5 *472:33 7.52932e-05
6 *472:29 0.000109468
7 *472:22 3.54405e-05
8 *472:16 7.43371e-05
9 *472:14 2.33946e-05
10 *472:6 7.28099e-05
11 *472:22 *484:86 0
12 *472:29 *485:112 3.78469e-06
13 *472:33 *486:59 5.07619e-06
14 *472:33 *486:71 0
15 *548:E *472:41 5.62196e-06
16 *1032:A *472:6 9.16351e-06
17 *55:10 *472:14 7.98637e-06
18 *55:10 *472:29 0
19 *61:20 *472:6 2.11853e-06
20 *79:18 *472:29 5.82688e-07
21 *81:10 *472:29 9.76728e-06
22 *105:8 *472:22 2.31174e-05
23 *134:16 *472:41 2.68255e-06
24 *211:20 *472:33 3.59242e-05
25 *211:30 *472:29 3.55626e-07
26 *211:30 *472:33 0
27 *250:8 *472:22 3.81627e-06
28 *250:10 *472:22 6.34026e-06
29 *250:10 *472:29 8.46764e-06
30 *291:14 *472:14 1.58373e-06
31 *293:22 *472:22 7.47402e-07
32 *301:38 *472:22 5.90979e-06
33 *346:39 *472:33 0
34 *347:26 *472:33 0
35 *414:10 *472:29 0
36 *424:10 *472:6 0
37 *424:18 *472:14 4.93443e-06
38 *424:26 *472:14 2.37562e-05
39 *424:26 *472:29 7.72241e-06
40 *463:34 *472:29 1.85107e-05
41 *463:49 *472:29 1.46856e-05
42 *463:55 *472:29 2.45482e-05
43 *470:10 *472:14 1.44003e-06
44 *470:43 *472:29 9.25072e-06
45 *471:8 *472:29 1.4814e-05
*RES
1 *1034:Y *472:6 35.9189 
2 *472:6 *472:14 48.6172 
3 *472:14 *472:16 17.2 
4 *472:16 *472:22 44.5401 
5 *472:22 *706:A 17.2 
6 *472:16 *472:29 39.3278 
7 *472:29 *472:33 41.0082 
8 *472:33 *472:41 37.0369 
9 *472:41 *548:C 17.2 
*END

*D_NET *473 0.000975365
*CONN
*I *702:A1 I *D OA21x2_ASAP7_75t_R
*I *548:D I *D AND5x1_ASAP7_75t_R
*I *752:A I *D INVx1_ASAP7_75t_R
*I *701:A I *D NOR2x1_ASAP7_75t_R
*I *1035:Y O *D BUFx3_ASAP7_75t_R
*CAP
1 *702:A1 0
2 *548:D 2.02834e-05
3 *752:A 1.46195e-05
4 *701:A 4.01013e-06
5 *1035:Y 1.47621e-05
6 *473:70 8.16366e-05
7 *473:64 7.27691e-05
8 *473:56 1.34413e-05
9 *473:52 1.31542e-05
10 *473:44 4.95085e-05
11 *473:42 4.57962e-05
12 *473:31 3.85038e-05
13 *473:18 4.09742e-05
14 *473:10 3.52586e-05
15 *473:52 *488:20 8.01877e-06
16 *473:56 *488:20 2.03526e-06
17 *473:64 *488:20 6.7842e-07
18 *548:E *548:D 7.14604e-06
19 *580:A1 *473:70 1.80486e-06
20 *703:A *473:10 5.62196e-06
21 *995:A *473:64 1.32196e-05
22 *995:A *473:70 1.10279e-06
23 *1050:A *473:18 1.06947e-05
24 *21:31 *473:42 2.52755e-07
25 *109:29 *473:70 5.24059e-07
26 *110:30 *548:D 6.17507e-06
27 *110:30 *473:70 7.6161e-06
28 *113:35 *473:70 0
29 *116:28 *473:44 5.24622e-05
30 *116:43 *473:64 7.89306e-06
31 *119:8 *473:44 3.05118e-08
32 *119:31 *473:44 4.22247e-05
33 *131:30 *473:44 5.49212e-07
34 *135:8 *548:D 9.22553e-06
35 *135:8 *473:70 2.21643e-05
36 *247:8 *473:52 2.40241e-05
37 *247:18 *473:10 8.51183e-06
38 *249:12 *473:44 3.80761e-06
39 *277:33 *473:44 2.53695e-05
40 *277:41 *473:18 8.33296e-06
41 *277:41 *473:31 7.52073e-05
42 *281:6 *752:A 1.12561e-05
43 *292:58 *473:31 3.08767e-06
44 *292:58 *473:44 4.47542e-05
45 *407:12 *473:31 5.21824e-05
46 *407:12 *473:44 9.68449e-06
47 *407:16 *473:44 1.94229e-07
48 *409:16 *473:52 2.35847e-05
49 *428:16 *473:64 8.36476e-06
50 *430:27 *473:70 0
51 *439:57 *473:52 7.53304e-06
52 *462:83 *473:44 1.64694e-05
53 *464:19 *473:10 3.79923e-06
54 *464:172 *473:10 5.04414e-06
*RES
1 *1035:Y *473:10 44.9018 
2 *473:10 *473:18 47.3775 
3 *473:18 *701:A 36.0045 
4 *473:18 *473:31 43.1056 
5 *473:31 *752:A 23.0831 
6 *473:31 *473:42 19.8741 
7 *473:42 *473:44 46.7428 
8 *473:44 *473:52 46.3079 
9 *473:52 *473:56 18.8045 
10 *473:56 *473:64 43.0989 
11 *473:64 *473:70 40.9307 
12 *473:70 *548:D 47.2358 
13 *473:56 *702:A1 17.2 
*END

*D_NET *474 0.000679223
*CONN
*I *547:D I *D AND4x1_ASAP7_75t_R
*I *778:B I *D HAxp5_ASAP7_75t_R
*I *1036:Y O *D BUFx3_ASAP7_75t_R
*CAP
1 *547:D 0
2 *778:B 7.64905e-06
3 *1036:Y 0
4 *474:19 7.23745e-05
5 *474:8 9.55e-05
6 *474:6 1.54765e-05
7 *474:19 *496:16 0.000113997
8 *524:A1 *474:19 6.06983e-06
9 *778:A *778:B 1.95129e-06
10 *50:8 *474:19 2.58775e-05
11 *50:16 *474:19 1.3059e-05
12 *56:22 *474:19 7.24542e-06
13 *60:10 *474:19 4.83199e-06
14 *63:8 *474:19 3.05118e-08
15 *79:8 *474:19 9.94583e-06
16 *79:12 *778:B 2.66797e-07
17 *108:14 *474:19 2.53282e-06
18 *134:8 *474:19 2.93428e-06
19 *165:10 *474:19 2.30847e-05
20 *211:64 *474:19 9.07642e-06
21 *301:25 *474:8 5.37569e-06
22 *301:25 *474:19 8.36114e-06
23 *344:12 *474:8 9.8079e-06
24 *344:21 *474:8 5.33876e-05
25 *344:21 *474:19 2.0954e-05
26 *418:37 *474:19 8.06799e-07
27 *422:25 *474:8 4.71813e-05
28 *424:70 *474:19 0.000105331
29 *427:65 *474:19 1.61136e-05
*RES
1 *1036:Y *474:6 34.4 
2 *474:6 *474:8 21.4003 
3 *474:8 *778:B 38.1438 
4 *474:8 *474:19 87.2907 
5 *474:19 *547:D 34.4 
*END

*D_NET *475 0.00035346
*CONN
*I *693:A I *D INVx1_ASAP7_75t_R
*I *545:B I *D AND4x1_ASAP7_75t_R
*I *1037:Y O *D BUFx3_ASAP7_75t_R
*CAP
1 *693:A 1.14615e-05
2 *545:B 7.31725e-06
3 *1037:Y 2.7579e-06
4 *475:33 3.2196e-05
5 *475:20 3.80753e-05
6 *475:12 5.88445e-05
7 *475:6 5.15789e-05
8 *475:12 *482:171 2.93633e-06
9 *475:20 *482:125 0
10 *475:20 *482:171 2.00102e-05
11 *1037:A *475:12 6.6195e-06
12 *25:35 *475:33 1.30795e-06
13 *31:14 *475:33 0
14 *231:20 *475:20 1.40879e-06
15 *240:10 *475:33 0
16 *280:12 *475:12 1.99699e-05
17 *285:16 *475:20 0
18 *342:18 *475:6 1.35684e-06
19 *342:18 *475:12 6.7842e-07
20 *397:27 *475:12 7.98105e-06
21 *397:48 *475:12 5.09299e-06
22 *441:10 *475:12 8.29794e-07
23 *441:10 *475:33 0
24 *451:10 *475:20 3.05118e-08
25 *451:25 *545:B 1.94746e-05
26 *451:33 *545:B 9.30483e-06
27 *465:6 *545:B 1.03556e-05
28 *465:17 *475:33 4.3871e-05
*RES
1 *1037:Y *475:6 18.8045 
2 *475:6 *475:12 38.8676 
3 *475:12 *475:20 47.0914 
4 *475:20 *545:B 43.492 
5 *475:6 *475:33 34.6581 
6 *475:33 *693:A 40.8179 
*END

*D_NET *476 7.51995e-05
*CONN
*I *546:D I *D AND4x1_ASAP7_75t_R
*I *1038:Y O *D BUFx3_ASAP7_75t_R
*CAP
1 *546:D 0
2 *1038:Y 0
3 *476:10 3.34922e-05
4 *476:6 3.34922e-05
5 *476:10 *477:22 0
6 *476:10 *477:33 0
7 *70:10 *476:10 2.22736e-06
8 *70:25 *476:10 2.73059e-06
9 *215:10 *476:10 3.25708e-06
*RES
1 *1038:Y *476:6 34.4 
2 *476:6 *476:10 40.853 
3 *476:10 *546:D 17.2 
*END

*D_NET *477 0.000402185
*CONN
*I *744:A I *D INVx1_ASAP7_75t_R
*I *546:B I *D AND4x1_ASAP7_75t_R
*I *670:B I *D AND3x1_ASAP7_75t_R
*I *1039:Y O *D BUFx3_ASAP7_75t_R
*CAP
1 *744:A 4.26403e-06
2 *546:B 0
3 *670:B 0
4 *1039:Y 0
5 *477:41 6.91436e-06
6 *477:33 3.89211e-05
7 *477:22 3.02695e-05
8 *477:16 0.000140952
9 *477:12 9.72779e-05
10 *477:4 2.28663e-05
11 *477:22 *482:52 0
12 *477:22 *499:12 3.89037e-06
13 *477:22 *499:20 0
14 *477:33 *478:16 1.70116e-05
15 *477:33 *482:52 0
16 *70:6 *477:16 0
17 *70:25 *477:41 7.96698e-06
18 *74:8 *477:33 1.8372e-05
19 *133:10 *477:33 5.62196e-06
20 *133:10 *477:41 1.94229e-07
21 *220:20 *744:A 2.61188e-06
22 *220:20 *477:12 4.81235e-06
23 *221:10 *477:12 2.38727e-07
24 *476:10 *477:22 0
25 *476:10 *477:33 0
*RES
1 *1039:Y *477:4 17.2 
2 *477:4 *477:12 43.6621 
3 *477:12 *477:16 46.6154 
4 *477:16 *477:22 37.9805 
5 *477:22 *670:B 17.2 
6 *477:16 *477:33 36.3723 
7 *477:33 *477:41 38.8203 
8 *477:41 *546:B 17.2 
9 *477:4 *744:A 19.8741 
*END

*D_NET *478 0.000385149
*CONN
*I *664:A I *D INVx1_ASAP7_75t_R
*I *546:C I *D AND4x1_ASAP7_75t_R
*I *1040:Y O *D BUFx3_ASAP7_75t_R
*CAP
1 *664:A 1.6146e-05
2 *546:C 0
3 *1040:Y 2.41308e-05
4 *478:31 1.9795e-05
5 *478:25 5.56932e-05
6 *478:16 3.14032e-05
7 *478:10 0.000107578
8 *651:A *664:A 4.16292e-05
9 *785:D *478:25 0
10 *982:A *664:A 2.26183e-05
11 *982:A *478:25 5.85387e-06
12 *18:10 *664:A 3.51548e-06
13 *18:10 *478:25 0
14 *37:22 *478:31 3.05118e-08
15 *40:22 *478:10 9.14205e-06
16 *42:10 *478:31 4.83862e-06
17 *74:8 *478:16 3.16603e-06
18 *133:10 *478:16 3.04626e-06
19 *139:18 *478:10 3.88459e-07
20 *216:8 *664:A 1.05512e-05
21 *219:8 *478:10 4.13496e-06
22 *219:8 *478:16 3.08767e-06
23 *274:122 *478:31 1.38864e-06
24 *477:33 *478:16 1.70116e-05
*RES
1 *1040:Y *478:10 48.2241 
2 *478:10 *478:16 39.2732 
3 *478:16 *546:C 17.2 
4 *478:10 *478:25 38.0582 
5 *478:25 *478:31 37.2158 
6 *478:31 *664:A 32.7099 
*END

*D_NET *479 0.0016814
*CONN
*I *798:CLK I *D DFFHQNx1_ASAP7_75t_R
*I *814:CLK I *D DFFHQNx1_ASAP7_75t_R
*I *813:CLK I *D DFFHQNx1_ASAP7_75t_R
*I *797:CLK I *D DFFHQNx1_ASAP7_75t_R
*I *812:CLK I *D DFFHQNx1_ASAP7_75t_R
*I *796:CLK I *D DFFHQNx1_ASAP7_75t_R
*I *811:CLK I *D DFFHQNx1_ASAP7_75t_R
*I *795:CLK I *D DFFHQNx1_ASAP7_75t_R
*I *794:CLK I *D DFFHQNx1_ASAP7_75t_R
*I *810:CLK I *D DFFHQNx1_ASAP7_75t_R
*I *1041:Y O *D BUFx4_ASAP7_75t_R
*CAP
1 *798:CLK 1.41958e-05
2 *814:CLK 0
3 *813:CLK 4.62938e-06
4 *797:CLK 1.48805e-06
5 *812:CLK 0
6 *796:CLK 2.43817e-05
7 *811:CLK 0
8 *795:CLK 2.01981e-05
9 *794:CLK 2.23329e-05
10 *810:CLK 5.30011e-05
11 *1041:Y 6.51431e-05
12 *479:138 9.53135e-06
13 *479:132 0.000123842
14 *479:130 0.000100115
15 *479:128 2.71513e-05
16 *479:115 4.75322e-05
17 *479:102 1.72396e-05
18 *479:100 7.57994e-05
19 *479:93 0.000103813
20 *479:78 5.99248e-05
21 *479:67 1.22586e-05
22 *479:52 3.59151e-05
23 *479:44 5.56028e-05
24 *479:36 5.39708e-05
25 *479:14 6.80032e-05
26 *479:10 4.84982e-05
27 *479:8 2.99775e-05
28 *479:6 6.51431e-05
29 *810:CLK *484:157 3.09538e-06
30 *810:CLK *484:208 1.9131e-06
31 *479:6 *493:14 1.59615e-06
32 *479:10 *492:71 5.32236e-06
33 *479:10 *492:82 4.05756e-06
34 *479:10 *493:14 8.33296e-06
35 *479:14 *492:71 1.61209e-05
36 *479:36 *724:A2 3.16603e-07
37 *479:36 *489:117 2.30373e-06
38 *479:36 *492:82 3.45828e-06
39 *479:44 *489:100 9.54815e-06
40 *479:44 *489:117 1.91586e-05
41 *479:44 *506:35 5.34753e-06
42 *479:44 *506:62 7.5044e-07
43 *479:52 *484:225 1.40952e-06
44 *479:52 *484:231 2.05045e-06
45 *479:67 *484:225 6.80947e-07
46 *479:78 *489:117 2.6259e-05
47 *479:93 *489:117 1.18312e-05
48 *641:A *479:67 5.41446e-06
49 *810:D *810:CLK 0
50 *1031:A *794:CLK 4.26607e-06
51 *46:8 *479:132 0
52 *49:10 *479:100 3.29986e-06
53 *49:23 *479:100 1.51653e-06
54 *52:16 *479:6 0
55 *55:33 *479:6 2.11853e-06
56 *57:8 *479:6 1.81825e-05
57 *83:8 *479:10 3.05118e-08
58 *83:8 *479:14 2.68504e-06
59 *84:18 *479:36 1.777e-05
60 *84:18 *479:44 1.104e-05
61 *84:22 *795:CLK 6.2119e-05
62 *101:10 *479:93 0
63 *147:242 *479:67 2.25196e-06
64 *259:12 *479:6 2.05732e-05
65 *259:12 *479:10 5.15195e-07
66 *259:12 *479:36 3.05118e-08
67 *259:29 *479:6 5.85387e-06
68 *261:14 *479:36 1.72862e-05
69 *262:8 *479:93 6.10236e-07
70 *264:8 *796:CLK 0
71 *274:281 *479:93 0
72 *274:292 *479:36 4.42803e-05
73 *274:292 *479:78 2.52196e-05
74 *274:292 *479:93 1.64437e-05
75 *282:14 *797:CLK 5.09995e-06
76 *282:14 *479:115 4.09563e-05
77 *283:8 *479:138 2.29388e-05
78 *295:18 *479:14 3.40789e-06
79 *295:39 *479:6 5.62196e-06
80 *296:12 *479:67 6.44983e-06
81 *296:27 *479:67 1.3659e-05
82 *297:24 *796:CLK 1.07377e-06
83 *349:20 *479:44 1.09711e-06
84 *349:20 *479:52 2.55578e-06
85 *350:20 *479:36 2.32609e-06
86 *350:20 *479:78 1.00613e-06
87 *350:33 *479:128 5.19498e-06
88 *352:33 *479:138 0
89 *372:6 *795:CLK 9.38002e-06
90 *375:10 *479:138 7.54709e-06
91 *463:74 *479:14 0
92 *464:114 *479:52 0
93 *464:126 *479:44 0
94 *464:126 *479:52 0
95 *466:26 *479:138 2.28009e-05
96 *467:52 *479:128 0
97 *468:12 *479:93 0
98 *469:8 *479:14 5.35569e-06
99 *469:16 *479:10 1.79289e-07
*RES
1 *1041:Y *479:6 46.6154 
2 *479:6 *479:8 17.2 
3 *479:8 *479:10 9.01066 
4 *479:10 *479:14 31.8423 
5 *479:14 *810:CLK 38.593 
6 *479:10 *794:CLK 42.9572 
7 *479:8 *479:36 36.2925 
8 *479:36 *479:44 35.2861 
9 *479:44 *479:52 42.3893 
10 *479:52 *795:CLK 40.1975 
11 *479:44 *479:67 43.2671 
12 *479:67 *811:CLK 17.2 
13 *479:36 *479:78 26.7407 
14 *479:78 *796:CLK 44.0269 
15 *479:78 *479:93 36.2626 
16 *479:93 *812:CLK 17.2 
17 *479:93 *479:100 33.694 
18 *479:100 *479:102 17.2 
19 *479:102 *797:CLK 36.0895 
20 *479:102 *479:115 31.2792 
21 *479:115 *813:CLK 19.8741 
22 *479:115 *479:128 34.5128 
23 *479:128 *479:130 17.2 
24 *479:130 *479:132 39.0422 
25 *479:132 *479:138 47.916 
26 *479:138 *814:CLK 17.2 
27 *479:132 *798:CLK 23.0831 
*END

*D_NET *480 8.16431e-05
*CONN
*I *689:A I *D NAND2x1_ASAP7_75t_R
*I *1042:Y O *D BUFx3_ASAP7_75t_R
*CAP
1 *689:A 8.42499e-06
2 *1042:Y 1.50855e-05
3 *480:10 2.35105e-05
4 *788:CLK *689:A 4.55998e-06
5 *15:6 *689:A 1.00654e-05
6 *15:12 *480:10 3.04621e-06
7 *147:199 *480:10 4.69884e-06
8 *237:8 *480:10 9.75422e-06
9 *237:16 *480:10 2.4974e-06
10 *342:18 *480:10 0
*RES
1 *1042:Y *480:10 43.8321 
2 *480:10 *689:A 39.7482 
*END

*D_NET *481 7.76219e-05
*CONN
*I *687:A1 I *D AOI22x1_ASAP7_75t_R
*I *1043:Y O *D BUFx3_ASAP7_75t_R
*CAP
1 *687:A1 9.74998e-06
2 *1043:Y 5.77863e-06
3 *481:8 1.55286e-05
4 *1043:A *687:A1 1.5804e-05
5 *147:186 *687:A1 2.66207e-05
6 *288:10 *481:8 5.49212e-07
7 *397:10 *481:8 0
8 *441:20 *687:A1 3.05302e-06
9 *451:10 *481:8 5.37866e-07
*RES
1 *1043:Y *481:8 38.3422 
2 *481:8 *687:A1 45.6313 
*END

*D_NET *482 0.00268458
*CONN
*I *746:A1 I *D OA222x2_ASAP7_75t_R
*I *749:A1 I *D OA222x2_ASAP7_75t_R
*I *750:A1 I *D OA222x2_ASAP7_75t_R
*I *748:A1 I *D OA222x2_ASAP7_75t_R
*I *683:C I *D OA211x2_ASAP7_75t_R
*I *762:A1 I *D OA222x2_ASAP7_75t_R
*I *669:A I *D NOR2x1_ASAP7_75t_R
*I *743:A1 I *D OA222x2_ASAP7_75t_R
*I *745:A1 I *D OA222x2_ASAP7_75t_R
*I *670:A I *D AND3x1_ASAP7_75t_R
*I *742:A1 I *D OA222x2_ASAP7_75t_R
*I *1044:Y O *D BUFx3_ASAP7_75t_R
*CAP
1 *746:A1 0
2 *749:A1 3.9904e-06
3 *750:A1 3.30971e-06
4 *748:A1 0
5 *683:C 0
6 *762:A1 0
7 *669:A 0
8 *743:A1 0
9 *745:A1 3.45619e-06
10 *670:A 0
11 *742:A1 0
12 *1044:Y 3.37925e-06
13 *482:216 1.43523e-05
14 *482:208 3.91552e-05
15 *482:179 6.53998e-06
16 *482:171 4.1811e-05
17 *482:155 2.62733e-06
18 *482:149 9.31617e-05
19 *482:147 0.000100261
20 *482:141 2.79858e-05
21 *482:133 3.57157e-05
22 *482:125 8.5241e-05
23 *482:121 0.000127271
24 *482:115 4.82069e-05
25 *482:111 3.25501e-05
26 *482:105 2.73846e-05
27 *482:98 5.63436e-05
28 *482:94 9.01716e-05
29 *482:86 4.98624e-05
30 *482:78 4.53984e-05
31 *482:67 4.26305e-05
32 *482:52 9.11122e-05
33 *482:50 7.13768e-05
34 *482:41 3.36298e-06
35 *482:35 3.70867e-05
36 *482:28 7.31704e-06
37 *482:20 6.16376e-05
38 *482:16 0.000103738
39 *482:14 4.98257e-05
40 *482:12 6.78309e-05
41 *482:10 6.78309e-05
42 *482:8 3.37925e-06
43 *482:86 *487:98 5.38502e-07
44 *482:94 *487:98 0
45 *482:121 *486:43 6.68884e-07
46 *482:121 *513:12 0
47 *482:149 *488:28 9.10106e-07
48 *549:A2 *482:98 3.90258e-06
49 *552:A2 *482:94 4.0942e-06
50 *559:B *482:12 6.86929e-06
51 *683:A2 *482:141 0
52 *742:A2 *482:28 3.89037e-06
53 *743:B1 *482:67 7.36575e-06
54 *746:A2 *482:216 1.36155e-06
55 *746:C2 *482:216 9.30483e-06
56 *762:B1 *482:155 0
57 *768:A *482:67 3.16328e-06
58 *940:A *482:12 7.97634e-06
59 *4:12 *482:16 9.67723e-06
60 *5:12 *482:52 5.07403e-06
61 *18:10 *482:52 1.64809e-05
62 *22:6 *482:208 2.90209e-08
63 *25:26 *482:115 2.61531e-06
64 *25:35 *482:115 2.5115e-05
65 *26:23 *482:115 4.61397e-05
66 *26:35 *482:94 1.09168e-06
67 *26:35 *482:98 1.02895e-05
68 *27:41 *482:98 6.49184e-07
69 *28:33 *482:115 1.04198e-05
70 *29:37 *482:115 1.15945e-06
71 *29:45 *482:111 2.12755e-05
72 *31:22 *482:179 1.15945e-06
73 *36:10 *482:28 9.85151e-06
74 *37:47 *745:A1 3.65131e-06
75 *37:47 *482:52 0
76 *37:47 *482:67 0
77 *40:10 *482:94 0
78 *40:14 *482:86 6.81579e-06
79 *42:10 *482:78 2.1714e-06
80 *71:12 *482:208 3.56648e-06
81 *74:8 *482:52 0
82 *138:22 *749:A1 4.74168e-08
83 *138:22 *482:105 1.29559e-06
84 *139:10 *482:78 8.66929e-06
85 *145:22 *482:16 4.33281e-06
86 *147:72 *482:20 2.35629e-05
87 *147:72 *482:35 3.40947e-05
88 *147:72 *482:50 1.24855e-05
89 *147:76 *482:52 1.24935e-05
90 *147:89 *482:52 2.51784e-06
91 *159:8 *482:155 3.78951e-06
92 *184:20 *482:133 3.16603e-07
93 *187:12 *482:141 8.06436e-06
94 *189:23 *482:141 2.9937e-06
95 *207:10 *482:216 1.93878e-05
96 *208:39 *482:208 1.33652e-05
97 *208:43 *482:16 1.0385e-05
98 *208:43 *482:208 5.84106e-06
99 *209:14 *482:111 2.53246e-05
100 *209:22 *749:A1 5.41446e-06
101 *209:22 *482:115 1.74236e-06
102 *213:8 *482:16 0
103 *219:8 *482:52 0
104 *223:16 *482:216 4.10928e-06
105 *231:20 *482:171 4.39892e-06
106 *232:8 *482:147 2.83874e-07
107 *274:20 *482:208 5.26017e-06
108 *274:24 *482:16 4.18968e-06
109 *274:105 *482:20 3.08758e-05
110 *274:105 *482:35 7.95042e-06
111 *274:120 *482:35 1.24606e-05
112 *274:120 *482:50 1.23704e-05
113 *274:122 *482:52 0
114 *274:133 *482:67 0
115 *274:133 *482:78 1.33307e-05
116 *274:141 *482:78 1.04043e-05
117 *274:158 *482:78 7.9231e-06
118 *274:164 *482:86 5.03676e-07
119 *274:206 *482:171 3.27196e-05
120 *274:254 *482:149 5.02071e-06
121 *280:12 *482:121 3.05118e-08
122 *280:12 *482:171 5.13608e-06
123 *284:6 *482:149 0
124 *285:10 *482:171 2.54626e-07
125 *285:16 *482:125 3.77247e-06
126 *286:20 *482:67 2.90209e-08
127 *286:35 *482:67 1.43431e-06
128 *287:18 *482:16 1.6221e-05
129 *287:18 *482:208 3.55574e-05
130 *289:37 *482:115 5.74143e-06
131 *338:39 *482:86 3.74016e-08
132 *339:14 *482:125 1.62074e-07
133 *339:33 *482:111 4.23885e-07
134 *378:8 *482:12 3.48165e-06
135 *397:27 *482:179 1.35684e-06
136 *397:31 *482:121 1.67815e-06
137 *410:8 *482:208 6.44983e-06
138 *410:30 *482:149 3.20407e-06
139 *434:10 *482:179 1.24958e-05
140 *434:31 *482:125 1.1181e-05
141 *436:8 *482:28 6.10236e-08
142 *437:12 *482:133 3.05118e-08
143 *437:20 *482:133 2.05732e-05
144 *441:8 *482:121 3.16328e-06
145 *441:10 *482:121 5.81334e-06
146 *441:10 *482:171 5.48168e-05
147 *441:45 *482:121 1.07377e-06
148 *441:63 *749:A1 6.23232e-06
149 *441:63 *482:78 2.16771e-05
150 *441:63 *482:105 3.09296e-05
151 *441:85 *749:A1 5.41446e-06
152 *449:66 *482:216 3.00666e-05
153 *450:6 *482:94 5.32102e-06
154 *450:6 *482:98 1.3195e-05
155 *450:10 *482:105 4.45124e-06
156 *450:25 *482:105 1.57195e-05
157 *451:39 *482:147 1.70708e-06
158 *451:51 *482:147 0
159 *452:20 *482:216 1.95129e-06
160 *461:189 *482:149 6.31106e-05
161 *462:14 *482:20 1.33301e-05
162 *462:22 *482:20 5.14601e-06
163 *462:68 *482:141 5.55315e-06
164 *462:148 *482:35 5.91696e-05
165 *462:148 *482:41 1.23321e-06
166 *462:148 *482:50 1.0023e-05
167 *463:164 *482:16 0
168 *466:16 *482:149 2.47986e-05
169 *466:46 *482:147 6.41585e-07
170 *466:46 *482:149 2.72806e-05
171 *475:12 *482:171 2.93633e-06
172 *475:20 *482:125 0
173 *475:20 *482:171 2.00102e-05
174 *477:22 *482:52 0
175 *477:33 *482:52 0
*RES
1 *1044:Y *482:8 37.2158 
2 *482:8 *482:10 17.2 
3 *482:10 *482:12 42.2512 
4 *482:12 *482:14 17.2 
5 *482:14 *482:16 39.7032 
6 *482:16 *482:20 33.2164 
7 *482:20 *482:28 39.1302 
8 *482:28 *742:A1 17.2 
9 *482:20 *482:35 19.263 
10 *482:35 *482:41 36.9342 
11 *482:41 *670:A 17.2 
12 *482:35 *482:50 24.126 
13 *482:50 *482:52 45.898 
14 *482:52 *745:A1 37.0741 
15 *482:52 *482:67 32.5719 
16 *482:67 *743:A1 17.2 
17 *482:67 *482:78 34.1888 
18 *482:78 *482:86 39.949 
19 *482:86 *482:94 49.6869 
20 *482:94 *482:98 39.1278 
21 *482:98 *669:A 17.2 
22 *482:78 *482:105 11.0756 
23 *482:105 *482:111 40.0274 
24 *482:111 *482:115 41.51 
25 *482:115 *482:121 31.6421 
26 *482:121 *482:125 40.3589 
27 *482:125 *482:133 43.3805 
28 *482:133 *482:141 48.3941 
29 *482:141 *482:147 40.1255 
30 *482:147 *482:149 47.1835 
31 *482:149 *482:155 37.122 
32 *482:155 *762:A1 17.2 
33 *482:141 *683:C 17.2 
34 *482:121 *482:171 44.6584 
35 *482:171 *482:179 39.6934 
36 *482:179 *748:A1 17.2 
37 *482:115 *750:A1 18.8045 
38 *482:105 *749:A1 38.351 
39 *482:16 *482:208 38.4001 
40 *482:208 *482:216 49.3504 
41 *482:216 *746:A1 17.2 
*END

*D_NET *483 0.00167313
*CONN
*I *739:B I *D AO21x2_ASAP7_75t_R
*I *555:B I *D AO21x1_ASAP7_75t_R
*I *698:C I *D AND3x1_ASAP7_75t_R
*I *562:B I *D AND2x2_ASAP7_75t_R
*I *719:C I *D AND3x1_ASAP7_75t_R
*I *715:C I *D AND3x1_ASAP7_75t_R
*I *558:B I *D NAND2x1_ASAP7_75t_R
*I *1045:Y O *D BUFx3_ASAP7_75t_R
*CAP
1 *739:B 2.71006e-06
2 *555:B 5.13195e-06
3 *698:C 0
4 *562:B 0
5 *719:C 0
6 *715:C 1.78144e-06
7 *558:B 1.65783e-05
8 *1045:Y 1.255e-05
9 *483:108 5.05368e-05
10 *483:106 4.78267e-05
11 *483:97 8.05291e-06
12 *483:93 2.97833e-05
13 *483:91 2.68623e-05
14 *483:74 2.90143e-05
15 *483:59 9.63192e-05
16 *483:57 7.66904e-05
17 *483:53 1.46472e-05
18 *483:49 5.07242e-05
19 *483:47 4.7244e-05
20 *483:45 7.15165e-05
21 *483:43 8.31237e-05
22 *483:35 0.000144095
23 *483:33 0.000141241
24 *483:18 2.76964e-05
25 *483:14 2.26294e-05
26 *483:8 3.2814e-05
27 *558:B *484:12 0
28 *483:14 *484:12 3.43627e-05
29 *483:14 *484:305 7.92196e-06
30 *483:18 *484:12 0
31 *483:35 *484:72 0.000103609
32 *483:45 *484:80 2.28976e-06
33 *483:45 *484:86 1.81531e-05
34 *483:49 *562:A 3.11297e-05
35 *483:74 *484:182 4.77562e-05
36 *483:108 *500:22 1.52942e-06
37 *483:108 *506:87 2.22617e-06
38 *555:A1 *555:B 5.22376e-07
39 *681:B *483:108 1.03091e-06
40 *698:B *483:45 1.46265e-05
41 *699:A1 *483:43 3.65131e-06
42 *701:B *558:B 3.65131e-06
43 *716:A2 *483:74 8.3257e-06
44 *780:D *558:B 0
45 *1045:A *483:8 1.29877e-05
46 *13:10 *483:14 2.71921e-06
47 *21:12 *558:B 2.87185e-05
48 *21:12 *483:14 0
49 *21:12 *483:18 3.95393e-06
50 *21:12 *483:93 7.28898e-06
51 *21:23 *483:93 5.48826e-06
52 *114:10 *483:108 5.16441e-06
53 *119:39 *483:108 1.30336e-05
54 *122:8 *739:B 6.1473e-07
55 *131:18 *483:108 7.45606e-06
56 *131:30 *483:108 2.98814e-07
57 *139:95 *739:B 9.425e-07
58 *142:10 *555:B 6.7842e-07
59 *142:10 *483:97 3.3921e-06
60 *144:10 *558:B 0
61 *149:8 *483:93 4.19572e-05
62 *150:6 *483:14 2.29378e-05
63 *208:16 *483:93 1.63752e-05
64 *208:22 *483:35 0
65 *211:116 *483:108 1.15905e-05
66 *230:18 *558:B 1.79408e-06
67 *244:10 *483:43 1.71136e-06
68 *246:8 *483:93 1.49407e-08
69 *246:8 *483:108 1.96691e-05
70 *257:10 *483:74 1.09493e-06
71 *274:28 *483:33 0
72 *274:28 *483:35 0
73 *277:33 *483:108 0
74 *378:23 *558:B 0
75 *378:31 *483:8 2.71839e-06
76 *390:8 *483:59 5.13809e-06
77 *404:16 *483:108 0
78 *404:22 *483:93 1.98924e-06
79 *404:37 *555:B 5.62196e-06
80 *404:37 *483:97 7.58545e-06
81 *417:14 *483:93 1.89392e-05
82 *417:14 *483:108 2.20032e-05
83 *449:44 *483:93 1.69507e-05
84 *449:50 *483:93 3.81034e-05
85 *456:12 *715:C 1.61096e-06
86 *457:16 *483:74 2.90209e-08
87 *457:24 *483:74 7.55605e-06
88 *463:125 *483:108 1.10419e-06
89 *464:43 *483:43 3.05118e-07
90 *464:80 *483:49 1.32421e-05
91 *464:80 *483:59 0
92 *464:88 *483:59 0
93 *464:88 *483:74 0
94 *464:103 *483:74 0
*RES
1 *1045:Y *483:8 40.2831 
2 *483:8 *483:14 38.2319 
3 *483:14 *483:18 19.1711 
4 *483:18 *558:B 47.9992 
5 *483:18 *483:33 19.5808 
6 *483:33 *483:35 48.4821 
7 *483:35 *483:43 42.2258 
8 *483:43 *483:45 50.2735 
9 *483:45 *483:47 17.2 
10 *483:47 *483:49 45.0533 
11 *483:49 *483:53 19.3393 
12 *483:53 *483:57 23.6179 
13 *483:57 *483:59 48.9954 
14 *483:59 *715:C 35.4697 
15 *483:59 *483:74 41.2461 
16 *483:74 *719:C 17.2 
17 *483:53 *562:B 17.2 
18 *483:43 *698:C 17.2 
19 *483:33 *483:91 17.2 
20 *483:91 *483:93 35.761 
21 *483:93 *483:97 19.8741 
22 *483:97 *555:B 20.409 
23 *483:97 *483:106 17.2 
24 *483:106 *483:108 41.6743 
25 *483:108 *739:B 36.0045 
*END

*D_NET *484 0.00312731
*CONN
*I *556:A2 I *D OA21x2_ASAP7_75t_R
*I *740:A I *D NAND2x2_ASAP7_75t_R
*I *517:A I *D INVx1_ASAP7_75t_R
*I *753:A1 I *D OA222x2_ASAP7_75t_R
*I *698:A I *D AND3x1_ASAP7_75t_R
*I *751:A1 I *D OA222x2_ASAP7_75t_R
*I *760:A1 I *D OA222x2_ASAP7_75t_R
*I *758:A1 I *D OA222x2_ASAP7_75t_R
*I *757:A1 I *D OA222x2_ASAP7_75t_R
*I *756:A1 I *D OA222x2_ASAP7_75t_R
*I *719:A I *D AND3x1_ASAP7_75t_R
*I *715:A I *D AND3x1_ASAP7_75t_R
*I *755:A1 I *D OA222x2_ASAP7_75t_R
*I *754:A1 I *D OA222x2_ASAP7_75t_R
*I *562:A I *D AND2x2_ASAP7_75t_R
*I *558:A I *D NAND2x1_ASAP7_75t_R
*I *1044:A I *D BUFx3_ASAP7_75t_R
*I *1046:Y O *D BUFx6f_ASAP7_75t_R
*CAP
1 *556:A2 5.9458e-06
2 *740:A 4.29196e-06
3 *517:A 0
4 *753:A1 0
5 *698:A 0
6 *751:A1 5.74507e-06
7 *760:A1 7.15764e-06
8 *758:A1 0
9 *757:A1 2.12576e-06
10 *756:A1 1.19037e-05
11 *719:A 2.58211e-06
12 *715:A 0
13 *755:A1 1.35364e-06
14 *754:A1 2.00034e-06
15 *562:A 7.86825e-06
16 *558:A 1.42901e-05
17 *1044:A 0
18 *1046:Y 8.84703e-05
19 *484:309 3.13624e-05
20 *484:305 6.47772e-05
21 *484:289 1.06997e-05
22 *484:281 4.04515e-05
23 *484:252 2.8103e-05
24 *484:244 2.69692e-05
25 *484:231 3.64462e-05
26 *484:225 4.52793e-05
27 *484:208 4.63112e-05
28 *484:182 1.83609e-05
29 *484:173 8.96114e-06
30 *484:163 5.79285e-05
31 *484:157 5.18036e-05
32 *484:153 4.7881e-05
33 *484:140 4.26693e-05
34 *484:138 4.11274e-05
35 *484:121 3.4022e-05
36 *484:108 3.72979e-05
37 *484:102 6.19016e-05
38 *484:96 3.32133e-05
39 *484:90 6.0475e-05
40 *484:86 6.60137e-05
41 *484:80 2.31217e-05
42 *484:72 3.43675e-05
43 *484:68 6.79135e-05
44 *484:62 6.55158e-05
45 *484:60 3.0677e-05
46 *484:54 3.28302e-05
47 *484:48 4.15847e-05
48 *484:35 3.06731e-05
49 *484:22 3.11883e-05
50 *484:16 7.32195e-05
51 *484:12 2.76442e-05
52 *484:8 4.04225e-05
53 *484:6 8.84703e-05
54 *484:48 *504:8 1.56713e-06
55 *484:60 *505:26 2.95032e-06
56 *484:60 *505:34 3.38722e-06
57 *484:68 *492:16 3.84584e-05
58 *484:68 *505:20 1.12901e-05
59 *484:68 *507:10 0
60 *484:140 *809:CLK 1.09842e-06
61 *484:281 *492:16 8.30736e-06
62 *484:289 *505:20 0
63 *556:B *556:A2 1.66584e-05
64 *556:B *484:305 5.85387e-06
65 *558:B *484:12 0
66 *565:A *484:16 5.19475e-06
67 *566:A2 *484:16 2.12481e-06
68 *698:B *484:80 7.14604e-06
69 *698:B *484:86 4.24124e-05
70 *701:B *558:A 5.77516e-06
71 *710:A *484:121 0
72 *710:A *484:138 0
73 *720:B *484:208 0
74 *725:B *484:252 3.36331e-07
75 *753:A2 *484:281 5.482e-06
76 *753:A2 *484:289 2.27522e-06
77 *753:B2 *484:281 7.83283e-07
78 *780:D *484:12 2.36401e-05
79 *810:CLK *484:157 3.09538e-06
80 *810:CLK *484:208 1.9131e-06
81 *810:D *484:208 3.9103e-06
82 *1046:A *484:6 0
83 *13:10 *484:305 0
84 *21:12 *484:35 0
85 *60:16 *484:121 2.61531e-06
86 *61:20 *484:108 1.27208e-05
87 *65:22 *484:68 8.89295e-06
88 *66:12 *484:48 3.56177e-06
89 *84:22 *484:225 2.03526e-06
90 *105:8 *484:86 0
91 *110:14 *484:72 0
92 *113:22 *484:48 6.27545e-06
93 *139:40 *484:309 4.34638e-05
94 *139:48 *484:309 8.33296e-06
95 *140:33 *484:305 1.2102e-06
96 *146:14 *484:16 1.27782e-06
97 *147:16 *484:96 5.67735e-06
98 *147:16 *484:102 2.22736e-06
99 *147:16 *484:121 2.53248e-06
100 *147:217 *484:138 0
101 *147:217 *484:140 0
102 *147:230 *756:A1 0
103 *147:230 *484:140 6.48596e-07
104 *147:230 *484:153 9.41993e-06
105 *147:230 *484:208 5.41505e-05
106 *147:242 *484:208 2.83874e-07
107 *147:242 *484:225 8.51621e-07
108 *150:6 *484:16 4.78391e-05
109 *156:8 *484:54 1.1529e-05
110 *156:8 *484:60 0
111 *185:6 *740:A 5.09299e-06
112 *208:8 *484:305 1.08006e-05
113 *230:10 *484:305 6.44561e-06
114 *230:10 *484:309 6.77625e-06
115 *248:8 *484:22 1.72128e-05
116 *248:8 *484:48 6.72417e-07
117 *250:10 *484:86 6.33206e-07
118 *253:10 *484:138 7.12154e-06
119 *253:18 *484:140 0
120 *261:6 *757:A1 5.51397e-07
121 *263:10 *484:231 0
122 *274:50 *484:289 5.80445e-06
123 *274:74 *484:121 1.10561e-06
124 *274:96 *484:281 1.16945e-06
125 *274:273 *760:A1 8.23084e-06
126 *274:281 *484:252 0
127 *274:308 *484:208 4.59165e-06
128 *274:314 *484:208 4.93886e-06
129 *277:41 *484:22 2.60745e-05
130 *277:41 *484:48 4.59644e-06
131 *277:56 *740:A 5.41446e-06
132 *277:56 *484:309 1.48586e-06
133 *292:6 *484:16 5.54001e-05
134 *292:12 *484:16 2.05732e-05
135 *292:12 *484:48 8.31542e-06
136 *293:30 *751:A1 5.62196e-06
137 *293:30 *484:102 6.59261e-06
138 *296:12 *484:231 1.64348e-06
139 *297:32 *484:252 4.47188e-05
140 *334:8 *484:48 2.03526e-06
141 *347:40 *484:140 3.20628e-05
142 *347:40 *484:153 6.14271e-06
143 *348:28 *484:182 6.41585e-07
144 *360:6 *484:231 1.62312e-05
145 *360:12 *484:231 1.34467e-07
146 *366:26 *484:289 3.59323e-06
147 *369:6 *484:138 1.2768e-05
148 *369:14 *754:A1 7.63254e-07
149 *369:14 *484:138 1.65304e-05
150 *370:6 *755:A1 3.90258e-06
151 *371:8 *484:182 4.3937e-06
152 *371:12 *756:A1 1.44167e-06
153 *372:14 *757:A1 5.62196e-06
154 *372:14 *484:225 5.06565e-06
155 *373:6 *484:231 1.52004e-05
156 *373:6 *484:244 3.44576e-06
157 *374:12 *484:252 8.01571e-05
158 *374:20 *760:A1 6.7842e-07
159 *378:23 *484:12 7.53871e-06
160 *378:23 *484:305 7.54506e-06
161 *378:39 *484:305 2.16061e-06
162 *390:12 *484:163 1.46972e-05
163 *390:12 *484:173 1.04249e-05
164 *409:12 *484:309 2.19629e-06
165 *409:27 *484:309 3.38681e-06
166 *413:12 *484:54 1.19086e-05
167 *413:12 *484:60 0
168 *414:18 *484:72 6.2241e-05
169 *420:14 *484:72 1.4491e-05
170 *425:8 *484:208 4.31861e-05
171 *442:8 *755:A1 1.35684e-06
172 *453:18 *751:A1 1.95129e-06
173 *453:22 *484:96 4.45472e-06
174 *454:12 *754:A1 5.62196e-06
175 *454:12 *484:102 9.8079e-06
176 *454:12 *484:121 5.29476e-05
177 *454:16 *484:138 0
178 *454:35 *484:138 0
179 *455:14 *484:140 3.81217e-05
180 *456:12 *756:A1 4.7643e-07
181 *456:12 *484:163 1.49407e-08
182 *456:27 *756:A1 5.16409e-06
183 *458:6 *484:231 1.41135e-05
184 *458:6 *484:244 1.28817e-05
185 *458:14 *484:244 8.07251e-06
186 *464:80 *562:A 1.32244e-05
187 *464:88 *484:153 0
188 *464:103 *756:A1 0
189 *464:114 *484:208 0
190 *464:114 *484:225 0
191 *464:114 *484:231 0
192 *464:124 *484:231 4.94008e-06
193 *470:18 *484:140 0
194 *472:22 *484:86 0
195 *479:52 *484:225 1.40952e-06
196 *479:52 *484:231 2.05045e-06
197 *479:67 *484:225 6.80947e-07
198 *483:14 *484:12 3.43627e-05
199 *483:14 *484:305 7.92196e-06
200 *483:18 *484:12 0
201 *483:35 *484:72 0.000103609
202 *483:45 *484:80 2.28976e-06
203 *483:45 *484:86 1.81531e-05
204 *483:49 *562:A 3.11297e-05
205 *483:74 *484:182 4.77562e-05
*RES
1 *1046:Y *484:6 49.8243 
2 *484:6 *484:8 17.2 
3 *484:8 *484:12 30.716 
4 *484:12 *484:16 42.3368 
5 *484:16 *484:22 32.8836 
6 *484:22 *1044:A 17.2 
7 *484:22 *484:35 45.8581 
8 *484:35 *558:A 24.1527 
9 *484:16 *484:48 40.8173 
10 *484:48 *484:54 38.3422 
11 *484:54 *484:60 33.1634 
12 *484:60 *484:62 17.2 
13 *484:62 *484:68 38.5311 
14 *484:68 *484:72 39.0602 
15 *484:72 *484:80 37.1963 
16 *484:80 *484:86 41.2991 
17 *484:86 *484:90 35.9189 
18 *484:90 *484:96 47.3528 
19 *484:96 *484:102 26.6888 
20 *484:102 *484:108 48.8403 
21 *484:108 *562:A 45.6066 
22 *484:102 *484:121 19.7108 
23 *484:121 *754:A1 36.0045 
24 *484:121 *484:138 46.0281 
25 *484:138 *484:140 27.032 
26 *484:140 *755:A1 35.4697 
27 *484:140 *484:153 27.337 
28 *484:153 *484:157 20.9438 
29 *484:157 *484:163 29.8053 
30 *484:163 *484:173 38.7968 
31 *484:173 *715:A 17.2 
32 *484:163 *484:182 33.6257 
33 *484:182 *719:A 35.4697 
34 *484:157 *756:A1 43.354 
35 *484:153 *484:208 46.8494 
36 *484:208 *757:A1 36.0045 
37 *484:208 *484:225 45.0151 
38 *484:225 *484:231 43.102 
39 *484:231 *758:A1 17.2 
40 *484:231 *484:244 40.6497 
41 *484:244 *484:252 49.2271 
42 *484:252 *760:A1 23.0831 
43 *484:96 *751:A1 20.9438 
44 *484:80 *698:A 17.2 
45 *484:62 *484:281 48.4755 
46 *484:281 *484:289 42.1426 
47 *484:289 *753:A1 17.2 
48 *484:54 *517:A 17.2 
49 *484:8 *484:305 41.3311 
50 *484:305 *484:309 41.9793 
51 *484:309 *740:A 38.1438 
52 *484:305 *556:A2 22.0134 
*END

*D_NET *485 0.00152584
*CONN
*I *809:CLK I *D DFFHQNx1_ASAP7_75t_R
*I *793:CLK I *D DFFHQNx1_ASAP7_75t_R
*I *792:CLK I *D DFFHQNx1_ASAP7_75t_R
*I *1001:A I *D BUFx2_ASAP7_75t_R
*I *781:CLK I *D DFFHQNx1_ASAP7_75t_R
*I *791:CLK I *D DFFHQNx1_ASAP7_75t_R
*I *807:CLK I *D DFFHQNx1_ASAP7_75t_R
*I *790:CLK I *D DFFHQNx1_ASAP7_75t_R
*I *806:CLK I *D DFFHQNx1_ASAP7_75t_R
*I *808:CLK I *D DFFHQNx1_ASAP7_75t_R
*I *1047:Y O *D BUFx4_ASAP7_75t_R
*CAP
1 *809:CLK 9.13182e-06
2 *793:CLK 0
3 *792:CLK 1.09525e-05
4 *1001:A 0
5 *781:CLK 0
6 *791:CLK 0
7 *807:CLK 6.87202e-06
8 *790:CLK 0
9 *806:CLK 0
10 *808:CLK 0
11 *1047:Y 1.31797e-05
12 *485:127 8.46137e-05
13 *485:123 8.0533e-05
14 *485:112 3.31507e-05
15 *485:101 5.19025e-05
16 *485:83 1.41865e-05
17 *485:72 1.32588e-05
18 *485:66 4.18676e-05
19 *485:57 2.56662e-05
20 *485:51 0.000129391
21 *485:39 1.48901e-05
22 *485:26 3.25021e-05
23 *485:20 6.51349e-05
24 *485:18 4.12552e-05
25 *485:16 0.000161719
26 *485:12 1.84569e-05
27 *485:10 3.12992e-05
28 *485:10 *496:10 4.90416e-06
29 *485:12 *496:10 2.6945e-06
30 *485:39 *489:35 1.19584e-06
31 *485:39 *489:50 9.71623e-07
32 *485:72 *504:20 3.43731e-06
33 *485:83 *504:12 4.77564e-05
34 *485:127 *712:A2 1.26391e-06
35 *575:A1 *485:51 1.44167e-06
36 *575:A2 *485:51 3.90258e-06
37 *642:A *485:127 6.73256e-06
38 *712:A1 *485:127 6.19506e-06
39 *712:B2 *485:127 5.85387e-06
40 *712:C *485:127 6.62869e-06
41 *751:B2 *485:26 2.12481e-06
42 *776:B *485:10 5.17782e-06
43 *777:B *485:57 3.05118e-08
44 *10:10 *485:123 7.72763e-06
45 *12:10 *485:12 2.38942e-05
46 *12:10 *485:16 3.76788e-05
47 *23:10 *485:51 0
48 *58:25 *485:112 5.19498e-06
49 *61:10 *485:12 5.33743e-06
50 *61:10 *485:16 1.908e-06
51 *61:31 *485:10 1.81393e-05
52 *61:31 *485:12 1.64364e-05
53 *64:6 *485:66 1.32074e-05
54 *64:6 *485:83 1.32074e-05
55 *64:16 *485:66 1.07377e-06
56 *65:16 *485:51 1.56765e-06
57 *65:22 *485:51 2.66797e-07
58 *66:12 *485:72 1.58904e-05
59 *68:29 *485:51 1.36155e-06
60 *81:10 *485:112 2.45591e-06
61 *105:20 *485:26 4.75943e-06
62 *105:20 *485:39 1.6833e-06
63 *116:14 *485:72 1.34329e-05
64 *117:10 *485:57 7.50787e-06
65 *147:43 *485:39 1.39665e-05
66 *147:230 *809:CLK 1.11195e-05
67 *154:8 *485:51 0
68 *156:8 *485:72 5.67747e-07
69 *157:22 *485:16 3.05118e-08
70 *211:101 *485:72 2.05596e-05
71 *250:14 *792:CLK 2.03526e-06
72 *251:10 *485:39 1.59877e-06
73 *253:18 *809:CLK 2.19685e-06
74 *253:26 *485:127 0
75 *255:10 *485:127 0
76 *274:74 *485:26 3.51072e-05
77 *291:10 *485:16 6.74107e-06
78 *293:14 *485:18 1.01059e-05
79 *293:14 *485:51 7.2178e-06
80 *293:39 *485:10 0
81 *295:8 *485:127 1.43637e-05
82 *295:10 *485:123 4.58188e-06
83 *301:38 *485:18 1.08167e-05
84 *301:38 *485:20 2.93204e-05
85 *301:38 *485:26 3.68287e-06
86 *345:27 *485:72 6.31136e-06
87 *345:27 *485:83 4.80116e-05
88 *347:26 *809:CLK 9.17509e-06
89 *347:34 *809:CLK 8.19928e-06
90 *414:8 *485:112 1.73917e-06
91 *414:8 *485:123 2.66154e-06
92 *414:10 *485:112 7.22263e-06
93 *422:31 *485:51 1.3659e-05
94 *453:10 *485:26 3.49765e-05
95 *453:18 *485:26 0
96 *455:14 *809:CLK 5.66862e-06
97 *463:55 *485:112 1.28841e-05
98 *463:55 *485:123 4.75371e-06
99 *471:14 *792:CLK 9.33789e-06
100 *471:29 *792:CLK 2.12481e-06
101 *471:29 *485:101 7.20837e-06
102 *472:29 *485:112 3.78469e-06
103 *484:140 *809:CLK 1.09842e-06
*RES
1 *1047:Y *485:10 44.9018 
2 *485:10 *485:12 10.137 
3 *485:12 *485:16 30.1528 
4 *485:16 *485:18 11.2313 
5 *485:18 *485:20 9.09202 
6 *485:20 *485:26 40.2578 
7 *485:26 *808:CLK 34.4 
8 *485:20 *485:39 44.537 
9 *485:39 *806:CLK 17.2 
10 *485:18 *790:CLK 17.2 
11 *485:16 *485:51 47.5994 
12 *485:51 *485:57 37.2158 
13 *485:57 *807:CLK 22.0134 
14 *485:57 *485:66 8.02238 
15 *485:66 *485:72 49.6055 
16 *485:72 *791:CLK 17.2 
17 *485:66 *485:83 37.2756 
18 *485:83 *781:CLK 34.4 
19 *485:12 *1001:A 34.4 
20 *485:10 *485:101 25.2224 
21 *485:101 *792:CLK 25.2224 
22 *485:101 *485:112 40.853 
23 *485:112 *793:CLK 34.4 
24 *485:112 *485:123 23.3948 
25 *485:123 *485:127 45.5457 
26 *485:127 *809:CLK 44.537 
*END

*D_NET *486 0.00120951
*CONN
*I *1041:A I *D BUFx4_ASAP7_75t_R
*I *1047:A I *D BUFx4_ASAP7_75t_R
*I *1003:A I *D BUFx4_ASAP7_75t_R
*I *1011:A I *D BUFx4_ASAP7_75t_R
*I *1048:Y O *D BUFx4_ASAP7_75t_R
*CAP
1 *1041:A 0
2 *1047:A 4.02877e-06
3 *1003:A 0
4 *1011:A 0
5 *1048:Y 0
6 *486:95 3.41492e-06
7 *486:91 7.00945e-05
8 *486:75 1.47254e-05
9 *486:71 3.60374e-05
10 *486:61 9.20203e-05
11 *486:59 0.000158394
12 *486:57 0.000160448
13 *486:43 1.04821e-05
14 *486:41 4.79656e-05
15 *486:35 0.000117897
16 *486:19 1.41157e-06
17 *486:15 0.000172002
18 *486:13 9.63221e-05
19 *486:6 8.19943e-06
20 *486:15 *487:62 1.59612e-05
21 *486:19 *491:33 1.30746e-06
22 *486:35 *487:62 1.31317e-06
23 *486:43 *513:12 8.58753e-06
24 *486:91 *506:14 9.88785e-06
25 *776:B *1047:A 5.46999e-06
26 *776:B *486:75 1.19199e-05
27 *26:10 *486:43 2.74327e-06
28 *30:18 *486:41 7.77172e-06
29 *39:12 *486:15 0
30 *52:16 *486:95 0
31 *53:8 *486:95 0
32 *56:10 *486:95 1.9502e-06
33 *115:18 *486:59 3.74016e-08
34 *128:20 *486:41 0
35 *129:8 *486:43 1.0899e-06
36 *131:12 *486:57 3.05118e-08
37 *133:30 *486:19 3.05118e-08
38 *135:14 *486:15 4.39685e-05
39 *135:14 *486:59 0
40 *139:83 *486:15 0
41 *139:83 *486:59 1.57646e-06
42 *157:45 *486:59 2.79665e-06
43 *158:64 *486:91 1.34476e-05
44 *210:41 *486:13 4.06472e-06
45 *210:41 *486:59 4.98398e-05
46 *211:16 *486:59 4.61286e-07
47 *211:20 *486:59 2.96719e-06
48 *211:30 *486:59 4.76605e-06
49 *230:31 *486:13 4.87663e-06
50 *230:31 *486:57 2.2612e-06
51 *284:18 *486:59 3.83062e-06
52 *294:10 *486:71 7.3874e-07
53 *339:14 *486:41 8.72704e-08
54 *340:12 *486:15 3.27611e-06
55 *346:39 *486:71 2.23844e-06
56 *397:31 *486:43 0
57 *412:30 *486:59 1.02137e-06
58 *417:18 *486:13 0
59 *417:18 *486:57 0
60 *425:22 *486:59 0
61 *462:52 *486:15 0
62 *472:33 *486:59 5.07619e-06
63 *472:33 *486:71 0
64 *482:121 *486:43 6.68884e-07
*RES
1 *1048:Y *486:6 34.4 
2 *486:6 *486:13 22.3624 
3 *486:13 *486:15 35.4958 
4 *486:15 *486:19 18.2325 
5 *486:19 *1011:A 34.4 
6 *486:15 *486:35 40.0933 
7 *486:35 *486:41 41.0664 
8 *486:41 *486:43 10.794 
9 *486:43 *1003:A 34.4 
10 *486:6 *486:57 19.1711 
11 *486:57 *486:59 51.891 
12 *486:59 *486:61 11.8 
13 *486:61 *486:71 40.1496 
14 *486:71 *486:75 26.2029 
15 *486:75 *1047:A 21.0329 
16 *486:61 *486:91 36.8662 
17 *486:91 *486:95 19.7342 
18 *486:95 *1041:A 34.4 
*END

*D_NET *487 0.00162172
*CONN
*I *749:C1 I *D OA222x2_ASAP7_75t_R
*I *748:C1 I *D OA222x2_ASAP7_75t_R
*I *750:C1 I *D OA222x2_ASAP7_75t_R
*I *743:C1 I *D OA222x2_ASAP7_75t_R
*I *745:C1 I *D OA222x2_ASAP7_75t_R
*I *746:C1 I *D OA222x2_ASAP7_75t_R
*I *742:C1 I *D OA222x2_ASAP7_75t_R
*I *1049:Y O *D BUFx6f_ASAP7_75t_R
*CAP
1 *749:C1 0
2 *748:C1 1.51208e-06
3 *750:C1 5.72598e-06
4 *743:C1 2.02523e-06
5 *745:C1 1.39959e-06
6 *746:C1 1.22123e-06
7 *742:C1 1.49564e-06
8 *1049:Y 2.79314e-06
9 *487:139 2.597e-05
10 *487:131 6.21818e-05
11 *487:112 6.16195e-05
12 *487:108 3.91377e-05
13 *487:98 6.50464e-05
14 *487:85 7.01783e-05
15 *487:66 2.66512e-05
16 *487:62 8.26497e-05
17 *487:60 8.14729e-05
18 *487:58 1.44898e-05
19 *487:34 1.88023e-05
20 *487:26 2.59549e-05
21 *487:22 4.31687e-05
22 *487:16 5.65362e-05
23 *487:12 4.03579e-05
24 *487:8 7.86671e-06
25 *487:16 *511:10 0
26 *487:34 *491:14 5.80445e-06
27 *487:62 *491:33 8.32162e-08
28 *487:62 *491:62 2.48115e-05
29 *553:A *487:58 3.36331e-07
30 *743:A2 *743:C1 8.13589e-06
31 *743:C2 *743:C1 8.13589e-06
32 *746:C2 *746:C1 5.85387e-06
33 *746:C2 *487:22 2.03997e-06
34 *749:C2 *487:108 6.7842e-07
35 *750:C2 *750:C1 6.7842e-07
36 *26:27 *487:108 4.32473e-06
37 *26:35 *487:98 4.79132e-07
38 *27:14 *487:112 4.71674e-06
39 *31:22 *487:139 0
40 *36:10 *487:26 4.72697e-05
41 *37:47 *745:C1 2.741e-06
42 *38:41 *487:26 4.74778e-05
43 *42:10 *487:66 1.00899e-06
44 *42:10 *487:85 4.33916e-06
45 *42:10 *487:98 0
46 *92:8 *487:139 8.64018e-07
47 *93:10 *487:108 7.05311e-06
48 *135:14 *487:62 2.17492e-05
49 *136:18 *487:98 1.80989e-06
50 *139:24 *487:12 2.01337e-05
51 *139:24 *487:58 6.0363e-05
52 *147:89 *487:62 1.85761e-06
53 *147:182 *487:139 2.06416e-05
54 *148:14 *487:131 5.04787e-07
55 *185:25 *487:12 7.80667e-06
56 *185:25 *487:58 1.79882e-05
57 *209:14 *487:108 9.44383e-06
58 *212:20 *487:139 8.25126e-06
59 *216:18 *487:85 1.42649e-05
60 *216:33 *487:85 4.38963e-06
61 *216:33 *487:98 4.6335e-06
62 *223:6 *487:22 8.38704e-06
63 *224:14 *487:16 6.70338e-06
64 *225:8 *487:58 7.72307e-07
65 *228:12 *487:16 0
66 *231:20 *487:139 1.574e-05
67 *236:18 *487:112 1.53019e-05
68 *236:18 *487:131 2.84943e-06
69 *236:24 *487:108 2.76345e-06
70 *273:24 *487:62 7.96817e-06
71 *274:18 *487:8 1.51304e-05
72 *274:105 *487:34 2.84283e-05
73 *274:120 *487:34 1.74992e-05
74 *274:164 *487:98 0
75 *274:179 *487:108 2.36087e-05
76 *274:195 *487:112 4.7691e-06
77 *274:206 *487:131 7.20205e-05
78 *279:22 *487:85 8.11416e-06
79 *280:12 *487:139 7.91023e-06
80 *285:49 *487:62 2.94031e-06
81 *286:16 *487:98 0
82 *289:8 *487:131 7.31606e-07
83 *289:14 *487:112 5.08078e-05
84 *289:14 *487:131 7.97185e-06
85 *339:33 *487:108 1.60981e-06
86 *340:12 *487:62 1.93242e-06
87 *397:27 *748:C1 1.52651e-06
88 *397:54 *487:139 3.67756e-05
89 *402:8 *487:58 3.9208e-06
90 *410:10 *487:8 1.48011e-05
91 *429:12 *487:62 0
92 *441:10 *487:139 0
93 *441:45 *750:C1 1.37072e-05
94 *441:55 *487:112 2.01799e-06
95 *441:57 *487:112 2.69065e-06
96 *441:74 *487:85 0
97 *441:74 *487:98 0
98 *449:30 *487:34 5.04845e-06
99 *452:8 *487:16 3.15056e-05
100 *452:8 *487:22 4.83862e-06
101 *462:37 *487:16 5.23776e-05
102 *462:37 *487:22 5.23062e-06
103 *462:52 *487:16 1.5054e-05
104 *462:140 *742:C1 1.52651e-06
105 *482:86 *487:98 5.38502e-07
106 *482:94 *487:98 0
107 *486:15 *487:62 1.59612e-05
108 *486:35 *487:62 1.31317e-06
*RES
1 *1049:Y *487:8 39.4685 
2 *487:8 *487:12 23.0831 
3 *487:12 *487:16 40.853 
4 *487:16 *487:22 38.678 
5 *487:22 *487:26 33.2502 
6 *487:26 *487:34 43.9464 
7 *487:34 *742:C1 35.4697 
8 *487:16 *746:C1 36.0045 
9 *487:12 *487:58 37.3268 
10 *487:58 *487:60 17.2 
11 *487:60 *487:62 34.1972 
12 *487:62 *487:66 18.0447 
13 *487:66 *745:C1 36.0045 
14 *487:66 *487:85 48.7872 
15 *487:85 *743:C1 36.5393 
16 *487:85 *487:98 43.1056 
17 *487:98 *487:108 47.59 
18 *487:108 *487:112 39.2573 
19 *487:112 *750:C1 38.1438 
20 *487:112 *487:131 48.5389 
21 *487:131 *487:139 46.2354 
22 *487:139 *748:C1 35.4697 
23 *487:98 *749:C1 17.2 
*END

*D_NET *488 0.00140744
*CONN
*I *762:C1 I *D OA222x2_ASAP7_75t_R
*I *760:C1 I *D OA222x2_ASAP7_75t_R
*I *1050:Y O *D BUFx3_ASAP7_75t_R
*CAP
1 *762:C1 8.0533e-06
2 *760:C1 1.48103e-05
3 *1050:Y 0
4 *488:34 1.57392e-05
5 *488:28 4.67192e-05
6 *488:24 0.000111669
7 *488:22 5.78254e-05
8 *488:20 2.41505e-05
9 *488:14 3.09726e-05
10 *488:8 4.28906e-05
11 *488:6 3.60686e-05
12 *488:28 *509:14 1.05256e-05
13 *728:A *760:C1 5.85387e-06
14 *762:B1 *762:C1 2.83874e-07
15 *7:12 *760:C1 5.19552e-07
16 *48:10 *488:24 2.80709e-06
17 *48:18 *488:8 5.49212e-07
18 *48:18 *488:20 5.11351e-05
19 *118:8 *488:8 0.000112278
20 *119:8 *488:24 1.138e-06
21 *139:101 *488:24 1.49407e-08
22 *166:12 *488:24 5.13666e-05
23 *171:18 *488:24 0.000116546
24 *247:14 *488:8 5.14924e-05
25 *247:14 *488:20 2.6201e-06
26 *247:18 *488:8 1.50001e-06
27 *248:8 *488:8 8.43747e-05
28 *274:246 *488:28 0
29 *274:250 *488:24 1.49407e-08
30 *274:254 *488:28 0.000120961
31 *292:70 *488:8 5.49867e-05
32 *292:70 *488:14 3.90258e-06
33 *298:6 *760:C1 2.28976e-06
34 *360:22 *760:C1 3.89753e-05
35 *407:16 *488:8 4.88189e-07
36 *407:24 *488:24 6.44748e-05
37 *409:16 *488:20 5.22376e-07
38 *429:20 *488:20 2.38499e-06
39 *433:26 *488:24 6.39482e-06
40 *439:18 *762:C1 2.67188e-05
41 *439:18 *488:24 5.00149e-05
42 *439:40 *488:24 9.29976e-06
43 *439:51 *488:24 2.51824e-05
44 *439:57 *488:20 8.4461e-06
45 *439:57 *488:24 1.23446e-05
46 *459:6 *760:C1 9.52454e-06
47 *459:12 *760:C1 5.39143e-05
48 *462:102 *488:24 1.18996e-06
49 *462:112 *488:28 0
50 *463:18 *488:8 1.34786e-05
51 *464:130 *488:34 1.88168e-06
52 *466:26 *762:C1 6.50212e-06
53 *473:52 *488:20 8.01877e-06
54 *473:56 *488:20 2.03526e-06
55 *473:64 *488:20 6.7842e-07
56 *482:149 *488:28 9.10106e-07
*RES
1 *1050:Y *488:6 34.4 
2 *488:6 *488:8 59.6956 
3 *488:8 *488:14 37.0741 
4 *488:14 *488:20 38.4019 
5 *488:20 *488:22 17.2 
6 *488:22 *488:24 71.9914 
7 *488:24 *488:28 40.3589 
8 *488:28 *488:34 35.057 
9 *488:34 *760:C1 34.8492 
10 *488:24 *762:C1 43.5045 
*END

*D_NET *489 0.00175044
*CONN
*I *754:C1 I *D OA222x2_ASAP7_75t_R
*I *758:C1 I *D OA222x2_ASAP7_75t_R
*I *757:C1 I *D OA222x2_ASAP7_75t_R
*I *756:C1 I *D OA222x2_ASAP7_75t_R
*I *755:C1 I *D OA222x2_ASAP7_75t_R
*I *751:C1 I *D OA222x2_ASAP7_75t_R
*I *753:C1 I *D OA222x2_ASAP7_75t_R
*I *1051:Y O *D BUFx6f_ASAP7_75t_R
*CAP
1 *754:C1 0
2 *758:C1 1.32641e-06
3 *757:C1 0
4 *756:C1 9.48175e-06
5 *755:C1 1.38609e-06
6 *751:C1 0
7 *753:C1 0
8 *1051:Y 0
9 *489:117 3.4088e-05
10 *489:106 8.51933e-06
11 *489:100 4.49462e-05
12 *489:96 4.50271e-05
13 *489:83 6.67941e-05
14 *489:70 3.99084e-05
15 *489:68 2.41244e-05
16 *489:62 2.45312e-05
17 *489:56 4.6337e-05
18 *489:50 3.15478e-05
19 *489:35 8.76154e-06
20 *489:31 2.5414e-05
21 *489:23 0.000127086
22 *489:21 0.000102245
23 *489:14 2.66408e-05
24 *489:8 4.8578e-05
25 *489:6 2.19371e-05
26 *489:14 *504:12 3.92212e-05
27 *489:23 *504:40 6.57201e-05
28 *489:62 *492:45 2.19685e-06
29 *489:62 *492:58 1.09842e-06
30 *489:70 *492:58 0
31 *489:83 *492:71 0
32 *489:96 *492:71 1.09067e-06
33 *489:96 *492:82 5.52807e-07
34 *489:96 *506:45 1.96054e-05
35 *489:96 *506:62 1.2483e-05
36 *489:100 *506:62 2.08769e-06
37 *489:106 *492:82 6.23611e-06
38 *489:106 *506:45 1.54331e-05
39 *489:106 *506:62 1.37373e-05
40 *708:B2 *489:62 3.05118e-08
41 *708:B2 *489:70 1.33043e-05
42 *712:B2 *489:70 2.42138e-05
43 *717:A1 *489:96 1.25098e-06
44 *725:A1 *758:C1 3.89037e-06
45 *755:C2 *755:C1 1.35684e-06
46 *757:B1 *489:96 4.38963e-06
47 *990:A *489:14 1.17077e-05
48 *22:14 *489:23 8.33889e-05
49 *60:16 *489:23 0.000105138
50 *80:8 *489:8 9.4492e-06
51 *84:18 *489:117 2.31217e-06
52 *98:8 *489:70 4.48222e-08
53 *99:8 *489:83 9.08543e-06
54 *113:16 *489:14 3.98541e-05
55 *116:43 *489:8 2.03326e-05
56 *117:33 *489:8 6.14482e-06
57 *147:43 *489:31 1.36947e-05
58 *147:47 *489:23 6.14633e-06
59 *147:47 *489:31 1.60173e-06
60 *157:16 *489:23 0
61 *211:101 *489:8 2.73415e-06
62 *250:22 *489:56 2.20493e-06
63 *250:22 *489:62 8.63639e-06
64 *251:10 *489:35 3.19649e-06
65 *251:10 *489:50 6.70779e-06
66 *251:10 *489:56 7.12649e-05
67 *251:10 *489:62 5.52807e-07
68 *253:26 *489:70 5.65733e-06
69 *253:45 *489:70 4.14576e-06
70 *256:10 *489:62 8.06799e-07
71 *256:10 *489:70 4.63769e-06
72 *256:10 *489:83 1.28173e-05
73 *256:25 *489:96 1.07377e-06
74 *274:34 *489:14 7.80196e-06
75 *274:52 *489:31 9.29428e-06
76 *274:70 *489:56 2.13376e-07
77 *274:281 *758:C1 1.36155e-06
78 *274:292 *489:117 1.74049e-06
79 *274:300 *489:96 6.09671e-06
80 *281:6 *489:14 2.90209e-08
81 *291:20 *489:56 2.92223e-05
82 *293:22 *489:31 3.23168e-05
83 *293:22 *489:50 9.58832e-06
84 *294:30 *489:68 9.30483e-06
85 *295:22 *755:C1 1.61096e-06
86 *296:27 *489:96 9.56978e-06
87 *296:33 *489:106 9.52605e-06
88 *297:24 *489:117 0
89 *345:27 *489:14 1.12894e-06
90 *346:16 *489:23 0
91 *346:47 *489:62 2.20179e-07
92 *348:18 *489:83 1.29737e-05
93 *348:18 *489:96 2.28839e-06
94 *350:20 *489:117 3.60604e-07
95 *424:10 *489:56 2.19482e-06
96 *424:18 *489:50 1.9257e-06
97 *424:66 *489:23 0
98 *428:8 *489:8 1.22503e-05
99 *442:14 *489:70 1.07614e-05
100 *442:14 *489:83 9.21172e-06
101 *453:10 *489:56 0
102 *454:35 *489:62 1.31716e-05
103 *457:41 *489:96 3.09749e-06
104 *463:22 *489:23 0
105 *463:74 *489:117 2.21272e-06
106 *464:172 *489:8 1.01223e-05
107 *464:172 *489:14 5.55243e-05
108 *470:18 *489:68 8.87763e-06
109 *471:14 *489:56 1.44167e-06
110 *471:14 *489:62 3.81627e-06
111 *479:36 *489:117 2.30373e-06
112 *479:44 *489:100 9.54815e-06
113 *479:44 *489:117 1.91586e-05
114 *479:78 *489:117 2.6259e-05
115 *479:93 *489:117 1.18312e-05
116 *485:39 *489:35 1.19584e-06
117 *485:39 *489:50 9.71623e-07
*RES
1 *1051:Y *489:6 34.4 
2 *489:6 *489:8 23.1837 
3 *489:8 *489:14 47.4851 
4 *489:14 *753:C1 17.2 
5 *489:8 *489:21 17.2 
6 *489:21 *489:23 43.8828 
7 *489:23 *489:31 36.7684 
8 *489:31 *489:35 18.2325 
9 *489:35 *751:C1 34.4 
10 *489:35 *489:50 39.2289 
11 *489:50 *489:56 43.3022 
12 *489:56 *489:62 36.2059 
13 *489:62 *489:68 37.0741 
14 *489:68 *489:70 19.7108 
15 *489:70 *755:C1 35.4697 
16 *489:70 *489:83 33.5318 
17 *489:83 *756:C1 21.4786 
18 *489:83 *489:96 46.4368 
19 *489:96 *489:100 18.9315 
20 *489:100 *489:106 44.0677 
21 *489:106 *757:C1 17.2 
22 *489:100 *489:117 37.8529 
23 *489:117 *758:C1 35.4697 
24 *489:56 *754:C1 17.2 
*END

*D_NET *490 5.30069e-05
*CONN
*I *947:A I *D BUFx2_ASAP7_75t_R
*I *1052:Y O *D BUFx3_ASAP7_75t_R
*CAP
1 *947:A 2.24015e-05
2 *1052:Y 4.10194e-06
3 *490:8 2.65035e-05
4 *147:174 *490:8 0
*RES
1 *1052:Y *490:8 37.2158 
2 *490:8 *947:A 48.3055 
*END

*D_NET *491 0.00107129
*CONN
*I *696:A2 I *D AO22x2_ASAP7_75t_R
*I *691:A2 I *D AO22x2_ASAP7_75t_R
*I *666:A2 I *D AO221x1_ASAP7_75t_R
*I *662:A2 I *D AO221x1_ASAP7_75t_R
*I *1053:Y O *D BUFx3_ASAP7_75t_R
*CAP
1 *696:A2 0
2 *691:A2 7.85922e-06
3 *666:A2 1.01909e-05
4 *662:A2 1.68604e-06
5 *1053:Y 3.35842e-06
6 *491:91 1.26513e-05
7 *491:72 3.33341e-05
8 *491:68 4.67341e-05
9 *491:66 0.000112676
10 *491:62 0.000121557
11 *491:56 4.14935e-05
12 *491:35 3.41959e-05
13 *491:33 3.4773e-05
14 *491:18 4.27567e-05
15 *491:14 4.34667e-05
16 *491:8 4.05274e-05
17 *550:A1 *491:56 3.44136e-05
18 *667:B *491:56 2.98961e-07
19 *742:C2 *491:14 1.8371e-06
20 *34:10 *491:14 3.55626e-07
21 *35:36 *491:33 4.30184e-05
22 *36:33 *491:56 1.59139e-06
23 *38:31 *491:33 0
24 *133:30 *491:33 0
25 *140:12 *491:14 1.84847e-05
26 *140:12 *491:33 2.55866e-06
27 *148:14 *491:68 2.96428e-05
28 *148:14 *491:91 7.05579e-06
29 *206:10 *491:14 0
30 *206:22 *491:14 1.87418e-05
31 *216:41 *666:A2 9.26176e-06
32 *217:18 *666:A2 0
33 *238:22 *691:A2 1.17301e-06
34 *240:10 *491:72 0
35 *241:12 *491:91 0
36 *273:24 *491:62 7.95489e-06
37 *274:183 *491:66 2.32638e-05
38 *274:206 *491:66 4.79269e-06
39 *285:49 *491:62 9.27399e-05
40 *300:31 *662:A2 1.44167e-06
41 *300:31 *491:14 4.39988e-06
42 *300:31 *491:18 2.95317e-05
43 *300:31 *491:33 7.53304e-06
44 *300:37 *491:18 4.70769e-06
45 *300:37 *491:33 1.98062e-06
46 *337:25 *491:14 9.67723e-06
47 *337:25 *491:18 1.82715e-05
48 *337:29 *491:14 2.22617e-06
49 *340:12 *491:33 1.31689e-05
50 *411:12 *491:68 2.7397e-05
51 *411:12 *491:91 8.98153e-06
52 *441:49 *491:91 0
53 *441:110 *491:72 0
54 *449:12 *491:33 8.52654e-07
55 *449:14 *491:33 5.225e-06
56 *449:28 *491:14 1.93482e-06
57 *449:122 *666:A2 1.53862e-05
58 *462:140 *491:14 0
59 *463:188 *491:8 2.12481e-06
60 *463:188 *491:14 0
61 *463:205 *491:14 0
62 *486:19 *491:33 1.30746e-06
63 *487:34 *491:14 5.80445e-06
64 *487:62 *491:33 8.32162e-08
65 *487:62 *491:62 2.48115e-05
*RES
1 *1053:Y *491:8 36.0045 
2 *491:8 *491:14 45.7798 
3 *491:14 *491:18 27.337 
4 *491:18 *662:A2 35.4697 
5 *491:18 *491:33 43.8908 
6 *491:33 *491:35 17.2 
7 *491:35 *666:A2 41.5423 
8 *491:35 *491:56 47.0959 
9 *491:56 *491:62 44.6376 
10 *491:62 *491:66 45.9881 
11 *491:66 *491:68 5.35684 
12 *491:68 *491:72 32.8748 
13 *491:72 *691:A2 38.1438 
14 *491:68 *491:91 41.1522 
15 *491:91 *696:A2 17.2 
*END

*D_NET *492 0.00143948
*CONN
*I *724:A2 I *D AO221x1_ASAP7_75t_R
*I *721:A2 I *D AO221x1_ASAP7_75t_R
*I *717:A2 I *D AO221x1_ASAP7_75t_R
*I *712:A2 I *D AO221x1_ASAP7_75t_R
*I *708:A2 I *D AO221x1_ASAP7_75t_R
*I *700:A2 I *D AO221x1_ASAP7_75t_R
*I *1054:Y O *D BUFx3_ASAP7_75t_R
*CAP
1 *724:A2 1.44754e-05
2 *721:A2 1.3091e-05
3 *717:A2 2.10889e-06
4 *712:A2 6.53752e-06
5 *708:A2 1.95521e-06
6 *700:A2 9.89536e-06
7 *1054:Y 1.46516e-05
8 *492:88 3.29492e-05
9 *492:82 5.28644e-05
10 *492:71 6.50478e-05
11 *492:69 4.75234e-05
12 *492:58 2.74381e-05
13 *492:45 2.45658e-05
14 *492:41 5.82827e-05
15 *492:24 8.71974e-05
16 *492:18 5.50937e-05
17 *492:16 6.96718e-05
18 *492:12 4.84935e-05
19 *492:8 2.47222e-05
20 *717:A2 *493:6 1.35684e-06
21 *724:A2 *724:B2 0
22 *724:A2 *506:62 3.05118e-08
23 *492:16 *505:20 1.21157e-05
24 *492:16 *507:10 1.40419e-08
25 *492:24 *496:14 6.53938e-06
26 *492:82 *506:45 8.53502e-07
27 *570:A2 *492:18 4.08996e-05
28 *572:A *492:24 2.03526e-06
29 *700:A1 *700:A2 3.89037e-06
30 *708:C *708:A2 3.90258e-06
31 *717:A1 *492:71 1.60138e-05
32 *717:A1 *492:82 6.32321e-06
33 *773:B *721:A2 0
34 *11:10 *700:A2 2.56143e-05
35 *11:10 *492:41 9.97681e-06
36 *52:10 *721:A2 0
37 *55:10 *492:58 0
38 *55:10 *492:71 0
39 *60:10 *700:A2 8.21772e-06
40 *60:10 *492:41 2.70055e-06
41 *64:18 *492:12 3.70967e-06
42 *65:22 *492:18 4.55293e-06
43 *66:12 *492:12 2.68586e-05
44 *84:18 *724:A2 7.8305e-06
45 *84:18 *492:82 1.16156e-05
46 *98:8 *492:58 1.64197e-05
47 *98:8 *492:71 5.24926e-06
48 *99:8 *492:71 0
49 *110:18 *492:18 0.00010876
50 *152:6 *492:24 4.07052e-06
51 *156:8 *492:12 5.97063e-06
52 *208:28 *492:8 1.32074e-05
53 *250:22 *492:45 1.25562e-05
54 *251:10 *492:45 1.54233e-05
55 *255:10 *492:58 0
56 *255:10 *492:71 1.48772e-06
57 *261:14 *492:82 1.73855e-05
58 *261:22 *721:A2 2.35266e-06
59 *262:20 *724:A2 2.28976e-06
60 *274:292 *724:A2 9.41947e-07
61 *294:26 *492:58 2.49083e-06
62 *295:18 *492:71 6.10236e-08
63 *296:33 *724:A2 3.14154e-06
64 *296:33 *492:82 1.12063e-05
65 *296:37 *492:88 5.00722e-05
66 *334:10 *492:12 9.67723e-06
67 *344:31 *700:A2 1.04475e-06
68 *345:8 *492:12 3.48823e-05
69 *346:16 *492:18 3.17029e-06
70 *346:37 *492:18 1.08499e-05
71 *346:39 *492:41 5.24383e-05
72 *350:20 *724:A2 7.47402e-07
73 *413:12 *492:16 2.34246e-06
74 *416:16 *492:24 1.32074e-05
75 *419:18 *492:18 5.12934e-05
76 *442:14 *492:71 0
77 *455:37 *492:71 4.74168e-07
78 *463:30 *492:41 3.98339e-05
79 *463:74 *721:A2 0
80 *464:23 *492:8 0
81 *470:10 *492:45 1.26641e-06
82 *470:10 *492:58 5.06565e-06
83 *470:37 *492:58 0
84 *479:10 *492:71 5.32236e-06
85 *479:10 *492:82 4.05756e-06
86 *479:14 *492:71 1.61209e-05
87 *479:36 *724:A2 3.16603e-07
88 *479:36 *492:82 3.45828e-06
89 *484:68 *492:16 3.84584e-05
90 *484:281 *492:16 8.30736e-06
91 *485:127 *712:A2 1.26391e-06
92 *489:62 *492:45 2.19685e-06
93 *489:62 *492:58 1.09842e-06
94 *489:70 *492:58 0
95 *489:83 *492:71 0
96 *489:96 *492:71 1.09067e-06
97 *489:96 *492:82 5.52807e-07
98 *489:106 *492:82 6.23611e-06
*RES
1 *1054:Y *492:8 40.2831 
2 *492:8 *492:12 33.5318 
3 *492:12 *492:16 41.2671 
4 *492:16 *492:18 41.6743 
5 *492:18 *492:24 48.8403 
6 *492:24 *700:A2 44.4803 
7 *492:24 *492:41 45.0442 
8 *492:41 *492:45 23.8641 
9 *492:45 *708:A2 35.4697 
10 *492:45 *492:58 32.4055 
11 *492:58 *712:A2 20.409 
12 *492:58 *492:69 18.8045 
13 *492:69 *492:71 34.3531 
14 *492:71 *717:A2 35.4697 
15 *492:71 *492:82 18.5845 
16 *492:82 *492:88 48.8403 
17 *492:88 *721:A2 43.4107 
18 *492:82 *724:A2 44.3669 
*END

*D_NET *493 0.000440649
*CONN
*I *581:B I *D XNOR2x2_ASAP7_75t_R
*I *1055:Y O *D BUFx3_ASAP7_75t_R
*CAP
1 *581:B 0
2 *1055:Y 5.40186e-05
3 *493:22 4.66721e-05
4 *493:20 5.50137e-05
5 *493:14 2.53554e-05
6 *493:6 7.10324e-05
7 *493:20 *506:18 1.09842e-06
8 *717:A1 *493:6 5.0551e-07
9 *717:A2 *493:6 1.35684e-06
10 *717:B1 *493:6 1.36155e-06
11 *794:D *493:22 2.20493e-06
12 *987:A *493:6 1.20469e-05
13 *10:6 *493:22 8.73959e-06
14 *52:16 *493:14 3.56648e-06
15 *52:22 *493:20 6.23081e-06
16 *53:24 *493:22 5.24079e-05
17 *56:14 *493:22 1.26633e-05
18 *83:8 *493:14 6.33206e-07
19 *211:70 *493:22 1.3659e-05
20 *258:14 *493:6 3.1923e-06
21 *259:12 *493:14 1.52651e-06
22 *259:29 *493:14 1.52651e-06
23 *260:8 *493:6 0
24 *295:39 *493:20 2.60236e-05
25 *351:24 *493:22 9.52454e-06
26 *427:65 *493:22 3.48165e-06
27 *469:20 *493:14 5.62196e-06
28 *469:33 *493:14 1.12561e-05
29 *479:6 *493:14 1.59615e-06
30 *479:10 *493:14 8.33296e-06
*RES
1 *1055:Y *493:6 41.2671 
2 *493:6 *493:14 47.3775 
3 *493:14 *493:20 43.4107 
4 *493:20 *493:22 36.9029 
5 *493:22 *581:B 17.2 
*END

*D_NET *494 0.000117366
*CONN
*I *953:A I *D BUFx2_ASAP7_75t_R
*I *1056:Y O *D BUFx3_ASAP7_75t_R
*CAP
1 *953:A 0
2 *1056:Y 4.88471e-05
3 *494:6 4.88471e-05
4 *1056:A *494:6 1.14488e-05
5 *391:10 *494:6 8.22301e-06
*RES
1 *1056:Y *494:6 49.8243 
2 *494:6 *953:A 17.2 
*END

*D_NET *495 2.22499e-05
*CONN
*I *951:A I *D BUFx2_ASAP7_75t_R
*I *1057:Y O *D BUFx3_ASAP7_75t_R
*CAP
1 *951:A 3.67761e-06
2 *1057:Y 7.44733e-06
3 *495:8 1.11249e-05
*RES
1 *1057:Y *495:8 38.9053 
2 *495:8 *951:A 36.0045 
*END

*D_NET *496 0.000479633
*CONN
*I *579:B I *D XOR2x2_ASAP7_75t_R
*I *1058:Y O *D BUFx3_ASAP7_75t_R
*CAP
1 *579:B 0
2 *1058:Y 0
3 *496:16 3.0379e-05
4 *496:14 7.30473e-05
5 *496:10 5.86517e-05
6 *496:6 1.59834e-05
7 *11:10 *496:16 0
8 *12:8 *496:14 0
9 *12:10 *496:10 5.16199e-05
10 *50:16 *496:16 1.97422e-05
11 *60:10 *496:16 1.43807e-05
12 *211:24 *496:16 3.56929e-05
13 *293:39 *496:10 3.86633e-06
14 *424:38 *496:10 1.14708e-05
15 *424:66 *496:10 3.39664e-05
16 *427:30 *496:16 2.69683e-06
17 *474:19 *496:16 0.000113997
18 *485:10 *496:10 4.90416e-06
19 *485:12 *496:10 2.6945e-06
20 *492:24 *496:14 6.53938e-06
*RES
1 *1058:Y *496:6 34.4 
2 *496:6 *496:10 40.2898 
3 *496:10 *496:14 34.8492 
4 *496:14 *496:16 39.4216 
5 *496:16 *579:B 34.4 
*END

*D_NET *497 0.00010592
*CONN
*I *625:A1 I *D OA211x2_ASAP7_75t_R
*I *611:A1 I *D OAI21x1_ASAP7_75t_R
*I *1059:Y O *D BUFx3_ASAP7_75t_R
*CAP
1 *625:A1 1.77229e-05
2 *611:A1 0
3 *1059:Y 4.60687e-06
4 *497:8 2.23298e-05
5 *625:B *625:A1 1.32074e-05
6 *157:65 *625:A1 0
7 *157:65 *497:8 0
8 *171:38 *625:A1 6.7842e-07
9 *180:22 *625:A1 4.03399e-07
10 *183:10 *625:A1 0
11 *183:10 *497:8 0
12 *230:39 *625:A1 3.32767e-05
13 *230:39 *497:8 1.36943e-05
*RES
1 *1059:Y *497:8 38.9053 
2 *497:8 *611:A1 34.4 
3 *497:8 *625:A1 49.4071 
*END

*D_NET *498 4.04219e-05
*CONN
*I *1022:A I *D BUFx3_ASAP7_75t_R
*I *1063:Y O *D BUFx3_ASAP7_75t_R
*CAP
1 *1022:A 6.83658e-06
2 *1063:Y 7.10021e-06
3 *498:8 1.39368e-05
4 *460:8 *1022:A 1.25483e-05
5 *460:14 *498:8 0
*RES
1 *1063:Y *498:8 38.9053 
2 *498:8 *1022:A 40.2831 
*END

*D_NET *499 0.000196127
*CONN
*I *1038:A I *D BUFx3_ASAP7_75t_R
*I *1064:Y O *D BUFx3_ASAP7_75t_R
*CAP
1 *1038:A 0
2 *1064:Y 1.03406e-05
3 *499:20 2.09796e-05
4 *499:12 5.38393e-05
5 *499:8 4.32003e-05
6 *670:C *499:12 5.51397e-07
7 *147:76 *499:8 6.65157e-06
8 *215:10 *499:20 0
9 *221:6 *499:12 1.56984e-05
10 *274:122 *499:8 3.89399e-05
11 *463:205 *499:20 2.03526e-06
12 *477:22 *499:12 3.89037e-06
13 *477:22 *499:20 0
*RES
1 *1064:Y *499:8 47.3528 
2 *499:8 *499:12 39.1278 
3 *499:12 *499:20 46.3079 
4 *499:20 *1038:A 17.2 
*END

*D_NET *500 0.000230484
*CONN
*I *613:B I *D AO21x2_ASAP7_75t_R
*I *1065:Y O *D BUFx3_ASAP7_75t_R
*CAP
1 *613:B 0
2 *1065:Y 1.86327e-05
3 *500:22 6.17905e-06
4 *500:14 5.6367e-05
5 *500:10 6.88207e-05
6 *131:30 *500:22 1.68025e-06
7 *131:74 *500:10 1.95009e-05
8 *139:34 *500:10 7.94335e-06
9 *139:75 *500:10 1.85628e-06
10 *185:6 *500:14 1.72341e-05
11 *207:55 *500:10 1.49407e-08
12 *210:26 *500:14 2.0561e-05
13 *230:31 *500:10 7.26708e-06
14 *230:37 *500:10 6.7842e-07
15 *463:131 *500:14 7.72307e-07
16 *463:131 *500:22 1.44639e-06
17 *483:108 *500:22 1.52942e-06
*RES
1 *1065:Y *500:10 47.831 
2 *500:10 *500:14 39.1278 
3 *500:14 *500:22 38.2855 
4 *500:22 *613:B 17.2 
*END

*D_NET *501 0.000109975
*CONN
*I *597:A1 I *D OA21x2_ASAP7_75t_R
*I *591:A I *D OR3x1_ASAP7_75t_R
*I *1066:Y O *D BUFx3_ASAP7_75t_R
*CAP
1 *597:A1 0
2 *591:A 0
3 *1066:Y 0
4 *501:27 8.86551e-06
5 *501:14 2.72449e-05
6 *501:4 3.61104e-05
7 *501:14 *502:14 8.73959e-06
8 *597:A2 *501:27 3.89037e-06
9 *163:8 *501:14 5.41446e-06
10 *166:20 *501:27 1.35684e-06
11 *167:8 *501:14 5.51397e-07
12 *416:49 *501:27 1.52167e-06
13 *416:62 *501:27 5.49212e-07
14 *425:49 *501:14 2.9484e-06
15 *431:31 *501:14 0
16 *443:60 *501:27 1.2782e-05
*RES
1 *1066:Y *501:4 17.2 
2 *501:4 *501:14 48.5322 
3 *501:14 *591:A 17.2 
4 *501:4 *501:27 41.0446 
5 *501:27 *597:A1 17.2 
*END

*D_NET *502 0.000241914
*CONN
*I *598:A I *D OR3x1_ASAP7_75t_R
*I *606:B I *D OR4x1_ASAP7_75t_R
*I *1067:Y O *D BUFx3_ASAP7_75t_R
*CAP
1 *598:A 6.21373e-06
2 *606:B 0
3 *1067:Y 2.47133e-05
4 *502:14 2.97083e-05
5 *502:10 4.82079e-05
6 *587:A2 *502:10 3.18889e-06
7 *587:B *502:10 1.20203e-06
8 *587:B *502:14 2.12276e-06
9 *598:B *598:A 2.25122e-05
10 *598:B *502:14 1.29877e-05
11 *1066:A *502:14 9.64826e-06
12 *47:20 *598:A 9.25306e-06
13 *47:20 *502:14 5.77141e-06
14 *163:8 *502:14 5.41446e-06
15 *426:25 *502:14 3.59255e-05
16 *431:31 *502:10 1.63049e-05
17 *501:14 *502:14 8.73959e-06
*RES
1 *1067:Y *502:10 45.2382 
2 *502:10 *502:14 39.6627 
3 *502:14 *606:B 17.2 
4 *502:14 *598:A 24.1527 
*END

*D_NET *503 0.000110897
*CONN
*I *1063:A I *D BUFx3_ASAP7_75t_R
*I *1068:Y O *D BUFx3_ASAP7_75t_R
*CAP
1 *1063:A 1.60243e-05
2 *1068:Y 2.89051e-05
3 *503:8 4.49295e-05
4 *230:62 *1063:A 1.09067e-06
5 *269:14 *1063:A 1.49407e-08
6 *272:12 *1063:A 0
7 *460:14 *1063:A 1.99326e-05
*RES
1 *1068:Y *503:8 45.6313 
2 *503:8 *1063:A 47.3528 
*END

*D_NET *504 0.00067918
*CONN
*I *522:A1 I *D OA21x2_ASAP7_75t_R
*I *571:A1 I *D OA21x2_ASAP7_75t_R
*I *1070:A I *D BUFx3_ASAP7_75t_R
*I *1069:Y O *D BUFx3_ASAP7_75t_R
*CAP
1 *522:A1 0
2 *571:A1 9.83067e-06
3 *1070:A 0
4 *1069:Y 3.51661e-06
5 *504:48 7.49395e-06
6 *504:40 3.86118e-05
7 *504:34 4.90916e-05
8 *504:30 1.31381e-05
9 *504:26 3.4615e-05
10 *504:20 5.06876e-05
11 *504:12 3.86563e-05
12 *504:8 2.11052e-05
13 *570:A1 *571:A1 1.31643e-05
14 *570:A1 *504:40 9.94583e-06
15 *571:B *571:A1 1.97474e-05
16 *575:A1 *504:40 1.44141e-05
17 *777:A *504:20 1.30219e-05
18 *777:A *504:26 2.03526e-06
19 *778:A *504:48 1.66706e-05
20 *11:10 *504:48 1.88168e-06
21 *24:24 *504:48 1.70708e-06
22 *64:6 *504:20 2.40241e-05
23 *65:6 *504:26 1.63444e-05
24 *65:10 *504:26 1.45042e-05
25 *65:16 *504:26 4.99118e-06
26 *65:44 *504:26 1.31716e-05
27 *65:61 *504:26 9.74162e-07
28 *66:12 *504:20 9.81516e-06
29 *68:29 *504:40 7.72833e-06
30 *108:14 *504:30 3.65369e-06
31 *108:14 *504:34 5.10479e-06
32 *110:18 *571:A1 4.57263e-07
33 *116:8 *504:26 9.01281e-06
34 *147:47 *504:40 4.71559e-06
35 *154:14 *504:26 1.49407e-08
36 *156:8 *504:20 1.30795e-06
37 *208:28 *504:12 1.79538e-05
38 *345:27 *504:12 3.27006e-06
39 *430:27 *571:A1 3.79923e-06
40 *430:27 *504:40 5.84138e-06
41 *464:172 *504:12 1.54581e-05
42 *484:48 *504:8 1.56713e-06
43 *485:72 *504:20 3.43731e-06
44 *485:83 *504:12 4.77564e-05
45 *489:14 *504:12 3.92212e-05
46 *489:23 *504:40 6.57201e-05
*RES
1 *1069:Y *504:8 36.0045 
2 *504:8 *504:12 43.1056 
3 *504:12 *504:20 48.1107 
4 *504:20 *504:26 37.2719 
5 *504:26 *504:30 19.8741 
6 *504:30 *504:34 20.9438 
7 *504:34 *504:40 36.4617 
8 *504:40 *504:48 39.8705 
9 *504:48 *1070:A 17.2 
10 *504:34 *571:A1 44.537 
11 *504:30 *522:A1 17.2 
*END

*D_NET *505 0.000351647
*CONN
*I *568:A I *D XNOR2x2_ASAP7_75t_R
*I *577:A2 I *D AO21x1_ASAP7_75t_R
*I *1070:Y O *D BUFx3_ASAP7_75t_R
*CAP
1 *568:A 0
2 *577:A2 0
3 *1070:Y 5.80534e-06
4 *505:34 2.15966e-05
5 *505:26 3.25689e-05
6 *505:20 3.30254e-05
7 *505:14 3.84293e-05
8 *505:8 2.21815e-05
9 *505:20 *507:10 1.0458e-05
10 *505:26 *507:10 1.29755e-05
11 *24:24 *505:8 1.01743e-05
12 *65:22 *505:20 4.68739e-05
13 *117:16 *505:14 2.84283e-05
14 *147:47 *505:14 7.5157e-06
15 *274:50 *505:20 6.72332e-07
16 *274:52 *505:14 1.82253e-05
17 *292:45 *505:20 0
18 *344:21 *505:8 2.46554e-05
19 *413:12 *505:26 0
20 *413:12 *505:34 7.18922e-06
21 *423:8 *505:34 1.12894e-06
22 *484:60 *505:26 2.95032e-06
23 *484:60 *505:34 3.38722e-06
24 *484:68 *505:20 1.12901e-05
25 *484:289 *505:20 0
26 *492:16 *505:20 1.21157e-05
*RES
1 *1070:Y *505:8 42.7536 
2 *505:8 *505:14 43.274 
3 *505:14 *505:20 41.0849 
4 *505:20 *505:26 43.4107 
5 *505:26 *505:34 48.1107 
6 *505:34 *577:A2 17.2 
7 *505:20 *568:A 17.2 
*END

*D_NET *506 0.0029387
*CONN
*I *734:B2 I *D AO221x2_ASAP7_75t_R
*I *671:A I *D OR3x1_ASAP7_75t_R
*I *700:B1 I *D AO221x1_ASAP7_75t_R
*I *724:B2 I *D AO221x1_ASAP7_75t_R
*I *717:B2 I *D AO221x1_ASAP7_75t_R
*I *721:B2 I *D AO221x1_ASAP7_75t_R
*I *1071:Y O *D AND3x4_ASAP7_75t_R
*CAP
1 *734:B2 0
2 *671:A 0
3 *700:B1 0
4 *724:B2 1.36375e-05
5 *717:B2 3.17588e-06
6 *721:B2 2.60022e-06
7 *1071:Y 0
8 *506:131 2.98651e-05
9 *506:125 4.63225e-05
10 *506:121 3.75309e-05
11 *506:112 2.07655e-06
12 *506:106 0.000109795
13 *506:99 9.41612e-06
14 *506:91 0.000103936
15 *506:89 0.000202239
16 *506:87 5.89607e-05
17 *506:85 0.000125748
18 *506:81 6.64295e-05
19 *506:62 2.67289e-05
20 *506:45 1.8798e-05
21 *506:35 4.95835e-05
22 *506:18 3.42789e-05
23 *506:14 9.79735e-05
24 *506:12 9.96515e-05
25 *506:4 3.32025e-05
26 *724:A2 *724:B2 0
27 *724:A2 *506:62 3.05118e-08
28 *724:B1 *724:B2 7.63254e-07
29 *724:C *724:B2 5.62196e-06
30 *740:B *506:87 4.31541e-05
31 *1071:C *506:81 1.12561e-05
32 *44:18 *506:121 8.71771e-06
33 *52:22 *506:18 1.36162e-05
34 *84:18 *506:35 2.0875e-05
35 *114:10 *506:87 0
36 *119:16 *506:85 2.82542e-06
37 *122:14 *506:87 3.53424e-06
38 *122:14 *506:121 1.49407e-08
39 *123:28 *506:121 2.43887e-07
40 *131:18 *506:87 7.45606e-06
41 *135:14 *506:91 0
42 *147:242 *724:B2 1.12894e-06
43 *147:242 *506:45 1.44555e-05
44 *157:16 *506:91 0.000136418
45 *158:18 *506:12 1.89415e-06
46 *158:22 *506:85 0.000106559
47 *158:56 *506:12 2.79688e-06
48 *158:64 *506:14 2.71785e-06
49 *158:64 *506:45 1.02633e-06
50 *160:52 *506:125 5.62196e-06
51 *162:12 *506:12 1.62854e-06
52 *170:8 *506:12 1.07377e-06
53 *170:10 *506:81 9.49809e-07
54 *174:14 *506:131 5.94921e-06
55 *175:19 *506:131 1.65452e-05
56 *181:20 *506:125 0
57 *181:28 *506:125 5.51397e-07
58 *181:28 *506:131 8.71771e-06
59 *182:14 *506:121 6.02149e-05
60 *182:14 *506:125 2.03526e-06
61 *211:116 *506:87 9.72458e-07
62 *214:14 *506:106 0.000160383
63 *258:14 *717:B2 8.65792e-06
64 *259:29 *506:18 2.31519e-06
65 *259:29 *506:35 6.33206e-07
66 *261:14 *506:35 3.24909e-05
67 *261:22 *506:35 2.95646e-06
68 *263:10 *724:B2 5.13455e-06
69 *270:14 *506:131 5.10183e-05
70 *271:10 *506:121 1.33169e-05
71 *274:122 *506:112 5.25164e-06
72 *274:292 *724:B2 0
73 *274:300 *506:45 1.1341e-05
74 *277:22 *506:91 3.05126e-06
75 *284:18 *506:87 3.78717e-06
76 *293:39 *506:99 3.20971e-06
77 *294:10 *506:99 1.92174e-05
78 *295:39 *506:18 1.49407e-08
79 *296:12 *724:B2 5.52807e-07
80 *296:27 *506:62 5.27671e-07
81 *296:33 *506:62 2.06056e-06
82 *349:20 *506:35 3.37911e-06
83 *349:20 *506:45 1.72047e-05
84 *350:20 *724:B2 1.18996e-06
85 *350:20 *506:35 0
86 *352:10 *506:131 1.34025e-05
87 *404:8 *506:87 3.13615e-06
88 *404:16 *506:87 4.73194e-06
89 *407:32 *506:85 4.10767e-07
90 *412:51 *506:14 5.23485e-05
91 *417:14 *506:91 0
92 *417:14 *506:106 0
93 *417:18 *506:87 2.68933e-07
94 *417:30 *506:85 2.49344e-08
95 *417:36 *506:14 0
96 *425:12 *506:14 1.22314e-05
97 *425:41 *506:81 2.19482e-06
98 *428:55 *506:14 0
99 *429:12 *506:91 2.00722e-06
100 *429:12 *506:106 1.36142e-05
101 *439:77 *506:121 0
102 *443:25 *506:14 0.000105431
103 *443:52 *506:14 0
104 *452:14 *506:106 1.43509e-05
105 *461:60 *506:106 0.000315147
106 *461:174 *506:131 2.19629e-06
107 *461:189 *506:131 2.68933e-07
108 *462:98 *506:85 1.63876e-05
109 *463:22 *506:91 2.85559e-05
110 *463:30 *506:91 0.000126701
111 *463:74 *506:18 4.16243e-05
112 *463:74 *506:35 1.64671e-05
113 *463:125 *506:91 1.40818e-05
114 *463:133 *506:87 2.50711e-05
115 *463:133 *506:121 2.04995e-05
116 *464:126 *506:62 1.10955e-06
117 *469:33 *506:18 1.39134e-05
118 *479:44 *506:35 5.34753e-06
119 *479:44 *506:62 7.5044e-07
120 *483:108 *506:87 2.22617e-06
121 *486:91 *506:14 9.88785e-06
122 *489:96 *506:45 1.96054e-05
123 *489:96 *506:62 1.2483e-05
124 *489:100 *506:62 2.08769e-06
125 *489:106 *506:45 1.54331e-05
126 *489:106 *506:62 1.37373e-05
127 *492:82 *506:45 8.53502e-07
128 *493:20 *506:18 1.09842e-06
*RES
1 *1071:Y *506:4 17.2 
2 *506:4 *506:12 41.861 
3 *506:12 *506:14 36.7945 
4 *506:14 *506:18 31.5607 
5 *506:18 *721:B2 35.4697 
6 *506:18 *506:35 48.9133 
7 *506:35 *506:45 49.3505 
8 *506:45 *717:B2 37.0741 
9 *506:35 *506:62 44.2035 
10 *506:62 *724:B2 44.6202 
11 *506:4 *506:81 43.2671 
12 *506:81 *506:85 35.8137 
13 *506:85 *506:87 48.62 
14 *506:87 *506:89 17.2 
15 *506:89 *506:91 47.8328 
16 *506:91 *506:99 42.3215 
17 *506:99 *700:B1 17.2 
18 *506:89 *506:106 67.3122 
19 *506:106 *506:112 36.1834 
20 *506:112 *671:A 17.2 
21 *506:85 *506:121 43.3872 
22 *506:121 *506:125 24.1527 
23 *506:125 *506:131 47.5543 
24 *506:131 *734:B2 17.2 
*END

*D_NET *507 6.88395e-05
*CONN
*I *976:A I *D BUFx3_ASAP7_75t_R
*I *1072:Y O *D BUFx3_ASAP7_75t_R
*CAP
1 *976:A 0
2 *1072:Y 2.2696e-05
3 *507:10 2.2696e-05
4 *484:68 *507:10 0
5 *492:16 *507:10 1.40419e-08
6 *505:20 *507:10 1.0458e-05
7 *505:26 *507:10 1.29755e-05
*RES
1 *1072:Y *507:10 46.9277 
2 *507:10 *976:A 34.4 
*END

*D_NET *508 2.94205e-05
*CONN
*I *973:A I *D BUFx3_ASAP7_75t_R
*I *1073:Y O *D BUFx3_ASAP7_75t_R
*CAP
1 *973:A 1.94474e-06
2 *1073:Y 4.68184e-06
3 *508:8 6.62658e-06
4 *63:8 *508:8 8.3668e-07
5 *420:14 *508:8 1.30409e-05
6 *464:33 *973:A 2.28976e-06
*RES
1 *1073:Y *508:8 38.9053 
2 *508:8 *973:A 36.0045 
*END

*D_NET *509 0.000859603
*CONN
*I *962:A I *D BUFx3_ASAP7_75t_R
*I *1074:Y O *D BUFx3_ASAP7_75t_R
*CAP
1 *962:A 0
2 *1074:Y 0
3 *509:26 3.56118e-06
4 *509:20 5.68466e-05
5 *509:18 6.02289e-05
6 *509:14 5.62701e-05
7 *509:10 7.52732e-05
8 *509:6 2.59467e-05
9 *51:12 *509:10 0
10 *265:14 *509:10 8.16583e-06
11 *274:254 *509:14 2.8178e-05
12 *331:5 *509:20 0
13 *350:33 *509:10 0
14 *360:16 *509:14 0.000153081
15 *374:12 *509:14 0.000113181
16 *374:12 *509:20 0.000231595
17 *430:10 *509:10 2.22736e-06
18 *431:8 *509:10 9.93857e-06
19 *431:25 *509:10 8.06436e-06
20 *431:31 *509:10 0
21 *431:40 *509:10 0
22 *464:126 *509:14 1.35855e-05
23 *464:130 *509:10 2.9349e-06
24 *468:31 *509:10 0
25 *488:28 *509:14 1.05256e-05
*RES
1 *1074:Y *509:6 34.4 
2 *509:6 *509:10 37.0047 
3 *509:10 *509:14 48.1075 
4 *509:14 *509:18 14.0792 
5 *509:18 *509:20 37.2814 
6 *509:20 *509:26 36.3711 
7 *509:26 *962:A 17.2 
*END

*D_NET *510 0.000122739
*CONN
*I *1071:A I *D AND3x4_ASAP7_75t_R
*I *1075:Y O *D BUFx3_ASAP7_75t_R
*CAP
1 *1071:A 0
2 *1075:Y 0
3 *510:10 2.30227e-05
4 *510:6 2.30227e-05
5 *48:10 *510:10 3.88254e-06
6 *115:43 *510:10 3.92018e-06
7 *116:43 *510:10 3.70528e-05
8 *119:16 *510:10 2.19482e-06
9 *171:10 *510:10 1.87318e-05
10 *210:45 *510:10 5.63102e-06
11 *439:34 *510:10 4.80608e-06
12 *443:66 *510:10 4.74375e-07
*RES
1 *1075:Y *510:6 34.4 
2 *510:6 *510:10 39.7266 
3 *510:10 *1071:A 17.2 
*END

*D_NET *511 0.000295926
*CONN
*I *964:A I *D BUFx3_ASAP7_75t_R
*I *1076:Y O *D BUFx3_ASAP7_75t_R
*CAP
1 *964:A 0
2 *1076:Y 5.61868e-05
3 *511:10 4.19423e-05
4 *511:8 4.19423e-05
5 *511:6 5.61868e-05
6 *680:A1 *511:6 2.71839e-06
7 *680:A2 *511:6 1.29186e-06
8 *680:A3 *511:6 3.90258e-06
9 *680:B1 *511:10 2.017e-06
10 *767:A *511:10 4.48766e-06
11 *767:B *511:10 1.1894e-05
12 *34:18 *511:10 3.71391e-05
13 *34:27 *511:10 2.80285e-05
14 *91:8 *511:10 5.52807e-07
15 *224:14 *511:10 0
16 *228:12 *511:6 6.78445e-06
17 *228:12 *511:10 1.49407e-08
18 *445:8 *511:10 8.3668e-07
19 *452:8 *511:10 0
20 *487:16 *511:10 0
*RES
1 *1076:Y *511:6 41.2671 
2 *511:6 *511:8 17.2 
3 *511:8 *511:10 35.4795 
4 *511:10 *964:A 34.4 
*END

*D_NET *512 5.96513e-05
*CONN
*I *549:A1 I *D AO21x1_ASAP7_75t_R
*I *1077:Y O *D BUFx3_ASAP7_75t_R
*CAP
1 *549:A1 0
2 *1077:Y 1.41784e-05
3 *512:10 1.41784e-05
4 *549:A2 *512:10 9.63175e-06
5 *1000:A *512:10 8.87763e-06
6 *27:41 *512:10 1.50228e-06
7 *40:10 *512:10 9.22361e-06
8 *136:10 *512:10 2.05929e-06
*RES
1 *1077:Y *512:10 48.3374 
2 *512:10 *549:A1 34.4 
*END

*D_NET *513 0.000158375
*CONN
*I *1010:A I *D BUFx3_ASAP7_75t_R
*I *1078:Y O *D BUFx3_ASAP7_75t_R
*CAP
1 *1010:A 0
2 *1078:Y 2.08298e-05
3 *513:12 1.98342e-05
4 *513:8 4.0664e-05
5 *551:B *513:8 2.28976e-06
6 *129:8 *513:12 9.4492e-06
7 *205:10 *513:12 2.32884e-05
8 *280:12 *513:12 1.09842e-06
9 *447:18 *513:8 2.68664e-05
10 *448:10 *513:12 5.46684e-06
11 *482:121 *513:12 0
12 *486:43 *513:12 8.58753e-06
*RES
1 *1078:Y *513:8 43.492 
2 *513:8 *513:12 38.6003 
3 *513:12 *1010:A 17.2 
*END
