*SPEF "ieee 1481-1999"
*DESIGN "gcd"
*DATE "15:51:10 Monday January 12, 2026"
*VENDOR "The OpenROAD Project"
*PROGRAM "OpenROAD"
*VERSION "v2.0-24458-g96512a37e9"
*DESIGN_FLOW "NAME_SCOPE LOCAL" "PIN_CAP NONE"
*DIVIDER /
*DELIMITER :
*BUS_DELIMITER []
*T_UNIT 1 NS
*C_UNIT 1 PF
*R_UNIT 1 OHM
*L_UNIT 1 HENRY

*NAME_MAP
*1 _000_
*2 _001_
*3 _002_
*4 _003_
*5 _004_
*6 _005_
*7 _006_
*8 _007_
*9 _008_
*10 _009_
*11 _010_
*12 _011_
*13 _012_
*14 _013_
*15 _014_
*16 _015_
*17 _016_
*18 _017_
*19 _018_
*20 _019_
*21 _020_
*22 _021_
*23 _022_
*24 _023_
*25 _024_
*26 _025_
*27 _026_
*28 _027_
*29 _028_
*30 _029_
*31 _030_
*32 _031_
*33 _032_
*34 _033_
*35 _034_
*36 _035_
*37 _036_
*38 _037_
*39 _038_
*40 _039_
*41 _040_
*42 _041_
*43 _042_
*44 _043_
*45 _044_
*46 _045_
*47 _046_
*48 _047_
*49 _048_
*50 _049_
*51 _050_
*52 _051_
*53 _052_
*54 _053_
*55 _054_
*56 _055_
*57 _056_
*58 _057_
*59 _058_
*60 _059_
*61 _060_
*62 _061_
*63 _062_
*64 _063_
*65 _064_
*66 _065_
*67 _066_
*68 _067_
*69 _068_
*70 _069_
*71 _070_
*72 _071_
*73 _072_
*74 _073_
*75 _074_
*76 _075_
*77 _076_
*78 _077_
*79 _078_
*80 _079_
*81 _080_
*82 _081_
*83 _082_
*84 _083_
*85 _084_
*86 _085_
*87 _086_
*88 _087_
*89 _088_
*90 _089_
*91 _090_
*92 _091_
*93 _092_
*94 _093_
*95 _094_
*96 _095_
*97 _096_
*98 _097_
*99 _098_
*100 _099_
*101 _100_
*102 _101_
*103 _102_
*104 net14
*105 net13
*106 _105_
*107 net12
*108 _107_
*109 _108_
*110 _109_
*111 _110_
*112 _111_
*113 _112_
*114 _113_
*115 _114_
*116 _115_
*117 _116_
*118 net11
*119 net10
*120 _119_
*121 _120_
*122 _121_
*123 _122_
*124 _123_
*125 _124_
*126 _125_
*127 _126_
*128 net9
*129 _128_
*130 _129_
*131 _130_
*132 _131_
*133 _132_
*134 _133_
*135 _134_
*136 _135_
*137 _136_
*138 _137_
*139 _138_
*140 _139_
*141 _140_
*142 net8
*143 _142_
*144 _143_
*145 _144_
*146 _145_
*147 _146_
*148 _147_
*149 net7
*150 _149_
*151 _150_
*152 _151_
*153 _152_
*154 _153_
*155 _154_
*156 _155_
*157 _156_
*158 _157_
*159 _158_
*160 _159_
*161 _160_
*162 _161_
*163 _162_
*164 _163_
*165 _164_
*166 _165_
*167 _166_
*168 _167_
*169 _168_
*170 _169_
*171 _170_
*172 _171_
*173 _172_
*174 _173_
*175 _174_
*176 _175_
*177 _176_
*178 _177_
*179 _178_
*180 _179_
*181 _180_
*182 _181_
*183 _182_
*184 _183_
*185 _184_
*186 _185_
*187 _186_
*188 _187_
*189 _188_
*190 _189_
*191 _190_
*192 _191_
*193 _192_
*194 _193_
*195 _194_
*196 _195_
*197 _196_
*198 _197_
*199 _198_
*200 _199_
*201 _200_
*202 _201_
*203 _202_
*204 _203_
*205 _204_
*206 _205_
*207 _206_
*208 _207_
*209 _208_
*210 net6
*211 _210_
*212 _211_
*213 net5
*214 net4
*215 _214_
*216 _215_
*217 _216_
*218 _217_
*219 _218_
*220 _219_
*221 _220_
*222 _221_
*223 _222_
*224 _223_
*225 _224_
*226 _225_
*227 _226_
*228 _227_
*229 _228_
*230 _229_
*231 _230_
*232 _231_
*233 _232_
*234 _233_
*235 _234_
*236 _235_
*237 _236_
*238 _237_
*239 _238_
*240 _239_
*241 _240_
*242 _241_
*243 _242_
*244 _243_
*245 _244_
*246 _245_
*247 _246_
*248 _247_
*249 _248_
*250 _249_
*251 _250_
*252 _251_
*253 _252_
*254 _253_
*255 _254_
*256 _255_
*257 _256_
*258 _257_
*259 _258_
*260 _259_
*261 _260_
*262 _261_
*263 _262_
*264 _263_
*265 _264_
*266 _265_
*267 _266_
*268 _267_
*269 _268_
*270 _269_
*271 _270_
*272 _271_
*273 _272_
*274 net3
*275 _274_
*276 net2
*277 _276_
*278 _277_
*279 net1
*280 _279_
*281 _280_
*282 _281_
*283 _282_
*284 _283_
*285 clk
*286 dpath\.a_lt_b\$in0\[10\]
*287 dpath\.a_lt_b\$in0\[11\]
*288 dpath\.a_lt_b\$in0\[12\]
*289 dpath\.a_lt_b\$in0\[13\]
*290 dpath\.a_lt_b\$in0\[14\]
*291 dpath\.a_lt_b\$in0\[15\]
*292 dpath\.a_lt_b\$in0\[1\]
*293 dpath\.a_lt_b\$in0\[2\]
*294 dpath\.a_lt_b\$in0\[3\]
*295 dpath\.a_lt_b\$in0\[4\]
*296 dpath\.a_lt_b\$in0\[5\]
*297 dpath\.a_lt_b\$in0\[6\]
*298 dpath\.a_lt_b\$in0\[7\]
*299 dpath\.a_lt_b\$in0\[8\]
*300 dpath\.a_lt_b\$in0\[9\]
*301 dpath\.a_lt_b\$in1\[0\]
*302 dpath\.a_lt_b\$in1\[1\]
*303 req_msg[0]
*304 req_msg[10]
*305 req_msg[11]
*306 req_msg[12]
*307 req_msg[13]
*308 req_msg[14]
*309 req_msg[15]
*310 req_msg[16]
*311 req_msg[17]
*312 req_msg[18]
*313 req_msg[19]
*314 req_msg[1]
*315 req_msg[20]
*316 req_msg[21]
*317 req_msg[22]
*318 req_msg[23]
*319 req_msg[24]
*320 req_msg[25]
*321 req_msg[26]
*322 req_msg[27]
*323 req_msg[28]
*324 req_msg[29]
*325 req_msg[2]
*326 req_msg[30]
*327 req_msg[31]
*328 req_msg[3]
*329 req_msg[4]
*330 req_msg[5]
*331 req_msg[6]
*332 req_msg[7]
*333 req_msg[8]
*334 req_msg[9]
*335 net36
*336 req_val
*337 reset
*338 net37
*339 net38
*340 net39
*341 net40
*342 net41
*343 net42
*344 net43
*345 net44
*346 net45
*347 net46
*348 net47
*349 net48
*350 net49
*351 net50
*352 net51
*353 net52
*354 resp_rdy
*355 net53
*358 net15
*359 net16
*360 net17
*361 net18
*362 net19
*363 net20
*364 net21
*365 net22
*366 net23
*367 net24
*368 net25
*369 net26
*370 net27
*371 net28
*372 net29
*373 net30
*374 net31
*375 net32
*376 net33
*377 net34
*378 net35
*379 req_rdy
*380 resp_msg[0]
*381 resp_msg[10]
*382 resp_msg[11]
*383 resp_msg[12]
*384 resp_msg[13]
*385 resp_msg[14]
*386 resp_msg[15]
*387 resp_msg[1]
*388 resp_msg[2]
*389 resp_msg[3]
*390 resp_msg[4]
*391 resp_msg[5]
*392 resp_msg[6]
*393 resp_msg[7]
*394 resp_msg[8]
*395 resp_msg[9]
*396 resp_val
*397 net116
*398 net184
*399 net183
*400 net182
*401 net181
*402 net180
*403 net117
*404 net179
*405 net118
*406 net120
*407 net119
*408 net121
*409 net122
*410 net123
*411 net124
*412 net178
*413 net125
*414 net126
*415 net177
*416 net127
*417 net175
*418 net128
*419 net172
*420 net129
*421 net171
*422 net130
*423 net131
*424 net167
*425 net132
*426 net133
*427 net134
*428 net136
*429 net135
*430 net137
*431 net138
*432 net139
*433 net166
*434 net165
*435 net158
*436 net157
*437 net140
*438 net156
*439 net141
*440 net142
*441 net143
*442 net155
*443 net144
*444 net145
*445 net146
*446 clknet_2_3__leaf_clk
*447 net147
*448 clknet_2_2__leaf_clk
*449 net148
*450 net149
*451 clknet_2_1__leaf_clk
*452 net150
*453 net154
*454 net151
*455 net152
*456 net153
*457 clknet_2_0__leaf_clk
*458 clknet_0_clk
*459 net185
*460 net186
*461 net187
*462 net188
*463 net189
*464 net190
*465 net192
*466 net193
*467 _284_
*468 _285_
*469 input14
*470 _287_
*471 input13
*472 _289_
*473 input12
*474 _291_
*475 _292_
*476 _293_
*477 _294_
*478 _295_
*479 _296_
*480 _297_
*481 _298_
*482 _299_
*483 _300_
*484 input11
*485 input10
*486 _303_
*487 _304_
*488 _305_
*489 _306_
*490 _307_
*491 _308_
*492 _309_
*493 _310_
*494 input9
*495 _312_
*496 _313_
*497 _314_
*498 _315_
*499 _316_
*500 _317_
*501 _318_
*502 _319_
*503 _320_
*504 _321_
*505 _322_
*506 _323_
*507 _324_
*508 input8
*509 _326_
*510 _327_
*511 _328_
*512 _329_
*513 _330_
*514 _331_
*515 _332_
*516 _333_
*517 input7
*518 _335_
*519 _336_
*520 _337_
*521 _338_
*522 _339_
*523 _340_
*524 _341_
*525 _342_
*526 _343_
*527 _344_
*528 _345_
*529 _346_
*530 _347_
*531 _348_
*532 _349_
*533 _350_
*534 _351_
*535 _352_
*536 _353_
*537 _354_
*538 _355_
*539 _356_
*540 _357_
*541 _358_
*542 _359_
*543 _360_
*544 _361_
*545 _362_
*546 _363_
*547 _364_
*548 _365_
*549 _366_
*550 _367_
*551 _368_
*552 _369_
*553 _370_
*554 _371_
*555 _372_
*556 _373_
*557 _374_
*558 _375_
*559 _376_
*560 _377_
*561 _378_
*562 _379_
*563 _380_
*564 _381_
*565 _382_
*566 _383_
*567 _384_
*568 _385_
*569 _386_
*570 _387_
*571 _388_
*572 _389_
*573 _390_
*574 _391_
*575 _392_
*576 _393_
*577 _394_
*578 _395_
*579 _396_
*580 _397_
*581 _398_
*582 _399_
*583 _400_
*584 _401_
*585 _402_
*586 _403_
*587 _404_
*588 _405_
*589 _406_
*590 _407_
*591 _408_
*592 _409_
*593 _410_
*594 _411_
*595 _412_
*596 _413_
*597 _414_
*598 _415_
*599 _416_
*600 _417_
*601 _418_
*602 _419_
*603 _420_
*604 _421_
*605 _422_
*606 _423_
*607 _424_
*608 _425_
*609 _426_
*610 input6
*611 _428_
*612 _429_
*613 input5
*614 input4
*615 _432_
*616 _433_
*617 _434_
*618 _435_
*619 _436_
*620 _437_
*621 _438_
*622 _439_
*623 _440_
*624 _441_
*625 _442_
*626 _443_
*627 _444_
*628 _445_
*629 _446_
*630 _447_
*631 _448_
*632 _449_
*633 _450_
*634 _451_
*635 _452_
*636 _453_
*637 _454_
*638 _455_
*639 _456_
*640 _457_
*641 _458_
*642 _459_
*643 _460_
*644 _461_
*645 _462_
*646 _463_
*647 _464_
*648 _465_
*649 _466_
*650 _467_
*651 _468_
*652 _469_
*653 _470_
*654 _471_
*655 _472_
*656 _473_
*657 _474_
*658 _475_
*659 _476_
*660 _477_
*661 _478_
*662 _479_
*663 _480_
*664 _481_
*665 _482_
*666 _483_
*667 _484_
*668 _485_
*669 _486_
*670 _487_
*671 _488_
*672 _489_
*673 _490_
*674 _491_
*675 _492_
*676 _493_
*677 _494_
*678 _495_
*679 _496_
*680 _497_
*681 _498_
*682 _499_
*683 _500_
*684 _501_
*685 _502_
*686 _503_
*687 _504_
*688 _505_
*689 _506_
*690 input3
*691 _508_
*692 input2
*693 _510_
*694 _511_
*695 input1
*696 _513_
*697 _514_
*698 _515_
*699 _516_
*700 _517_
*701 _518_
*702 _519_
*703 _520_
*704 _521_
*705 _522_
*706 _523_
*707 _524_
*708 _525_
*709 _526_
*710 _527_
*711 _528_
*712 _529_
*713 _530_
*714 _531_
*715 _532_
*716 _533_
*717 _534_
*718 _535_
*719 _536_
*720 _537_
*721 _538_
*722 _539_
*723 _540_
*724 _541_
*725 _542_
*726 _543_
*727 _544_
*728 _545_
*729 _546_
*730 _547_
*731 _548_
*732 _549_
*733 _550_
*734 ctrl\.state\.out\[0\]\$_DFF_P_
*735 ctrl\.state\.out\[1\]\$_DFF_P_
*736 ctrl\.state\.out\[2\]\$_DFF_P_
*737 dpath\.a_reg\.out\[0\]\$_DFFE_PP_
*738 dpath\.a_reg\.out\[10\]\$_DFFE_PP_
*739 dpath\.a_reg\.out\[11\]\$_DFFE_PP_
*740 dpath\.a_reg\.out\[12\]\$_DFFE_PP_
*741 dpath\.a_reg\.out\[13\]\$_DFFE_PP_
*742 dpath\.a_reg\.out\[14\]\$_DFFE_PP_
*743 dpath\.a_reg\.out\[15\]\$_DFFE_PP_
*744 dpath\.a_reg\.out\[1\]\$_DFFE_PP_
*745 dpath\.a_reg\.out\[2\]\$_DFFE_PP_
*746 dpath\.a_reg\.out\[3\]\$_DFFE_PP_
*747 dpath\.a_reg\.out\[4\]\$_DFFE_PP_
*748 dpath\.a_reg\.out\[5\]\$_DFFE_PP_
*749 dpath\.a_reg\.out\[6\]\$_DFFE_PP_
*750 dpath\.a_reg\.out\[7\]\$_DFFE_PP_
*751 dpath\.a_reg\.out\[8\]\$_DFFE_PP_
*752 dpath\.a_reg\.out\[9\]\$_DFFE_PP_
*753 dpath\.b_reg\.out\[0\]\$_DFFE_PP_
*754 dpath\.b_reg\.out\[10\]\$_DFFE_PP_
*755 dpath\.b_reg\.out\[11\]\$_DFFE_PP_
*756 dpath\.b_reg\.out\[12\]\$_DFFE_PP_
*757 dpath\.b_reg\.out\[13\]\$_DFFE_PP_
*758 dpath\.b_reg\.out\[14\]\$_DFFE_PP_
*759 dpath\.b_reg\.out\[15\]\$_DFFE_PP_
*760 dpath\.b_reg\.out\[1\]\$_DFFE_PP_
*761 dpath\.b_reg\.out\[2\]\$_DFFE_PP_
*762 dpath\.b_reg\.out\[3\]\$_DFFE_PP_
*763 dpath\.b_reg\.out\[4\]\$_DFFE_PP_
*764 dpath\.b_reg\.out\[5\]\$_DFFE_PP_
*765 dpath\.b_reg\.out\[6\]\$_DFFE_PP_
*766 dpath\.b_reg\.out\[7\]\$_DFFE_PP_
*767 dpath\.b_reg\.out\[8\]\$_DFFE_PP_
*768 dpath\.b_reg\.out\[9\]\$_DFFE_PP_
*769 PHY_EDGE_ROW_0_Right_0
*770 PHY_EDGE_ROW_1_Right_1
*771 PHY_EDGE_ROW_2_Right_2
*772 PHY_EDGE_ROW_3_Right_3
*773 PHY_EDGE_ROW_4_Right_4
*774 PHY_EDGE_ROW_5_Right_5
*775 PHY_EDGE_ROW_6_Right_6
*776 PHY_EDGE_ROW_7_Right_7
*777 PHY_EDGE_ROW_8_Right_8
*778 PHY_EDGE_ROW_9_Right_9
*779 PHY_EDGE_ROW_10_Right_10
*780 PHY_EDGE_ROW_11_Right_11
*781 PHY_EDGE_ROW_12_Right_12
*782 PHY_EDGE_ROW_13_Right_13
*783 PHY_EDGE_ROW_14_Right_14
*784 PHY_EDGE_ROW_15_Right_15
*785 PHY_EDGE_ROW_16_Right_16
*786 PHY_EDGE_ROW_17_Right_17
*787 PHY_EDGE_ROW_18_Right_18
*788 PHY_EDGE_ROW_19_Right_19
*789 PHY_EDGE_ROW_20_Right_20
*790 PHY_EDGE_ROW_21_Right_21
*791 PHY_EDGE_ROW_22_Right_22
*792 PHY_EDGE_ROW_23_Right_23
*793 PHY_EDGE_ROW_24_Right_24
*794 PHY_EDGE_ROW_25_Right_25
*795 PHY_EDGE_ROW_26_Right_26
*796 PHY_EDGE_ROW_27_Right_27
*797 PHY_EDGE_ROW_28_Right_28
*798 PHY_EDGE_ROW_29_Right_29
*799 PHY_EDGE_ROW_30_Right_30
*800 PHY_EDGE_ROW_31_Right_31
*801 PHY_EDGE_ROW_32_Right_32
*802 PHY_EDGE_ROW_33_Right_33
*803 PHY_EDGE_ROW_34_Right_34
*804 PHY_EDGE_ROW_35_Right_35
*805 PHY_EDGE_ROW_36_Right_36
*806 PHY_EDGE_ROW_37_Right_37
*807 PHY_EDGE_ROW_38_Right_38
*808 PHY_EDGE_ROW_39_Right_39
*809 PHY_EDGE_ROW_40_Right_40
*810 PHY_EDGE_ROW_41_Right_41
*811 PHY_EDGE_ROW_42_Right_42
*812 PHY_EDGE_ROW_43_Right_43
*813 PHY_EDGE_ROW_44_Right_44
*814 PHY_EDGE_ROW_45_Right_45
*815 PHY_EDGE_ROW_46_Right_46
*816 PHY_EDGE_ROW_47_Right_47
*817 PHY_EDGE_ROW_48_Right_48
*818 PHY_EDGE_ROW_49_Right_49
*819 PHY_EDGE_ROW_50_Right_50
*820 PHY_EDGE_ROW_51_Right_51
*821 PHY_EDGE_ROW_0_Left_52
*822 PHY_EDGE_ROW_1_Left_53
*823 PHY_EDGE_ROW_2_Left_54
*824 PHY_EDGE_ROW_3_Left_55
*825 PHY_EDGE_ROW_4_Left_56
*826 PHY_EDGE_ROW_5_Left_57
*827 PHY_EDGE_ROW_6_Left_58
*828 PHY_EDGE_ROW_7_Left_59
*829 PHY_EDGE_ROW_8_Left_60
*830 PHY_EDGE_ROW_9_Left_61
*831 PHY_EDGE_ROW_10_Left_62
*832 PHY_EDGE_ROW_11_Left_63
*833 PHY_EDGE_ROW_12_Left_64
*834 PHY_EDGE_ROW_13_Left_65
*835 PHY_EDGE_ROW_14_Left_66
*836 PHY_EDGE_ROW_15_Left_67
*837 PHY_EDGE_ROW_16_Left_68
*838 PHY_EDGE_ROW_17_Left_69
*839 PHY_EDGE_ROW_18_Left_70
*840 PHY_EDGE_ROW_19_Left_71
*841 PHY_EDGE_ROW_20_Left_72
*842 PHY_EDGE_ROW_21_Left_73
*843 PHY_EDGE_ROW_22_Left_74
*844 PHY_EDGE_ROW_23_Left_75
*845 PHY_EDGE_ROW_24_Left_76
*846 PHY_EDGE_ROW_25_Left_77
*847 PHY_EDGE_ROW_26_Left_78
*848 PHY_EDGE_ROW_27_Left_79
*849 PHY_EDGE_ROW_28_Left_80
*850 PHY_EDGE_ROW_29_Left_81
*851 PHY_EDGE_ROW_30_Left_82
*852 PHY_EDGE_ROW_31_Left_83
*853 PHY_EDGE_ROW_32_Left_84
*854 PHY_EDGE_ROW_33_Left_85
*855 PHY_EDGE_ROW_34_Left_86
*856 PHY_EDGE_ROW_35_Left_87
*857 PHY_EDGE_ROW_36_Left_88
*858 PHY_EDGE_ROW_37_Left_89
*859 PHY_EDGE_ROW_38_Left_90
*860 PHY_EDGE_ROW_39_Left_91
*861 PHY_EDGE_ROW_40_Left_92
*862 PHY_EDGE_ROW_41_Left_93
*863 PHY_EDGE_ROW_42_Left_94
*864 PHY_EDGE_ROW_43_Left_95
*865 PHY_EDGE_ROW_44_Left_96
*866 PHY_EDGE_ROW_45_Left_97
*867 PHY_EDGE_ROW_46_Left_98
*868 PHY_EDGE_ROW_47_Left_99
*869 PHY_EDGE_ROW_48_Left_100
*870 PHY_EDGE_ROW_49_Left_101
*871 PHY_EDGE_ROW_50_Left_102
*872 PHY_EDGE_ROW_51_Left_103
*873 input15
*874 input16
*875 input17
*876 input18
*877 input19
*878 input20
*879 input21
*880 input22
*881 input23
*882 input24
*883 input25
*884 input26
*885 input27
*886 input28
*887 input29
*888 input30
*889 input31
*890 input32
*891 input33
*892 input34
*893 input35
*894 output36
*895 output37
*896 output38
*897 output39
*898 output40
*899 output41
*900 output42
*901 output43
*902 output44
*903 output45
*904 output46
*905 output47
*906 output48
*907 output49
*908 output50
*909 output51
*910 output52
*911 output53
*912 place116
*913 clone181
*914 clone180
*915 rebuffer179
*916 clone178
*917 rebuffer177
*918 place117
*919 clone175
*920 place118
*921 place120
*922 place119
*923 place121
*924 place122
*925 place123
*926 place124
*927 rebuffer172
*928 place125
*929 place126
*930 rebuffer171
*931 place127
*932 rebuffer167
*933 place128
*934 rebuffer166
*935 place129
*936 rebuffer165
*937 place130
*938 place131
*939 rebuffer158
*940 place132
*941 place133
*942 place134
*943 place136
*944 place135
*945 place137
*946 place138
*947 place139
*948 rebuffer157
*949 rebuffer156
*950 rebuffer155
*951 clkload2
*952 place140
*953 clkload1
*954 place141
*955 place142
*956 place143
*957 clkload0
*958 place144
*959 place145
*960 place146
*961 clkbuf_2_3__f_clk
*962 place147
*963 clkbuf_2_2__f_clk
*964 place148
*965 place149
*966 clkbuf_2_1__f_clk
*967 place150
*968 place154
*969 place151
*970 place152
*971 place153
*972 clkbuf_2_0__f_clk
*973 clkbuf_0_clk
*974 clone182
*975 rebuffer183
*976 rebuffer184
*977 rebuffer185
*978 rebuffer186
*979 rebuffer187
*980 rebuffer188
*981 rebuffer189
*982 rebuffer190
*983 rebuffer192
*984 rebuffer193
*985 FILLER_0_2
*986 FILLER_0_24
*987 FILLER_0_46
*988 FILLER_0_68
*989 FILLER_0_90
*990 FILLER_0_96
*991 FILLER_0_102
*992 FILLER_0_104
*993 FILLER_0_115
*994 FILLER_0_121
*995 FILLER_0_128
*996 FILLER_0_150
*997 FILLER_0_157
*998 FILLER_0_179
*999 FILLER_0_201
*1000 FILLER_0_223
*1001 FILLER_0_245
*1002 FILLER_0_255
*1003 FILLER_0_257
*1004 FILLER_1_2
*1005 FILLER_1_24
*1006 FILLER_1_46
*1007 FILLER_1_68
*1008 FILLER_1_82
*1009 FILLER_1_84
*1010 FILLER_1_90
*1011 FILLER_1_112
*1012 FILLER_1_134
*1013 FILLER_1_156
*1014 FILLER_1_178
*1015 FILLER_1_200
*1016 FILLER_1_222
*1017 FILLER_1_244
*1018 FILLER_2_2
*1019 FILLER_2_24
*1020 FILLER_2_46
*1021 FILLER_2_68
*1022 FILLER_2_90
*1023 FILLER_2_112
*1024 FILLER_2_134
*1025 FILLER_2_156
*1026 FILLER_2_178
*1027 FILLER_2_200
*1028 FILLER_2_222
*1029 FILLER_2_244
*1030 FILLER_3_2
*1031 FILLER_3_24
*1032 FILLER_3_46
*1033 FILLER_3_68
*1034 FILLER_3_90
*1035 FILLER_3_112
*1036 FILLER_3_134
*1037 FILLER_3_156
*1038 FILLER_3_178
*1039 FILLER_3_200
*1040 FILLER_3_222
*1041 FILLER_3_244
*1042 FILLER_4_2
*1043 FILLER_4_24
*1044 FILLER_4_46
*1045 FILLER_4_68
*1046 FILLER_4_90
*1047 FILLER_4_112
*1048 FILLER_4_134
*1049 FILLER_4_156
*1050 FILLER_4_178
*1051 FILLER_4_200
*1052 FILLER_4_222
*1053 FILLER_4_244
*1054 FILLER_5_2
*1055 FILLER_5_24
*1056 FILLER_5_46
*1057 FILLER_5_68
*1058 FILLER_5_90
*1059 FILLER_5_112
*1060 FILLER_5_134
*1061 FILLER_5_156
*1062 FILLER_5_178
*1063 FILLER_5_200
*1064 FILLER_5_222
*1065 FILLER_5_244
*1066 FILLER_6_2
*1067 FILLER_6_24
*1068 FILLER_6_46
*1069 FILLER_6_68
*1070 FILLER_6_90
*1071 FILLER_6_112
*1072 FILLER_6_134
*1073 FILLER_6_156
*1074 FILLER_6_178
*1075 FILLER_6_200
*1076 FILLER_6_222
*1077 FILLER_6_244
*1078 FILLER_7_2
*1079 FILLER_7_24
*1080 FILLER_7_46
*1081 FILLER_7_68
*1082 FILLER_7_90
*1083 FILLER_7_112
*1084 FILLER_7_134
*1085 FILLER_7_156
*1086 FILLER_7_178
*1087 FILLER_7_200
*1088 FILLER_7_222
*1089 FILLER_7_244
*1090 FILLER_8_2
*1091 FILLER_8_24
*1092 FILLER_8_46
*1093 FILLER_8_68
*1094 FILLER_8_90
*1095 FILLER_8_112
*1096 FILLER_8_134
*1097 FILLER_8_156
*1098 FILLER_8_178
*1099 FILLER_8_200
*1100 FILLER_8_222
*1101 FILLER_8_244
*1102 FILLER_9_2
*1103 FILLER_9_24
*1104 FILLER_9_46
*1105 FILLER_9_68
*1106 FILLER_9_90
*1107 FILLER_9_112
*1108 FILLER_9_134
*1109 FILLER_9_156
*1110 FILLER_9_178
*1111 FILLER_9_200
*1112 FILLER_9_222
*1113 FILLER_9_244
*1114 FILLER_10_2
*1115 FILLER_10_24
*1116 FILLER_10_46
*1117 FILLER_10_68
*1118 FILLER_10_90
*1119 FILLER_10_112
*1120 FILLER_10_134
*1121 FILLER_10_156
*1122 FILLER_10_178
*1123 FILLER_10_200
*1124 FILLER_10_222
*1125 FILLER_10_244
*1126 FILLER_11_2
*1127 FILLER_11_24
*1128 FILLER_11_46
*1129 FILLER_11_68
*1130 FILLER_11_90
*1131 FILLER_11_100
*1132 FILLER_11_102
*1133 FILLER_11_111
*1134 FILLER_11_133
*1135 FILLER_11_148
*1136 FILLER_11_170
*1137 FILLER_11_192
*1138 FILLER_11_214
*1139 FILLER_11_236
*1140 FILLER_12_2
*1141 FILLER_12_24
*1142 FILLER_12_46
*1143 FILLER_12_68
*1144 FILLER_12_90
*1145 FILLER_12_94
*1146 FILLER_12_104
*1147 FILLER_12_114
*1148 FILLER_12_136
*1149 FILLER_12_140
*1150 FILLER_12_151
*1151 FILLER_12_173
*1152 FILLER_12_195
*1153 FILLER_12_217
*1154 FILLER_12_239
*1155 FILLER_12_253
*1156 FILLER_12_257
*1157 FILLER_13_2
*1158 FILLER_13_24
*1159 FILLER_13_46
*1160 FILLER_13_68
*1161 FILLER_13_82
*1162 FILLER_13_98
*1163 FILLER_13_117
*1164 FILLER_13_124
*1165 FILLER_13_138
*1166 FILLER_13_144
*1167 FILLER_13_155
*1168 FILLER_13_177
*1169 FILLER_13_199
*1170 FILLER_13_221
*1171 FILLER_13_243
*1172 FILLER_13_257
*1173 FILLER_14_2
*1174 FILLER_14_24
*1175 FILLER_14_46
*1176 FILLER_14_68
*1177 FILLER_14_82
*1178 FILLER_14_98
*1179 FILLER_14_141
*1180 FILLER_14_165
*1181 FILLER_14_187
*1182 FILLER_14_209
*1183 FILLER_14_231
*1184 FILLER_14_253
*1185 FILLER_14_257
*1186 FILLER_15_2
*1187 FILLER_15_24
*1188 FILLER_15_46
*1189 FILLER_15_68
*1190 FILLER_15_89
*1191 FILLER_15_114
*1192 FILLER_15_126
*1193 FILLER_15_167
*1194 FILLER_15_174
*1195 FILLER_15_188
*1196 FILLER_15_190
*1197 FILLER_15_194
*1198 FILLER_15_216
*1199 FILLER_15_238
*1200 FILLER_15_252
*1201 FILLER_16_2
*1202 FILLER_16_24
*1203 FILLER_16_46
*1204 FILLER_16_68
*1205 FILLER_16_179
*1206 FILLER_16_183
*1207 FILLER_16_200
*1208 FILLER_16_209
*1209 FILLER_16_231
*1210 FILLER_16_253
*1211 FILLER_16_257
*1212 FILLER_17_2
*1213 FILLER_17_24
*1214 FILLER_17_46
*1215 FILLER_17_68
*1216 FILLER_17_74
*1217 FILLER_17_89
*1218 FILLER_17_91
*1219 FILLER_17_114
*1220 FILLER_17_142
*1221 FILLER_17_163
*1222 FILLER_17_179
*1223 FILLER_17_210
*1224 FILLER_17_220
*1225 FILLER_17_229
*1226 FILLER_17_251
*1227 FILLER_17_257
*1228 FILLER_18_2
*1229 FILLER_18_24
*1230 FILLER_18_46
*1231 FILLER_18_68
*1232 FILLER_18_70
*1233 FILLER_18_86
*1234 FILLER_18_99
*1235 FILLER_18_125
*1236 FILLER_18_138
*1237 FILLER_18_156
*1238 FILLER_18_163
*1239 FILLER_18_203
*1240 FILLER_18_225
*1241 FILLER_18_252
*1242 FILLER_19_2
*1243 FILLER_19_8
*1244 FILLER_19_15
*1245 FILLER_19_37
*1246 FILLER_19_59
*1247 FILLER_19_69
*1248 FILLER_19_71
*1249 FILLER_19_152
*1250 FILLER_19_173
*1251 FILLER_19_195
*1252 FILLER_19_217
*1253 FILLER_19_239
*1254 FILLER_19_253
*1255 FILLER_19_257
*1256 FILLER_20_2
*1257 FILLER_20_24
*1258 FILLER_20_46
*1259 FILLER_20_68
*1260 FILLER_20_74
*1261 FILLER_20_106
*1262 FILLER_20_114
*1263 FILLER_20_146
*1264 FILLER_20_196
*1265 FILLER_20_198
*1266 FILLER_20_222
*1267 FILLER_20_236
*1268 FILLER_20_247
*1269 FILLER_20_257
*1270 FILLER_21_2
*1271 FILLER_21_24
*1272 FILLER_21_46
*1273 FILLER_21_60
*1274 FILLER_21_82
*1275 FILLER_21_103
*1276 FILLER_21_113
*1277 FILLER_21_121
*1278 FILLER_21_129
*1279 FILLER_21_143
*1280 FILLER_21_179
*1281 FILLER_21_227
*1282 FILLER_21_249
*1283 FILLER_22_2
*1284 FILLER_22_24
*1285 FILLER_22_46
*1286 FILLER_22_56
*1287 FILLER_22_77
*1288 FILLER_22_131
*1289 FILLER_22_133
*1290 FILLER_22_150
*1291 FILLER_22_162
*1292 FILLER_22_226
*1293 FILLER_22_248
*1294 FILLER_23_2
*1295 FILLER_23_24
*1296 FILLER_23_46
*1297 FILLER_23_60
*1298 FILLER_23_64
*1299 FILLER_23_103
*1300 FILLER_23_125
*1301 FILLER_23_139
*1302 FILLER_23_161
*1303 FILLER_23_173
*1304 FILLER_23_177
*1305 FILLER_23_233
*1306 FILLER_23_240
*1307 FILLER_23_254
*1308 FILLER_24_7
*1309 FILLER_24_21
*1310 FILLER_24_25
*1311 FILLER_24_31
*1312 FILLER_24_53
*1313 FILLER_24_79
*1314 FILLER_24_100
*1315 FILLER_24_110
*1316 FILLER_24_151
*1317 FILLER_24_187
*1318 FILLER_24_218
*1319 FILLER_24_232
*1320 FILLER_24_234
*1321 FILLER_24_240
*1322 FILLER_24_244
*1323 FILLER_24_250
*1324 FILLER_24_256
*1325 FILLER_25_2
*1326 FILLER_25_12
*1327 FILLER_25_19
*1328 FILLER_25_33
*1329 FILLER_25_39
*1330 FILLER_25_45
*1331 FILLER_25_59
*1332 FILLER_25_84
*1333 FILLER_25_117
*1334 FILLER_25_138
*1335 FILLER_25_140
*1336 FILLER_25_168
*1337 FILLER_25_191
*1338 FILLER_25_221
*1339 FILLER_25_225
*1340 FILLER_25_231
*1341 FILLER_25_253
*1342 FILLER_25_257
*1343 FILLER_26_2
*1344 FILLER_26_24
*1345 FILLER_26_46
*1346 FILLER_26_68
*1347 FILLER_26_104
*1348 FILLER_26_133
*1349 FILLER_26_141
*1350 FILLER_26_149
*1351 FILLER_26_159
*1352 FILLER_26_174
*1353 FILLER_26_187
*1354 FILLER_26_221
*1355 FILLER_26_227
*1356 FILLER_26_229
*1357 FILLER_26_243
*1358 FILLER_26_257
*1359 FILLER_27_2
*1360 FILLER_27_8
*1361 FILLER_27_18
*1362 FILLER_27_29
*1363 FILLER_27_51
*1364 FILLER_27_65
*1365 FILLER_27_121
*1366 FILLER_27_143
*1367 FILLER_27_223
*1368 FILLER_27_225
*1369 FILLER_27_229
*1370 FILLER_27_241
*1371 FILLER_27_255
*1372 FILLER_27_257
*1373 FILLER_28_2
*1374 FILLER_28_9
*1375 FILLER_28_31
*1376 FILLER_28_53
*1377 FILLER_28_67
*1378 FILLER_28_175
*1379 FILLER_28_192
*1380 FILLER_28_215
*1381 FILLER_28_226
*1382 FILLER_28_233
*1383 FILLER_28_255
*1384 FILLER_28_257
*1385 FILLER_29_2
*1386 FILLER_29_16
*1387 FILLER_29_22
*1388 FILLER_29_28
*1389 FILLER_29_42
*1390 FILLER_29_46
*1391 FILLER_29_52
*1392 FILLER_29_56
*1393 FILLER_29_80
*1394 FILLER_29_101
*1395 FILLER_29_127
*1396 FILLER_29_139
*1397 FILLER_29_157
*1398 FILLER_29_159
*1399 FILLER_29_179
*1400 FILLER_29_183
*1401 FILLER_29_233
*1402 FILLER_29_247
*1403 FILLER_29_253
*1404 FILLER_29_257
*1405 FILLER_30_2
*1406 FILLER_30_24
*1407 FILLER_30_46
*1408 FILLER_30_68
*1409 FILLER_30_70
*1410 FILLER_30_77
*1411 FILLER_30_111
*1412 FILLER_30_131
*1413 FILLER_30_135
*1414 FILLER_30_155
*1415 FILLER_30_164
*1416 FILLER_30_223
*1417 FILLER_30_245
*1418 FILLER_30_255
*1419 FILLER_30_257
*1420 FILLER_31_2
*1421 FILLER_31_8
*1422 FILLER_31_10
*1423 FILLER_31_16
*1424 FILLER_31_38
*1425 FILLER_31_60
*1426 FILLER_31_74
*1427 FILLER_31_76
*1428 FILLER_31_88
*1429 FILLER_31_110
*1430 FILLER_31_114
*1431 FILLER_31_129
*1432 FILLER_31_137
*1433 FILLER_31_158
*1434 FILLER_31_162
*1435 FILLER_31_171
*1436 FILLER_31_184
*1437 FILLER_31_195
*1438 FILLER_31_199
*1439 FILLER_31_223
*1440 FILLER_31_227
*1441 FILLER_31_233
*1442 FILLER_31_255
*1443 FILLER_31_257
*1444 FILLER_32_2
*1445 FILLER_32_24
*1446 FILLER_32_46
*1447 FILLER_32_68
*1448 FILLER_32_90
*1449 FILLER_32_96
*1450 FILLER_32_98
*1451 FILLER_32_157
*1452 FILLER_32_166
*1453 FILLER_32_185
*1454 FILLER_32_210
*1455 FILLER_32_224
*1456 FILLER_32_235
*1457 FILLER_32_257
*1458 FILLER_33_2
*1459 FILLER_33_24
*1460 FILLER_33_46
*1461 FILLER_33_68
*1462 FILLER_33_90
*1463 FILLER_33_96
*1464 FILLER_33_98
*1465 FILLER_33_105
*1466 FILLER_33_114
*1467 FILLER_33_146
*1468 FILLER_33_168
*1469 FILLER_33_198
*1470 FILLER_33_200
*1471 FILLER_33_221
*1472 FILLER_33_243
*1473 FILLER_33_257
*1474 FILLER_34_2
*1475 FILLER_34_24
*1476 FILLER_34_46
*1477 FILLER_34_68
*1478 FILLER_34_90
*1479 FILLER_34_96
*1480 FILLER_34_98
*1481 FILLER_34_136
*1482 FILLER_34_149
*1483 FILLER_34_188
*1484 FILLER_34_195
*1485 FILLER_34_211
*1486 FILLER_34_233
*1487 FILLER_34_255
*1488 FILLER_34_257
*1489 FILLER_35_2
*1490 FILLER_35_24
*1491 FILLER_35_46
*1492 FILLER_35_68
*1493 FILLER_35_90
*1494 FILLER_35_104
*1495 FILLER_35_111
*1496 FILLER_35_123
*1497 FILLER_35_131
*1498 FILLER_35_149
*1499 FILLER_35_151
*1500 FILLER_35_162
*1501 FILLER_35_164
*1502 FILLER_35_178
*1503 FILLER_35_191
*1504 FILLER_35_213
*1505 FILLER_35_235
*1506 FILLER_35_257
*1507 FILLER_36_2
*1508 FILLER_36_24
*1509 FILLER_36_46
*1510 FILLER_36_68
*1511 FILLER_36_90
*1512 FILLER_36_96
*1513 FILLER_36_102
*1514 FILLER_36_111
*1515 FILLER_36_131
*1516 FILLER_36_181
*1517 FILLER_36_203
*1518 FILLER_36_225
*1519 FILLER_36_247
*1520 FILLER_36_257
*1521 FILLER_37_2
*1522 FILLER_37_24
*1523 FILLER_37_46
*1524 FILLER_37_68
*1525 FILLER_37_90
*1526 FILLER_37_112
*1527 FILLER_37_162
*1528 FILLER_37_172
*1529 FILLER_37_174
*1530 FILLER_37_181
*1531 FILLER_37_203
*1532 FILLER_37_225
*1533 FILLER_37_247
*1534 FILLER_37_257
*1535 FILLER_38_2
*1536 FILLER_38_24
*1537 FILLER_38_46
*1538 FILLER_38_68
*1539 FILLER_38_90
*1540 FILLER_38_112
*1541 FILLER_38_126
*1542 FILLER_38_132
*1543 FILLER_38_146
*1544 FILLER_38_152
*1545 FILLER_38_159
*1546 FILLER_38_181
*1547 FILLER_38_203
*1548 FILLER_38_225
*1549 FILLER_38_247
*1550 FILLER_38_257
*1551 FILLER_39_2
*1552 FILLER_39_24
*1553 FILLER_39_46
*1554 FILLER_39_68
*1555 FILLER_39_90
*1556 FILLER_39_112
*1557 FILLER_39_134
*1558 FILLER_39_148
*1559 FILLER_39_150
*1560 FILLER_39_156
*1561 FILLER_39_178
*1562 FILLER_39_200
*1563 FILLER_39_222
*1564 FILLER_39_244
*1565 FILLER_40_2
*1566 FILLER_40_24
*1567 FILLER_40_46
*1568 FILLER_40_68
*1569 FILLER_40_90
*1570 FILLER_40_112
*1571 FILLER_40_134
*1572 FILLER_40_156
*1573 FILLER_40_178
*1574 FILLER_40_200
*1575 FILLER_40_222
*1576 FILLER_40_244
*1577 FILLER_41_2
*1578 FILLER_41_24
*1579 FILLER_41_46
*1580 FILLER_41_68
*1581 FILLER_41_90
*1582 FILLER_41_112
*1583 FILLER_41_126
*1584 FILLER_41_135
*1585 FILLER_41_157
*1586 FILLER_41_179
*1587 FILLER_41_201
*1588 FILLER_41_223
*1589 FILLER_41_245
*1590 FILLER_41_255
*1591 FILLER_41_257
*1592 FILLER_42_2
*1593 FILLER_42_24
*1594 FILLER_42_46
*1595 FILLER_42_68
*1596 FILLER_42_90
*1597 FILLER_42_112
*1598 FILLER_42_134
*1599 FILLER_42_156
*1600 FILLER_42_178
*1601 FILLER_42_200
*1602 FILLER_42_222
*1603 FILLER_42_244
*1604 FILLER_43_2
*1605 FILLER_43_24
*1606 FILLER_43_46
*1607 FILLER_43_68
*1608 FILLER_43_90
*1609 FILLER_43_112
*1610 FILLER_43_134
*1611 FILLER_43_156
*1612 FILLER_43_178
*1613 FILLER_43_200
*1614 FILLER_43_222
*1615 FILLER_43_244
*1616 FILLER_44_2
*1617 FILLER_44_24
*1618 FILLER_44_46
*1619 FILLER_44_68
*1620 FILLER_44_90
*1621 FILLER_44_112
*1622 FILLER_44_134
*1623 FILLER_44_156
*1624 FILLER_44_178
*1625 FILLER_44_200
*1626 FILLER_44_222
*1627 FILLER_44_244
*1628 FILLER_45_2
*1629 FILLER_45_24
*1630 FILLER_45_46
*1631 FILLER_45_68
*1632 FILLER_45_90
*1633 FILLER_45_112
*1634 FILLER_45_134
*1635 FILLER_45_156
*1636 FILLER_45_178
*1637 FILLER_45_200
*1638 FILLER_45_222
*1639 FILLER_45_244
*1640 FILLER_46_2
*1641 FILLER_46_24
*1642 FILLER_46_46
*1643 FILLER_46_68
*1644 FILLER_46_90
*1645 FILLER_46_112
*1646 FILLER_46_134
*1647 FILLER_46_156
*1648 FILLER_46_178
*1649 FILLER_46_200
*1650 FILLER_46_222
*1651 FILLER_46_244
*1652 FILLER_47_2
*1653 FILLER_47_24
*1654 FILLER_47_46
*1655 FILLER_47_68
*1656 FILLER_47_90
*1657 FILLER_47_112
*1658 FILLER_47_134
*1659 FILLER_47_140
*1660 FILLER_47_142
*1661 FILLER_47_148
*1662 FILLER_47_170
*1663 FILLER_47_192
*1664 FILLER_47_214
*1665 FILLER_47_236
*1666 FILLER_48_2
*1667 FILLER_48_24
*1668 FILLER_48_46
*1669 FILLER_48_68
*1670 FILLER_48_90
*1671 FILLER_48_112
*1672 FILLER_48_134
*1673 FILLER_48_156
*1674 FILLER_48_178
*1675 FILLER_48_200
*1676 FILLER_48_222
*1677 FILLER_48_244
*1678 FILLER_49_2
*1679 FILLER_49_24
*1680 FILLER_49_46
*1681 FILLER_49_68
*1682 FILLER_49_90
*1683 FILLER_49_112
*1684 FILLER_49_134
*1685 FILLER_49_156
*1686 FILLER_49_178
*1687 FILLER_49_200
*1688 FILLER_49_222
*1689 FILLER_49_244
*1690 FILLER_50_2
*1691 FILLER_50_24
*1692 FILLER_50_46
*1693 FILLER_50_68
*1694 FILLER_50_90
*1695 FILLER_50_112
*1696 FILLER_50_134
*1697 FILLER_50_156
*1698 FILLER_50_178
*1699 FILLER_50_200
*1700 FILLER_50_222
*1701 FILLER_50_244
*1702 FILLER_51_2
*1703 FILLER_51_24
*1704 FILLER_51_46
*1705 FILLER_51_68
*1706 FILLER_51_90
*1707 FILLER_51_112
*1708 FILLER_51_134
*1709 FILLER_51_156
*1710 FILLER_51_178
*1711 FILLER_51_200
*1712 FILLER_51_222
*1713 FILLER_51_244

*PORTS
clk I
req_msg[0] I
req_msg[10] I
req_msg[11] I
req_msg[12] I
req_msg[13] I
req_msg[14] I
req_msg[15] I
req_msg[16] I
req_msg[17] I
req_msg[18] I
req_msg[19] I
req_msg[1] I
req_msg[20] I
req_msg[21] I
req_msg[22] I
req_msg[23] I
req_msg[24] I
req_msg[25] I
req_msg[26] I
req_msg[27] I
req_msg[28] I
req_msg[29] I
req_msg[2] I
req_msg[30] I
req_msg[31] I
req_msg[3] I
req_msg[4] I
req_msg[5] I
req_msg[6] I
req_msg[7] I
req_msg[8] I
req_msg[9] I
req_rdy O
req_val I
reset I
resp_msg[0] O
resp_msg[10] O
resp_msg[11] O
resp_msg[12] O
resp_msg[13] O
resp_msg[14] O
resp_msg[15] O
resp_msg[1] O
resp_msg[2] O
resp_msg[3] O
resp_msg[4] O
resp_msg[5] O
resp_msg[6] O
resp_msg[7] O
resp_msg[8] O
resp_msg[9] O
resp_rdy I
resp_val O

*D_NET *1 8.50395e-05
*CONN
*I *734:D I *D DFFHQNx1_ASAP7_75t_L
*I *521:Y O *D AO221x1_ASAP7_75t_L
*CAP
1 *734:D 0
2 *521:Y 3.25424e-06
3 *1:12 2.70939e-05
4 *1:8 3.03482e-05
5 *1:8 *335:30 1.56713e-06
6 *1:12 *519:A 0
7 *1:12 *2:10 1.82219e-06
8 *1:12 *144:12 1.30912e-05
9 *1:12 *145:29 3.1792e-06
10 *1:12 *151:14 4.10378e-06
11 *1:12 *335:22 0
12 *1:12 *335:28 0
13 *1:12 *335:43 0
14 *1:12 *355:8 5.79724e-07
*RES
1 *521:Y *1:8 36.0045 
2 *1:8 *1:12 37.474 
3 *1:12 *734:D 17.2 
*END

*D_NET *2 0.000175481
*CONN
*I *735:D I *D DFFHQNx1_ASAP7_75t_L
*I *520:Y O *D OA21x2_ASAP7_75t_L
*CAP
1 *735:D 0
2 *520:Y 6.74178e-06
3 *2:22 3.58954e-05
4 *2:18 5.21623e-05
5 *2:10 2.30087e-05
6 *2:10 *3:10 0
7 *2:10 *144:12 3.65131e-06
8 *2:18 *106:17 4.09751e-06
9 *2:18 *147:12 4.35576e-08
10 *2:18 *377:25 1.51581e-05
11 *2:22 *13:12 3.29001e-05
12 *1:12 *2:10 1.82219e-06
*RES
1 *520:Y *2:10 39.0452 
2 *2:10 *2:18 42.0846 
3 *2:18 *2:22 41.2671 
4 *2:22 *735:D 17.2 
*END

*D_NET *3 0.000197657
*CONN
*I *736:D I *D DFFHQNx1_ASAP7_75t_L
*I *511:Y O *D NOR2x1_ASAP7_75t_L
*CAP
1 *736:D 1.93131e-05
2 *511:Y 1.55223e-05
3 *3:16 4.30492e-05
4 *3:10 3.92584e-05
5 *736:D *71:20 1.02506e-06
6 *736:D *106:17 8.51183e-06
7 *736:D *147:12 2.01457e-05
8 *3:10 *519:A 1.04475e-06
9 *3:10 *144:12 5.62196e-06
10 *3:10 *148:12 9.47659e-06
11 *3:10 *151:6 7.30263e-06
12 *3:10 *335:12 5.62196e-06
13 *3:10 *335:22 1.66706e-05
14 *3:16 *145:23 5.09299e-06
15 *2:10 *3:10 0
*RES
1 *511:Y *3:10 49.237 
2 *3:10 *3:16 48.8403 
3 *3:16 *736:D 47.0411 
*END

*D_NET *4 0.00159893
*CONN
*I *470:A I *D INVx1_ASAP7_75t_L
*I *968:A I *D BUFx3_ASAP7_75t_L
*I *716:A1 I *D OA222x2_ASAP7_75t_L
*I *919:B I *D NAND2x2_ASAP7_75t_L
*I *694:B I *D NAND2x2_ASAP7_75t_L
*I *608:A I *D NAND2x1_ASAP7_75t_L
*I *971:A I *D BUFx3_ASAP7_75t_L
*I *510:A2 I *D OA21x2_ASAP7_75t_L
*I *512:A I *D NAND2x1_ASAP7_75t_L
*I *516:A I *D AND2x2_ASAP7_75t_L
*I *734:QN O *D DFFHQNx1_ASAP7_75t_L
*CAP
1 *470:A 8.98102e-06
2 *968:A 0
3 *716:A1 0
4 *919:B 3.55455e-06
5 *694:B 0
6 *608:A 2.21711e-06
7 *971:A 0
8 *510:A2 4.61317e-06
9 *512:A 1.07679e-05
10 *516:A 0
11 *734:QN 2.81433e-06
12 *4:151 6.71764e-06
13 *4:143 4.43511e-05
14 *4:128 3.71056e-05
15 *4:117 4.55557e-05
16 *4:113 4.3453e-05
17 *4:105 8.54909e-05
18 *4:94 2.45313e-05
19 *4:87 5.7595e-05
20 *4:85 5.7595e-05
21 *4:83 7.98773e-06
22 *4:71 1.38927e-05
23 *4:69 2.94486e-05
24 *4:47 3.03346e-05
25 *4:41 2.62882e-05
26 *4:37 3.1557e-05
27 *4:35 4.35146e-05
28 *4:22 7.44107e-05
29 *4:12 3.98963e-05
30 *4:6 2.07955e-05
31 *470:A *628:B 1.17973e-05
32 *470:A *209:91 2.18409e-05
33 *470:A *225:8 3.73144e-06
34 *510:A2 *147:8 1.32074e-05
35 *512:A *512:B 2.0779e-05
36 *608:A *208:14 7.58545e-06
37 *608:A *211:8 2.79851e-06
38 *919:B *425:82 1.02672e-05
39 *4:12 *17:12 1.12894e-06
40 *4:12 *225:12 2.38942e-05
41 *4:12 *230:10 0
42 *4:22 *922:A 3.65131e-06
43 *4:22 *20:126 0
44 *4:22 *71:20 6.14615e-05
45 *4:22 *144:12 0
46 *4:22 *148:12 9.62742e-06
47 *4:35 *516:B 2.90209e-08
48 *4:35 *913:A2 4.41457e-06
49 *4:35 *20:141 0
50 *4:35 *132:16 0
51 *4:35 *147:8 1.32074e-05
52 *4:35 *148:12 3.68714e-06
53 *4:35 *208:68 1.62461e-05
54 *4:41 *20:115 7.82218e-06
55 *4:41 *145:36 7.9361e-06
56 *4:47 *20:104 0
57 *4:47 *141:26 2.05883e-06
58 *4:47 *145:36 4.44791e-05
59 *4:47 *146:10 0
60 *4:47 *147:8 9.75645e-06
61 *4:69 *20:115 2.28264e-05
62 *4:69 *64:6 3.5807e-06
63 *4:69 *145:36 2.15475e-05
64 *4:83 *64:12 7.3874e-07
65 *4:83 *275:14 0
66 *4:83 *401:14 1.20932e-06
67 *4:87 *529:A1 1.86219e-05
68 *4:87 *529:B 1.04475e-06
69 *4:87 *964:A 5.22376e-06
70 *4:87 *64:6 7.72307e-07
71 *4:87 *64:16 4.61092e-05
72 *4:87 *68:12 2.10126e-05
73 *4:87 *68:33 2.16456e-05
74 *4:87 *449:8 5.85387e-06
75 *4:87 *456:10 2.02204e-06
76 *4:87 *456:194 1.53057e-06
77 *4:94 *247:16 1.66032e-05
78 *4:94 *248:10 4.89814e-06
79 *4:105 *146:111 1.05128e-05
80 *4:105 *211:12 3.95972e-05
81 *4:105 *247:16 1.34402e-05
82 *4:105 *248:10 2.84286e-06
83 *4:105 *406:31 6.72662e-07
84 *4:105 *417:54 0
85 *4:113 *916:B 3.53338e-06
86 *4:113 *145:36 1.056e-05
87 *4:113 *209:8 5.85387e-06
88 *4:113 *209:12 4.44176e-06
89 *4:113 *209:73 7.74745e-06
90 *4:117 *609:A1 1.3659e-05
91 *4:117 *916:B 1.95129e-06
92 *4:117 *208:33 2.4108e-05
93 *4:117 *211:18 2.71368e-06
94 *4:128 *919:A 6.61321e-05
95 *4:128 *211:18 6.47319e-06
96 *4:128 *229:10 7.77087e-06
97 *4:128 *277:12 6.02341e-06
98 *4:128 *425:76 8.17238e-06
99 *4:128 *425:82 2.90209e-08
100 *4:143 *916:A2 6.16728e-06
101 *4:143 *209:73 0
102 *4:143 *211:12 1.78237e-05
103 *4:143 *278:12 7.26184e-05
104 *4:143 *406:31 8.6675e-07
105 *4:143 *412:12 1.97612e-06
106 *4:143 *417:14 1.2101e-06
107 *4:151 *716:A2 1.35684e-06
108 *4:151 *159:8 1.35684e-06
109 *4:151 *231:20 9.17327e-06
110 *4:151 *440:24 3.05118e-08
*RES
1 *734:QN *4:6 18.8045 
2 *4:6 *4:12 44.537 
3 *4:12 *4:22 43.2684 
4 *4:22 *516:A 34.4 
5 *4:22 *4:35 37.7217 
6 *4:35 *4:37 17.2 
7 *4:37 *4:41 20.0158 
8 *4:41 *4:47 35.0796 
9 *4:47 *512:A 40.8179 
10 *4:41 *510:A2 20.9438 
11 *4:37 *4:69 38.4549 
12 *4:69 *4:71 17.2 
13 *4:71 *4:83 37.4378 
14 *4:83 *4:85 17.2 
15 *4:85 *4:87 43.3208 
16 *4:87 *971:A 17.2 
17 *4:71 *4:94 5.72552 
18 *4:94 *608:A 36.5393 
19 *4:94 *4:105 16.3318 
20 *4:105 *4:113 49.5735 
21 *4:113 *4:117 26.292 
22 *4:117 *694:B 17.2 
23 *4:117 *4:128 43.0133 
24 *4:128 *919:B 37.0741 
25 *4:105 *4:143 39.6375 
26 *4:143 *4:151 38.7548 
27 *4:151 *716:A1 17.2 
28 *4:12 *968:A 17.2 
29 *4:6 *470:A 27.8965 
*END

*D_NET *5 0.000342287
*CONN
*I *500:D I *D AND4x1_ASAP7_75t_L
*I *468:A I *D INVx1_ASAP7_75t_L
*I *753:QN O *D DFFHQNx1_ASAP7_75t_L
*CAP
1 *500:D 0
2 *468:A 0
3 *753:QN 3.8395e-05
4 *5:37 1.19605e-05
5 *5:24 1.92991e-05
6 *5:14 7.60686e-05
7 *5:8 8.32041e-05
8 *5:14 *148:109 1.56962e-05
9 *5:14 *148:213 2.39199e-05
10 *5:14 *214:18 0
11 *5:14 *453:119 1.08465e-06
12 *5:14 *453:140 3.66536e-06
13 *5:24 *148:109 1.79174e-05
14 *5:24 *417:94 5.62196e-06
15 *5:24 *448:14 3.60039e-06
16 *5:24 *453:104 4.61286e-07
17 *5:24 *453:108 1.42054e-05
18 *5:24 *453:119 3.9147e-06
19 *5:37 *34:8 0
20 *5:37 *34:12 1.35684e-06
21 *5:37 *417:88 2.19154e-05
*RES
1 *753:QN *5:8 48.8403 
2 *5:8 *5:14 38.6526 
3 *5:14 *5:24 48.3667 
4 *5:24 *468:A 17.2 
5 *5:14 *5:37 43.0724 
6 *5:37 *500:D 17.2 
*END

*D_NET *6 1.4202e-05
*CONN
*I *592:A I *D INVx1_ASAP7_75t_L
*I *752:QN O *D DFFHQNx1_ASAP7_75t_L
*CAP
1 *592:A 6.57863e-06
2 *752:QN 6.57863e-06
3 *592:A *492:A2 1.04475e-06
*RES
1 *752:QN *592:A 37.0741 
*END

*D_NET *7 4.8626e-05
*CONN
*I *593:A I *D INVx1_ASAP7_75t_L
*I *751:QN O *D DFFHQNx1_ASAP7_75t_L
*CAP
1 *593:A 3.1544e-06
2 *751:QN 1.00656e-05
3 *7:8 1.322e-05
4 *593:A *441:110 2.20493e-06
5 *7:8 *46:21 0
6 *7:8 *266:18 1.00202e-05
7 *7:8 *299:8 9.94583e-06
8 *7:8 *441:106 1.49407e-08
*RES
1 *751:QN *7:8 43.4107 
2 *7:8 *593:A 36.0045 
*END

*D_NET *8 0.000134176
*CONN
*I *594:A I *D INVx2_ASAP7_75t_L
*I *750:QN O *D DFFHQNx1_ASAP7_75t_L
*CAP
1 *594:A 0
2 *750:QN 3.61832e-05
3 *8:12 7.51898e-06
4 *8:6 4.37022e-05
5 *8:6 *483:A 2.2819e-06
6 *8:6 *726:A 1.44053e-05
7 *8:6 *726:B 2.20493e-06
8 *8:6 *50:10 2.741e-06
9 *8:6 *51:10 4.4961e-06
10 *8:6 *117:6 1.44418e-05
11 *8:12 *726:A 0
12 *8:12 *350:12 6.20078e-06
*RES
1 *750:QN *8:6 40.7323 
2 *8:6 *8:12 40.0317 
3 *8:12 *594:A 17.2 
*END

*D_NET *9 1.5315e-05
*CONN
*I *595:A I *D INVx1_ASAP7_75t_L
*I *749:QN O *D DFFHQNx1_ASAP7_75t_L
*CAP
1 *595:A 6.5951e-06
2 *749:QN 6.5951e-06
3 *595:A *678:C 2.12481e-06
*RES
1 *749:QN *595:A 37.0741 
*END

*D_NET *10 0.000210166
*CONN
*I *596:A I *D INVx1_ASAP7_75t_L
*I *748:QN O *D DFFHQNx1_ASAP7_75t_L
*CAP
1 *596:A 0
2 *748:QN 3.36928e-05
3 *10:14 2.3275e-05
4 *10:8 5.69678e-05
5 *10:8 *83:14 0
6 *10:8 *456:69 4.32973e-06
7 *10:8 *456:75 3.48165e-06
8 *10:14 *104:16 4.01178e-05
9 *10:14 *258:12 1.83109e-06
10 *10:14 *296:8 1.47272e-05
11 *10:14 *296:12 1.83109e-06
12 *10:14 *370:10 1.76928e-06
13 *10:14 *441:158 1.55594e-05
14 *10:14 *457:61 1.2583e-05
*RES
1 *748:QN *10:8 48.8403 
2 *10:8 *10:14 42.3441 
3 *10:14 *596:A 17.2 
*END

*D_NET *11 6.64614e-05
*CONN
*I *597:A I *D INVx1_ASAP7_75t_L
*I *747:QN O *D DFFHQNx1_ASAP7_75t_L
*CAP
1 *597:A 2.08462e-05
2 *747:QN 2.08462e-05
3 *597:A *60:16 4.20803e-06
4 *597:A *457:8 2.0561e-05
*RES
1 *747:QN *597:A 47.7706 
*END

*D_NET *12 0.000106381
*CONN
*I *598:A I *D INVx1_ASAP7_75t_L
*I *746:QN O *D DFFHQNx1_ASAP7_75t_L
*CAP
1 *598:A 0
2 *746:QN 4.20366e-05
3 *12:12 3.31087e-06
4 *12:6 4.53475e-05
5 *12:6 *457:27 4.74894e-06
6 *12:12 *209:20 1.12894e-06
7 *12:12 *345:38 9.8079e-06
*RES
1 *746:QN *12:6 33.7796 
2 *12:6 *12:12 37.779 
3 *12:12 *598:A 17.2 
*END

*D_NET *13 0.000187351
*CONN
*I *599:A I *D INVx1_ASAP7_75t_L
*I *745:QN O *D DFFHQNx1_ASAP7_75t_L
*CAP
1 *599:A 0
2 *745:QN 1.02685e-05
3 *13:12 4.30183e-05
4 *13:8 5.32868e-05
5 *13:8 *659:B2 8.33296e-06
6 *13:8 *247:16 2.33787e-05
7 *13:8 *248:10 1.07514e-05
8 *13:12 *293:10 0
9 *13:12 *448:77 5.41446e-06
10 *2:22 *13:12 3.29001e-05
*RES
1 *745:QN *13:8 46.2265 
2 *13:8 *13:12 38.0582 
3 *13:12 *599:A 17.2 
*END

*D_NET *14 0.000247852
*CONN
*I *601:A I *D INVx1_ASAP7_75t_L
*I *648:A I *D NAND2x1_ASAP7_75t_L
*I *743:QN O *D DFFHQNx1_ASAP7_75t_L
*CAP
1 *601:A 0
2 *648:A 1.98337e-05
3 *743:QN 0
4 *14:23 2.69669e-05
5 *14:10 8.06616e-05
6 *14:6 3.3861e-05
7 *648:A *651:B 6.61478e-06
8 *648:A *148:171 2.66207e-05
9 *14:10 *15:12 5.37866e-07
10 *14:10 *238:10 2.77657e-06
11 *14:10 *240:10 0
12 *14:10 *242:8 0
13 *14:10 *244:8 0
14 *14:10 *466:14 1.34402e-05
15 *14:23 *148:164 0
16 *14:23 *148:171 5.85387e-06
17 *14:23 *209:145 4.68418e-06
18 *14:23 *237:10 6.72417e-07
19 *14:23 *238:10 2.10266e-05
20 *14:23 *243:10 3.16603e-06
21 *14:23 *335:139 5.67747e-07
22 *14:23 *402:75 5.67747e-07
*RES
1 *743:QN *14:6 34.4 
2 *14:6 *14:10 41.9793 
3 *14:10 *648:A 31.6403 
4 *14:10 *14:23 40.2048 
5 *14:23 *601:A 34.4 
*END

*D_NET *15 4.0472e-05
*CONN
*I *602:A I *D INVx1_ASAP7_75t_L
*I *643:A I *D NAND2x1_ASAP7_75t_L
*I *742:QN O *D DFFHQNx1_ASAP7_75t_L
*CAP
1 *602:A 5.40484e-06
2 *643:A 0
3 *742:QN 0
4 *15:12 1.35372e-05
5 *15:4 1.8942e-05
6 *602:A *344:31 7.72307e-07
7 *15:12 *242:8 0
8 *15:12 *344:31 1.27782e-06
9 *14:10 *15:12 5.37866e-07
*RES
1 *742:QN *15:4 17.2 
2 *15:4 *15:12 41.5228 
3 *15:12 *643:A 17.2 
4 *15:4 *602:A 19.8741 
*END

*D_NET *16 0.000269325
*CONN
*I *969:A I *D BUFx3_ASAP7_75t_L
*I *603:A I *D INVx1_ASAP7_75t_L
*I *741:QN O *D DFFHQNx1_ASAP7_75t_L
*CAP
1 *969:A 5.57224e-06
2 *603:A 2.17941e-05
3 *741:QN 0
4 *16:25 2.17308e-05
5 *16:10 4.27671e-05
6 *16:4 3.71316e-05
7 *603:A *742:CLK 2.20493e-06
8 *603:A *289:10 0
9 *969:A *704:C1 1.89116e-05
10 *969:A *241:6 1.95129e-06
11 *969:A *454:10 1.46661e-05
12 *16:10 *743:CLK 6.16774e-06
13 *16:10 *31:29 1.87942e-05
14 *16:10 *290:20 0
15 *16:10 *435:8 0
16 *16:10 *446:84 4.83862e-06
17 *16:10 *446:88 5.85387e-06
18 *16:10 *446:95 3.23959e-05
19 *16:25 *31:21 2.58819e-05
20 *16:25 *209:118 0
21 *16:25 *241:19 6.53224e-07
22 *16:25 *446:84 4.05386e-06
23 *16:25 *454:10 3.9563e-06
*RES
1 *741:QN *16:4 17.2 
2 *16:4 *16:10 35.5861 
3 *16:10 *603:A 43.492 
4 *16:4 *16:25 47.3528 
5 *16:25 *969:A 22.0134 
*END

*D_NET *17 0.000136908
*CONN
*I *604:A I *D INVx1_ASAP7_75t_L
*I *740:QN O *D DFFHQNx1_ASAP7_75t_L
*CAP
1 *604:A 0
2 *740:QN 0
3 *17:12 3.05715e-05
4 *17:6 3.05715e-05
5 *17:12 *214:28 5.67735e-06
6 *17:12 *225:12 1.19879e-05
7 *17:12 *230:10 0
8 *17:12 *288:10 7.84153e-06
9 *17:12 *288:18 8.71771e-06
10 *17:12 *288:29 1.64764e-06
11 *17:12 *335:12 1.56713e-06
12 *17:12 *453:16 1.67893e-05
13 *17:12 *453:25 2.04071e-05
14 *4:12 *17:12 1.12894e-06
*RES
1 *740:QN *17:6 34.4 
2 *17:6 *17:12 47.5259 
3 *17:12 *604:A 17.2 
*END

*D_NET *18 0.000611395
*CONN
*I *970:A I *D BUFx3_ASAP7_75t_L
*I *605:A I *D INVx1_ASAP7_75t_L
*I *739:QN O *D DFFHQNx1_ASAP7_75t_L
*CAP
1 *970:A 3.82519e-06
2 *605:A 0
3 *739:QN 0
4 *18:39 2.29668e-05
5 *18:28 1.08907e-06
6 *18:22 3.6854e-05
7 *18:18 6.07631e-05
8 *18:10 5.23395e-05
9 *18:4 4.6483e-05
10 *970:A *221:14 9.52454e-06
11 *18:10 *233:16 0
12 *18:10 *237:20 5.16782e-06
13 *18:10 *281:14 0
14 *18:10 *402:75 1.94993e-05
15 *18:10 *450:18 2.66797e-07
16 *18:18 *209:118 4.26019e-06
17 *18:18 *210:12 6.29179e-05
18 *18:18 *233:12 2.73563e-05
19 *18:18 *237:26 4.26751e-07
20 *18:18 *339:41 0
21 *18:22 *28:18 5.78749e-06
22 *18:22 *28:22 1.35008e-05
23 *18:22 *28:26 8.79922e-07
24 *18:22 *37:18 3.30265e-05
25 *18:22 *210:12 8.67148e-05
26 *18:22 *213:42 5.28868e-07
27 *18:22 *402:29 4.33061e-05
28 *18:22 *429:24 0
29 *18:28 *131:12 4.03399e-07
30 *18:39 *222:8 1.86635e-05
31 *18:39 *232:10 1.42471e-05
32 *18:39 *335:139 0
33 *18:39 *450:10 4.00911e-05
34 *18:39 *450:18 5.0551e-07
*RES
1 *739:QN *18:4 17.2 
2 *18:4 *18:10 37.4828 
3 *18:10 *18:18 48.7886 
4 *18:18 *18:22 38.4109 
5 *18:22 *18:28 35.2447 
6 *18:28 *605:A 17.2 
7 *18:4 *18:39 35.0229 
8 *18:39 *970:A 37.0741 
*END

*D_NET *19 1.13607e-05
*CONN
*I *606:A I *D INVx1_ASAP7_75t_L
*I *738:QN O *D DFFHQNx1_ASAP7_75t_L
*CAP
1 *606:A 5.68035e-06
2 *738:QN 5.68035e-06
3 *606:A *286:6 0
*RES
1 *738:QN *606:A 37.0741 
*END

*D_NET *20 0.00170548
*CONN
*I *693:B I *D AO21x2_ASAP7_75t_L
*I *516:B I *D AND2x2_ASAP7_75t_L
*I *509:B I *D AO21x1_ASAP7_75t_L
*I *512:B I *D NAND2x1_ASAP7_75t_L
*I *514:A I *D INVx1_ASAP7_75t_L
*I *652:C I *D AND3x1_ASAP7_75t_L
*I *673:C I *D AND3x1_ASAP7_75t_L
*I *669:C I *D AND3x1_ASAP7_75t_L
*I *736:QN O *D DFFHQNx1_ASAP7_75t_L
*CAP
1 *693:B 0
2 *516:B 7.91598e-06
3 *509:B 2.60129e-06
4 *512:B 4.99057e-06
5 *514:A 0
6 *652:C 0
7 *673:C 0
8 *669:C 0
9 *736:QN 2.51338e-05
10 *20:141 2.13715e-05
11 *20:126 3.2702e-05
12 *20:115 2.22692e-05
13 *20:104 1.73827e-05
14 *20:93 6.40491e-06
15 *20:75 1.54441e-05
16 *20:62 1.76856e-05
17 *20:52 4.10837e-05
18 *20:48 6.19982e-05
19 *20:46 5.64232e-05
20 *20:42 2.37903e-06
21 *20:40 6.06406e-05
22 *20:34 6.2523e-05
23 *20:28 4.96684e-05
24 *20:22 0.000147313
25 *20:18 0.000117209
26 *20:16 4.80798e-05
27 *20:14 5.80687e-05
28 *20:10 2.25474e-05
29 *20:8 3.02763e-05
30 *509:B *403:12 2.90209e-08
31 *512:B *659:A2 1.22121e-05
32 *516:B *913:A2 1.55843e-05
33 *20:8 *71:20 4.45712e-05
34 *20:10 *144:12 2.33013e-06
35 *20:10 *448:31 3.05118e-08
36 *20:14 *401:14 1.33407e-06
37 *20:16 *401:14 2.53632e-06
38 *20:18 *71:28 2.50523e-06
39 *20:18 *401:14 9.25549e-07
40 *20:22 *71:28 6.99655e-06
41 *20:22 *401:14 4.70806e-06
42 *20:28 *526:A 5.86507e-07
43 *20:28 *79:8 0
44 *20:28 *411:20 0
45 *20:34 *60:18 4.15076e-06
46 *20:34 *413:19 1.49407e-08
47 *20:40 *67:14 4.96663e-06
48 *20:40 *212:73 2.25196e-06
49 *20:40 *292:18 7.23981e-06
50 *20:40 *292:35 9.43117e-07
51 *20:40 *294:18 1.32965e-05
52 *20:40 *294:40 1.88042e-06
53 *20:40 *412:32 9.54815e-06
54 *20:40 *456:14 0
55 *20:40 *456:20 0
56 *20:46 *652:B 5.19475e-06
57 *20:48 *652:A 1.3295e-05
58 *20:48 *708:C2 1.22841e-05
59 *20:48 *212:61 1.49407e-08
60 *20:48 *212:73 4.27505e-06
61 *20:48 *257:10 2.2154e-05
62 *20:48 *257:25 4.12478e-05
63 *20:48 *275:64 0
64 *20:48 *275:73 1.67032e-05
65 *20:48 *275:84 5.68873e-06
66 *20:48 *278:34 5.37634e-06
67 *20:48 *278:36 1.6843e-05
68 *20:48 *294:30 6.80947e-07
69 *20:48 *295:22 2.56182e-05
70 *20:48 *295:28 7.78802e-06
71 *20:48 *296:35 3.59918e-05
72 *20:48 *456:20 1.76072e-05
73 *20:48 *457:51 2.33701e-05
74 *20:52 *296:27 6.10262e-06
75 *20:52 *296:48 1.17526e-06
76 *20:52 *456:92 2.94057e-05
77 *20:62 *677:A2 5.22376e-07
78 *20:62 *104:12 2.6334e-05
79 *20:62 *296:20 3.28696e-07
80 *20:62 *296:27 5.1215e-06
81 *20:62 *349:20 1.14889e-05
82 *20:62 *349:28 3.73144e-06
83 *20:62 *456:92 2.08254e-05
84 *20:75 *259:14 2.68255e-06
85 *20:75 *264:10 1.72878e-05
86 *20:75 *264:22 6.61697e-06
87 *20:75 *421:22 9.41947e-07
88 *20:75 *456:109 0
89 *20:93 *247:16 3.17029e-06
90 *20:104 *145:36 0
91 *20:104 *248:10 3.66223e-05
92 *20:115 *106:17 6.74764e-06
93 *20:115 *143:12 7.32095e-07
94 *20:115 *145:36 8.25196e-06
95 *20:115 *147:12 6.46153e-06
96 *20:115 *448:31 3.38681e-06
97 *20:126 *144:12 6.72662e-07
98 *20:126 *448:31 2.58958e-06
99 *20:141 *132:16 7.20071e-05
100 *20:141 *140:33 2.03526e-06
101 *20:141 *143:12 1.45199e-05
102 *20:141 *208:62 2.03526e-06
103 *20:141 *407:29 4.25968e-06
104 *20:141 *407:40 3.25289e-05
105 *20:141 *448:31 5.49212e-07
106 *512:A *512:B 2.0779e-05
107 *4:22 *20:126 0
108 *4:35 *516:B 2.90209e-08
109 *4:35 *20:141 0
110 *4:41 *20:115 7.82218e-06
111 *4:47 *20:104 0
112 *4:69 *20:115 2.28264e-05
*RES
1 *736:QN *20:8 47.7706 
2 *20:8 *20:10 2.72197 
3 *20:10 *20:14 21.5288 
4 *20:14 *20:16 6.92602 
5 *20:16 *20:18 3.67945 
6 *20:18 *20:22 47.5013 
7 *20:22 *20:28 35.4319 
8 *20:28 *20:34 35.8079 
9 *20:34 *20:40 38.6064 
10 *20:40 *20:42 17.2 
11 *20:42 *20:46 18.8045 
12 *20:46 *20:48 65.4211 
13 *20:48 *20:52 22.1781 
14 *20:52 *20:62 47.0538 
15 *20:62 *669:C 17.2 
16 *20:52 *20:75 44.3581 
17 *20:75 *673:C 17.2 
18 *20:42 *652:C 17.2 
19 *20:18 *20:93 37.2247 
20 *20:93 *514:A 17.2 
21 *20:16 *20:104 46.6958 
22 *20:104 *512:B 25.7572 
23 *20:14 *20:115 36.4415 
24 *20:115 *509:B 35.4697 
25 *20:10 *20:126 3.47286 
26 *20:126 *516:B 40.2831 
27 *20:126 *20:141 44.7101 
28 *20:141 *693:B 17.2 
*END

*D_NET *21 5.51496e-05
*CONN
*I *513:A I *D NOR2x1_ASAP7_75t_L
*I *518:B I *D AOI21x1_ASAP7_75t_L
*I *735:QN O *D DFFHQNx1_ASAP7_75t_L
*CAP
1 *513:A 5.93418e-06
2 *518:B 0
3 *735:QN 3.43547e-06
4 *21:12 1.04497e-05
5 *21:8 7.95103e-06
6 *513:A *145:29 2.12481e-06
7 *21:8 *106:17 1.34329e-05
8 *21:8 *150:8 1.12894e-06
9 *21:8 *335:43 4.83862e-06
10 *21:12 *956:A 5.85387e-06
*RES
1 *735:QN *21:8 38.9053 
2 *21:8 *21:12 19.8741 
3 *21:12 *518:B 17.2 
4 *21:12 *513:A 20.9438 
*END

*D_NET *22 0.000252377
*CONN
*I *936:A I *D BUFx3_ASAP7_75t_L
*I *717:A I *D FAx1_ASAP7_75t_L
*I *523:Y O *D INVx1_ASAP7_75t_L
*CAP
1 *936:A 0
2 *717:A 1.92882e-06
3 *523:Y 1.34624e-05
4 *22:35 4.30915e-06
5 *22:29 6.43063e-05
6 *22:18 7.84502e-05
7 *22:10 2.99866e-05
8 *717:A *63:60 5.37866e-07
9 *717:A *408:8 5.49212e-07
10 *22:10 *63:48 0
11 *22:10 *63:54 0
12 *22:10 *71:44 2.12481e-06
13 *22:10 *408:8 8.33296e-06
14 *22:10 *413:8 2.37635e-05
15 *22:10 *413:19 1.16894e-05
16 *22:18 *63:54 3.69446e-06
17 *22:18 *408:8 3.55524e-06
18 *22:18 *408:12 5.68629e-06
19 *22:18 *415:12 0
20 *22:29 *345:10 0
21 *22:35 *108:10 0
22 *22:35 *346:25 0
*RES
1 *523:Y *22:10 47.2678 
2 *22:10 *22:18 45.9714 
3 *22:18 *717:A 18.8895 
4 *22:18 *22:29 39.1278 
5 *22:29 *22:35 37.2158 
6 *22:35 *936:A 17.2 
*END

*D_NET *23 0.000246198
*CONN
*I *717:B I *D FAx1_ASAP7_75t_L
*I *600:A I *D INVx1_ASAP7_75t_L
*I *744:QN O *D DFFHQNx1_ASAP7_75t_L
*CAP
1 *717:B 0
2 *600:A 3.55527e-05
3 *744:QN 5.11667e-06
4 *23:12 5.98823e-05
5 *23:8 2.94463e-05
6 *600:A *347:14 4.0398e-05
7 *600:A *347:18 2.20464e-05
8 *23:8 *347:10 3.08767e-06
9 *23:8 *415:12 6.3562e-06
10 *23:12 *975:A 0
11 *23:12 *24:6 0
12 *23:12 *118:8 2.01457e-05
13 *23:12 *347:10 1.45597e-05
14 *23:12 *415:12 8.47704e-06
15 *23:12 *462:10 1.12894e-06
*RES
1 *744:QN *23:8 40.0317 
2 *23:8 *23:12 40.853 
3 *23:12 *600:A 33.7796 
4 *23:8 *717:B 17.2 
*END

*D_NET *24 0.000108322
*CONN
*I *474:A I *D INVx1_ASAP7_75t_L
*I *975:A I *D BUFx3_ASAP7_75t_L
*I *717:CON O *D FAx1_ASAP7_75t_L
*CAP
1 *474:A 1.51917e-05
2 *975:A 8.25568e-06
3 *717:CON 1.84083e-05
4 *24:6 4.18557e-05
5 *474:A *118:12 1.0354e-05
6 *975:A *118:12 1.41856e-05
7 *975:A *399:14 0
8 *24:6 *717:CI 7.11252e-08
9 *24:6 *345:10 0
10 *24:6 *399:14 0
11 *24:6 *415:12 0
12 *24:6 *462:10 0
13 *23:12 *975:A 0
14 *23:12 *24:6 0
*RES
1 *717:CON *24:6 30.1528 
2 *24:6 *975:A 39.8333 
3 *24:6 *474:A 41.3527 
*END

*D_NET *25 0.000621992
*CONN
*I *718:B I *D HAxp5_ASAP7_75t_L
*I *499:B I *D AND4x1_ASAP7_75t_L
*I *647:A I *D INVx1_ASAP7_75t_L
*I *759:QN O *D DFFHQNx1_ASAP7_75t_L
*CAP
1 *718:B 5.42e-06
2 *499:B 2.90863e-06
3 *647:A 0
4 *759:QN 2.75242e-05
5 *25:31 2.75421e-05
6 *25:27 3.07942e-05
7 *25:25 7.55196e-05
8 *25:21 7.7874e-05
9 *25:10 3.06194e-05
10 *499:B *131:14 2.52755e-07
11 *499:B *444:28 2.28976e-06
12 *499:B *446:41 1.12439e-05
13 *718:B *26:10 5.0551e-07
14 *25:10 *645:A1 0
15 *25:10 *213:18 1.61594e-05
16 *25:10 *237:20 0
17 *25:21 *645:A1 0
18 *25:21 *213:26 0
19 *25:21 *402:75 0
20 *25:25 *28:18 0
21 *25:25 *37:18 0
22 *25:25 *149:14 8.39327e-05
23 *25:25 *213:32 1.57176e-05
24 *25:25 *291:14 4.38272e-06
25 *25:25 *291:34 5.00011e-05
26 *25:25 *339:14 6.10253e-06
27 *25:25 *424:23 0
28 *25:25 *454:16 7.38573e-08
29 *25:27 *26:34 3.88115e-06
30 *25:27 *28:28 2.4919e-06
31 *25:31 *755:CLK 5.09995e-06
32 *25:31 *26:34 1.67893e-05
33 *25:31 *28:28 4.80307e-05
34 *25:31 *130:8 0
35 *25:31 *131:12 7.68914e-06
36 *25:31 *287:14 1.69693e-06
37 *25:31 *287:33 2.14768e-06
38 *25:31 *446:28 2.61719e-05
39 *25:31 *450:51 3.91296e-05
40 *25:31 *453:51 0
41 *25:31 *453:70 0
*RES
1 *759:QN *25:10 49.0103 
2 *25:10 *647:A 34.4 
3 *25:10 *25:21 19.7342 
4 *25:21 *25:25 48.7999 
5 *25:25 *25:27 1.40791 
6 *25:27 *25:31 48.1741 
7 *25:31 *499:B 20.409 
8 *25:27 *718:B 37.0741 
*END

*D_NET *26 0.000188608
*CONN
*I *497:B I *D OAI21x1_ASAP7_75t_L
*I *505:B I *D AND4x2_ASAP7_75t_L
*I *506:A1 I *D AOI21x1_ASAP7_75t_L
*I *718:CON O *D HAxp5_ASAP7_75t_L
*CAP
1 *497:B 0
2 *505:B 6.51868e-06
3 *506:A1 0
4 *718:CON 0
5 *26:34 1.66518e-05
6 *26:10 4.16242e-05
7 *26:4 5.17574e-05
8 *505:B *35:20 1.08723e-05
9 *505:B *137:10 1.13547e-05
10 *26:10 *35:14 6.7842e-07
11 *26:10 *35:20 4.70422e-06
12 *26:10 *36:18 0
13 *26:10 *137:10 2.35211e-06
14 *26:10 *425:58 1.31643e-05
15 *26:34 *28:28 4.94541e-06
16 *26:34 *130:8 2.80886e-06
17 *718:B *26:10 5.0551e-07
18 *25:27 *26:34 3.88115e-06
19 *25:31 *26:34 1.67893e-05
*RES
1 *718:CON *26:4 17.2 
2 *26:4 *26:10 36.3156 
3 *26:10 *506:A1 34.4 
4 *26:10 *505:B 43.4107 
5 *26:4 *26:34 47.2111 
6 *26:34 *497:B 17.2 
*END

*D_NET *27 0.000350796
*CONN
*I *944:A I *D BUFx3_ASAP7_75t_L
*I *718:SN O *D HAxp5_ASAP7_75t_L
*CAP
1 *944:A 0
2 *718:SN 4.34106e-06
3 *27:14 3.19683e-05
4 *27:10 6.89705e-05
5 *27:8 4.13433e-05
6 *27:8 *640:A 3.46317e-06
7 *27:8 *718:A 6.78445e-06
8 *27:8 *236:10 5.34278e-06
9 *27:10 *37:12 1.64004e-05
10 *27:10 *130:8 0
11 *27:10 *223:18 2.03413e-06
12 *27:10 *235:12 6.73854e-05
13 *27:10 *291:34 3.30589e-06
14 *27:10 *401:88 6.23005e-05
15 *27:10 *429:24 8.70345e-06
16 *27:10 *450:30 3.9208e-06
17 *27:10 *453:51 8.63628e-06
18 *27:10 *453:70 1.26641e-06
19 *27:14 *37:8 4.70329e-06
20 *27:14 *339:24 9.92599e-06
*RES
1 *718:SN *27:8 40.2831 
2 *27:8 *27:10 41.6743 
3 *27:10 *27:14 33.7796 
4 *27:14 *944:A 17.2 
*END

*D_NET *28 0.000749682
*CONN
*I *642:A I *D INVx1_ASAP7_75t_L
*I *499:C I *D AND4x1_ASAP7_75t_L
*I *719:B I *D HAxp5_ASAP7_75t_L
*I *758:QN O *D DFFHQNx1_ASAP7_75t_L
*CAP
1 *642:A 0
2 *499:C 0
3 *719:B 7.82567e-06
4 *758:QN 4.24744e-06
5 *28:64 2.81924e-05
6 *28:51 1.22985e-05
7 *28:45 2.97338e-05
8 *28:28 4.30382e-05
9 *28:26 4.46874e-05
10 *28:22 3.68847e-05
11 *28:18 8.30805e-05
12 *28:12 8.01231e-05
13 *28:6 3.94568e-05
14 *719:B *505:A 1.04475e-06
15 *28:6 *232:6 0
16 *28:12 *291:10 5.49402e-06
17 *28:12 *335:139 1.49407e-08
18 *28:12 *402:75 8.2174e-07
19 *28:18 *210:12 1.19831e-05
20 *28:18 *213:42 8.91413e-07
21 *28:18 *237:16 7.05157e-07
22 *28:18 *281:14 1.76223e-05
23 *28:18 *291:14 3.99532e-05
24 *28:18 *291:34 2.74278e-07
25 *28:18 *402:29 1.51674e-05
26 *28:18 *429:24 4.49842e-06
27 *28:22 *210:12 1.33834e-05
28 *28:22 *233:12 4.54724e-05
29 *28:26 *37:18 6.53609e-06
30 *28:26 *233:12 1.00837e-05
31 *28:26 *402:14 6.90471e-06
32 *28:28 *36:18 4.72127e-06
33 *28:28 *130:8 0
34 *28:28 *287:33 1.10213e-05
35 *28:28 *425:48 3.71048e-05
36 *28:45 *639:A2 9.08513e-06
37 *28:45 *131:12 6.72332e-07
38 *28:45 *233:8 6.72662e-07
39 *28:45 *401:88 0
40 *28:51 *131:12 1.32867e-05
41 *28:51 *401:88 0
42 *28:51 *450:45 6.79307e-06
43 *28:64 *213:12 2.68933e-07
44 *28:64 *232:6 0
45 *28:64 *335:139 0
46 *18:22 *28:18 5.78749e-06
47 *18:22 *28:22 1.35008e-05
48 *18:22 *28:26 8.79922e-07
49 *25:25 *28:18 0
50 *25:27 *28:28 2.4919e-06
51 *25:31 *28:28 4.80307e-05
52 *26:34 *28:28 4.94541e-06
*RES
1 *758:QN *28:6 18.8045 
2 *28:6 *28:12 39.1869 
3 *28:12 *28:18 44.6806 
4 *28:18 *28:22 19.8623 
5 *28:22 *28:26 22.1781 
6 *28:26 *28:28 36.5119 
7 *28:28 *719:B 38.1438 
8 *28:22 *28:45 45.0523 
9 *28:45 *28:51 45.6633 
10 *28:51 *499:C 17.2 
11 *28:6 *28:64 47.9407 
12 *28:64 *642:A 17.2 
*END

*D_NET *29 0.000415903
*CONN
*I *589:B I *D OAI21x1_ASAP7_75t_L
*I *503:A1 I *D AO21x1_ASAP7_75t_L
*I *496:B I *D OA21x2_ASAP7_75t_L
*I *505:A I *D AND4x2_ASAP7_75t_L
*I *719:CON O *D HAxp5_ASAP7_75t_L
*CAP
1 *589:B 7.66116e-06
2 *503:A1 0
3 *496:B 0
4 *505:A 9.26924e-06
5 *719:CON 5.48299e-06
6 *29:50 1.55319e-05
7 *29:46 3.3022e-05
8 *29:40 3.93295e-05
9 *29:29 2.67161e-05
10 *29:16 2.70538e-05
11 *29:8 3.58054e-05
12 *505:A *505:C 7.58545e-06
13 *505:A *505:D 5.60174e-06
14 *505:A *424:31 1.711e-05
15 *589:B *30:33 2.84286e-06
16 *589:B *427:25 1.59615e-06
17 *29:8 *30:12 9.67723e-06
18 *29:8 *130:8 1.09842e-06
19 *29:8 *425:48 1.49407e-08
20 *29:16 *36:18 1.00799e-05
21 *29:16 *425:6 5.77141e-06
22 *29:16 *425:10 2.03526e-06
23 *29:16 *425:48 2.32945e-05
24 *29:29 *30:12 2.44617e-05
25 *29:29 *30:22 1.12894e-06
26 *29:29 *30:33 1.182e-05
27 *29:29 *130:8 1.12894e-06
28 *29:29 *425:12 0
29 *29:40 *30:33 6.0034e-06
30 *29:40 *201:6 4.92332e-06
31 *29:40 *342:25 8.90818e-07
32 *29:46 *589:A2 4.17901e-06
33 *29:46 *427:25 0
34 *29:50 *503:A2 0
35 *29:50 *587:B 6.10236e-07
36 *29:50 *589:A1 1.09842e-06
37 *29:50 *30:33 0
38 *29:50 *204:10 1.64401e-05
39 *29:50 *425:12 5.55937e-05
40 *719:B *505:A 1.04475e-06
*RES
1 *719:CON *29:8 38.9053 
2 *29:8 *29:16 48.1674 
3 *29:16 *505:A 41.8876 
4 *29:8 *29:29 29.5897 
5 *29:29 *496:B 17.2 
6 *29:29 *29:40 26.5754 
7 *29:40 *29:46 42.4224 
8 *29:46 *29:50 35.7845 
9 *29:50 *503:A1 17.2 
10 *29:40 *589:B 39.89 
*END

*D_NET *30 0.00035144
*CONN
*I *503:A2 I *D AO21x1_ASAP7_75t_L
*I *942:A I *D BUFx3_ASAP7_75t_L
*I *496:A1 I *D OA21x2_ASAP7_75t_L
*I *719:SN O *D HAxp5_ASAP7_75t_L
*CAP
1 *503:A2 1.68629e-05
2 *942:A 1.04993e-05
3 *496:A1 0
4 *719:SN 1.14522e-05
5 *30:33 5.74143e-05
6 *30:22 1.29726e-05
7 *30:12 5.64447e-05
8 *30:8 2.48723e-05
9 *503:A2 *137:8 7.58265e-07
10 *503:A2 *202:10 2.53282e-06
11 *503:A2 *425:12 0
12 *503:A2 *429:58 3.12646e-05
13 *942:A *185:29 1.02506e-06
14 *942:A *429:50 3.44136e-05
15 *942:A *435:12 9.50284e-06
16 *30:8 *719:A 1.51653e-06
17 *30:12 *425:12 1.49407e-08
18 *30:12 *425:48 1.09842e-06
19 *30:22 *129:35 4.34378e-06
20 *30:22 *201:6 0
21 *30:22 *425:12 3.76935e-06
22 *30:33 *587:B 4.53993e-06
23 *30:33 *589:A1 4.58327e-06
24 *30:33 *130:8 6.33206e-07
25 *30:33 *342:25 0
26 *30:33 *425:12 0
27 *30:33 *429:58 4.99118e-06
28 *589:B *30:33 2.84286e-06
29 *29:8 *30:12 9.67723e-06
30 *29:29 *30:12 2.44617e-05
31 *29:29 *30:22 1.12894e-06
32 *29:29 *30:33 1.182e-05
33 *29:40 *30:33 6.0034e-06
34 *29:50 *503:A2 0
35 *29:50 *30:33 0
*RES
1 *719:SN *30:8 39.2134 
2 *30:8 *30:12 29.0265 
3 *30:12 *30:22 43.0989 
4 *30:22 *496:A1 17.2 
5 *30:12 *30:33 38.4586 
6 *30:33 *942:A 45.6313 
7 *30:33 *503:A2 49.4638 
*END

*D_NET *31 0.00071447
*CONN
*I *720:B I *D HAxp5_ASAP7_75t_L
*I *965:A I *D BUFx3_ASAP7_75t_L
*I *757:QN O *D DFFHQNx1_ASAP7_75t_L
*CAP
1 *720:B 0
2 *965:A 0
3 *757:QN 5.70487e-05
4 *31:41 8.69975e-06
5 *31:33 5.70463e-05
6 *31:29 6.60578e-05
7 *31:21 5.62303e-05
8 *31:14 3.72532e-05
9 *31:8 7.57723e-05
10 *31:6 5.70487e-05
11 *31:6 *281:8 0
12 *31:14 *620:C 3.573e-05
13 *31:14 *209:112 1.369e-05
14 *31:14 *226:8 1.48593e-05
15 *31:14 *226:12 4.12527e-05
16 *31:14 *340:26 3.17029e-06
17 *31:14 *429:12 1.67815e-06
18 *31:21 *94:8 9.92218e-06
19 *31:21 *209:118 0
20 *31:21 *237:26 5.25164e-06
21 *31:21 *429:12 2.97551e-06
22 *31:21 *446:62 1.2873e-05
23 *31:21 *446:84 8.36112e-05
24 *31:29 *290:20 0
25 *31:29 *419:6 1.328e-05
26 *31:29 *429:35 0
27 *31:29 *435:8 0
28 *31:29 *446:84 3.42903e-06
29 *31:33 *290:24 6.35558e-06
30 *31:33 *446:88 3.79133e-06
31 *31:41 *32:10 6.33206e-07
32 *31:41 *33:6 5.0551e-07
33 *31:41 *289:25 0
34 *31:41 *342:25 1.62854e-06
35 *16:10 *31:29 1.87942e-05
36 *16:25 *31:21 2.58819e-05
*RES
1 *757:QN *31:6 40.1975 
2 *31:6 *31:8 17.2 
3 *31:8 *31:14 47.6923 
4 *31:14 *965:A 17.2 
5 *31:8 *31:21 38.8585 
6 *31:21 *31:29 48.2808 
7 *31:29 *31:33 38.0582 
8 *31:33 *31:41 40.5098 
9 *31:41 *720:B 17.2 
*END

*D_NET *32 0.000272739
*CONN
*I *932:A I *D BUFx3_ASAP7_75t_L
*I *588:B I *D OA21x2_ASAP7_75t_L
*I *495:B I *D OA21x2_ASAP7_75t_L
*I *720:CON O *D HAxp5_ASAP7_75t_L
*CAP
1 *932:A 1.73124e-05
2 *588:B 1.06793e-05
3 *495:B 2.57147e-06
4 *720:CON 0
5 *32:42 2.78066e-05
6 *32:16 6.12966e-05
7 *32:10 5.81124e-05
8 *32:4 2.05608e-05
9 *495:B *129:14 2.03526e-06
10 *588:B *35:46 8.94249e-06
11 *588:B *425:12 5.94588e-06
12 *932:A *201:6 1.78333e-06
13 *932:A *343:6 2.61188e-06
14 *932:A *424:8 2.38044e-05
15 *32:10 *585:B 7.74662e-06
16 *32:10 *201:12 0
17 *32:10 *342:25 0
18 *32:10 *429:35 0
19 *32:16 *129:14 9.67723e-06
20 *32:16 *129:35 5.45241e-06
21 *32:16 *137:10 3.32579e-06
22 *32:16 *340:14 0
23 *32:16 *425:12 2.13376e-07
24 *32:42 *289:25 2.22736e-06
25 *32:42 *424:10 0
26 *32:42 *429:35 0
27 *31:41 *32:10 6.33206e-07
*RES
1 *720:CON *32:4 17.2 
2 *32:4 *32:10 46.5081 
3 *32:10 *32:16 37.6587 
4 *32:16 *495:B 36.0045 
5 *32:16 *588:B 44.537 
6 *32:4 *32:42 45.0151 
7 *32:42 *932:A 30.5706 
*END

*D_NET *33 0.000510196
*CONN
*I *941:A I *D BUFx3_ASAP7_75t_L
*I *495:A2 I *D OA21x2_ASAP7_75t_L
*I *504:B I *D AO21x1_ASAP7_75t_L
*I *720:SN O *D HAxp5_ASAP7_75t_L
*CAP
1 *941:A 4.85189e-06
2 *495:A2 1.78496e-06
3 *504:B 4.2481e-06
4 *720:SN 7.10856e-05
5 *33:42 4.15991e-05
6 *33:29 4.43924e-05
7 *33:27 1.57969e-05
8 *33:8 1.41847e-05
9 *33:6 7.10856e-05
10 *495:A2 *35:46 3.90258e-06
11 *504:B *504:A2 5.85387e-06
12 *504:B *138:25 8.06436e-06
13 *504:B *424:42 8.06436e-06
14 *941:A *426:8 7.72307e-07
15 *33:6 *504:A2 9.75645e-06
16 *33:6 *720:A 5.41446e-06
17 *33:6 *940:A 9.30483e-06
18 *33:6 *289:14 9.08513e-06
19 *33:6 *425:6 3.71468e-06
20 *33:27 *138:25 2.33363e-05
21 *33:27 *424:42 8.06436e-06
22 *33:29 *35:31 3.73343e-05
23 *33:29 *137:10 3.68117e-05
24 *33:42 *584:B2 0
25 *33:42 *35:31 3.22574e-06
26 *33:42 *35:46 9.62119e-06
27 *33:42 *137:10 4.12534e-05
28 *33:42 *187:10 7.741e-06
29 *33:42 *423:23 0
30 *33:42 *425:39 3.67836e-06
31 *33:42 *426:10 3.05118e-08
32 *33:42 *426:12 1.12894e-06
33 *33:42 *426:18 2.79533e-06
34 *33:42 *431:57 1.70708e-06
35 *31:41 *33:6 5.0551e-07
*RES
1 *720:SN *33:6 46.6154 
2 *33:6 *33:8 17.2 
3 *33:8 *504:B 38.8203 
4 *33:8 *33:27 41.5228 
5 *33:27 *33:29 12.3897 
6 *33:29 *495:A2 35.4697 
7 *33:29 *33:42 49.3005 
8 *33:42 *941:A 19.8741 
*END

*D_NET *34 0.000347945
*CONN
*I *500:A I *D AND4x1_ASAP7_75t_L
*I *627:A I *D INVx1_ASAP7_75t_L
*I *721:B I *D HAxp5_ASAP7_75t_L
*I *756:QN O *D DFFHQNx1_ASAP7_75t_L
*CAP
1 *500:A 0
2 *627:A 0
3 *721:B 1.41829e-05
4 *756:QN 1.5691e-05
5 *34:25 2.36218e-05
6 *34:14 6.06828e-05
7 *34:12 3.40587e-05
8 *34:8 2.68717e-05
9 *721:B *36:8 1.04475e-06
10 *34:8 *618:A 3.05118e-08
11 *34:8 *417:88 0
12 *34:8 *417:130 1.24042e-05
13 *34:12 *618:A 9.08513e-06
14 *34:12 *40:48 5.85387e-06
15 *34:12 *452:24 3.13899e-05
16 *34:12 *452:30 6.92634e-06
17 *34:14 *36:8 1.59615e-06
18 *34:14 *448:10 2.12481e-06
19 *34:14 *452:30 3.82391e-05
20 *34:25 *91:8 0
21 *34:25 *209:79 4.08383e-06
22 *34:25 *209:91 3.51915e-05
23 *34:25 *224:27 2.35094e-05
24 *34:25 *448:10 0
25 *34:25 *448:14 0
26 *5:37 *34:8 0
27 *5:37 *34:12 1.35684e-06
*RES
1 *756:QN *34:8 45.6633 
2 *34:8 *34:12 28.4313 
3 *34:12 *34:14 17.6492 
4 *34:14 *721:B 24.6875 
5 *34:14 *34:25 39.7266 
6 *34:25 *627:A 34.4 
7 *34:12 *500:A 17.2 
*END

*D_NET *35 0.000685466
*CONN
*I *947:A I *D BUFx3_ASAP7_75t_L
*I *495:A1 I *D OA21x2_ASAP7_75t_L
*I *504:A1 I *D AO21x1_ASAP7_75t_L
*I *721:CON O *D HAxp5_ASAP7_75t_L
*CAP
1 *947:A 0
2 *495:A1 4.02938e-06
3 *504:A1 0
4 *721:CON 0
5 *35:46 3.29009e-05
6 *35:33 3.69303e-05
7 *35:31 1.5947e-05
8 *35:20 4.42171e-05
9 *35:14 3.38788e-05
10 *35:8 8.77249e-05
11 *35:6 8.21162e-05
12 *35:8 *723:A 4.35576e-08
13 *35:8 *36:18 0
14 *35:8 *40:31 1.64071e-05
15 *35:8 *133:20 4.45647e-06
16 *35:8 *209:79 1.93392e-05
17 *35:8 *211:37 2.69452e-06
18 *35:8 *211:50 4.64066e-07
19 *35:8 *226:18 3.19649e-06
20 *35:8 *341:8 5.63664e-06
21 *35:8 *407:90 5.97283e-06
22 *35:8 *417:12 6.80143e-06
23 *35:8 *425:58 7.47117e-05
24 *35:8 *444:20 1.09911e-05
25 *35:8 *453:25 4.07351e-07
26 *35:8 *453:36 5.86719e-06
27 *35:14 *433:8 6.7842e-07
28 *35:20 *581:C 2.12481e-06
29 *35:20 *38:12 6.33206e-07
30 *35:20 *137:10 8.2174e-07
31 *35:20 *422:46 0
32 *35:20 *425:58 1.96303e-05
33 *35:20 *431:23 0
34 *35:20 *433:14 0
35 *35:31 *581:C 7.63254e-07
36 *35:31 *584:B2 2.9732e-06
37 *35:31 *129:20 3.35859e-05
38 *35:31 *137:10 9.15342e-06
39 *35:31 *422:46 0
40 *35:46 *137:10 3.77591e-05
41 *35:46 *425:12 0
42 *35:46 *425:39 3.32721e-06
43 *495:A2 *35:46 3.90258e-06
44 *505:B *35:20 1.08723e-05
45 *588:B *35:46 8.94249e-06
46 *26:10 *35:14 6.7842e-07
47 *26:10 *35:20 4.70422e-06
48 *33:29 *35:31 3.73343e-05
49 *33:42 *35:31 3.22574e-06
50 *33:42 *35:46 9.62119e-06
*RES
1 *721:CON *35:6 34.4 
2 *35:6 *35:8 67.0168 
3 *35:8 *35:14 37.0741 
4 *35:14 *35:20 42.4574 
5 *35:20 *504:A1 17.2 
6 *35:20 *35:31 39.6416 
7 *35:31 *35:33 17.2 
8 *35:33 *495:A1 19.3393 
9 *35:33 *35:46 43.4704 
10 *35:46 *947:A 34.4 
*END

*D_NET *36 0.000526687
*CONN
*I *940:A I *D BUFx3_ASAP7_75t_L
*I *504:A2 I *D AO21x1_ASAP7_75t_L
*I *721:SN O *D HAxp5_ASAP7_75t_L
*CAP
1 *940:A 2.85325e-06
2 *504:A2 9.50654e-06
3 *721:SN 9.07787e-06
4 *36:20 1.23598e-05
5 *36:18 6.36181e-05
6 *36:16 6.69784e-05
7 *36:10 4.93644e-05
8 *36:8 5.5082e-05
9 *940:A *425:10 6.7842e-07
10 *36:10 *136:18 7.11159e-06
11 *36:10 *209:79 1.76889e-05
12 *36:10 *211:37 2.25003e-05
13 *36:10 *211:50 2.58291e-05
14 *36:10 *231:79 1.49407e-08
15 *36:10 *287:14 0
16 *36:10 *401:73 0
17 *36:10 *407:96 5.80445e-06
18 *36:10 *407:102 6.38254e-05
19 *36:10 *444:28 6.16418e-07
20 *36:10 *458:67 1.61163e-06
21 *36:16 *231:73 5.19552e-07
22 *36:16 *446:6 9.30483e-06
23 *36:18 *505:D 1.66587e-05
24 *36:18 *506:B 1.01182e-05
25 *36:18 *138:25 1.50458e-05
26 *36:18 *146:75 8.33261e-06
27 *36:18 *211:50 9.72458e-07
28 *36:18 *287:33 1.64764e-06
29 *36:18 *424:31 1.88168e-06
30 *36:18 *425:12 3.61852e-06
31 *36:18 *425:48 1.70866e-06
32 *36:18 *425:58 0
33 *504:B *504:A2 5.85387e-06
34 *721:B *36:8 1.04475e-06
35 *26:10 *36:18 0
36 *28:28 *36:18 4.72127e-06
37 *29:16 *36:18 1.00799e-05
38 *33:6 *504:A2 9.75645e-06
39 *33:6 *940:A 9.30483e-06
40 *34:14 *36:8 1.59615e-06
41 *35:8 *36:18 0
*RES
1 *721:SN *36:8 38.1438 
2 *36:8 *36:10 41.6743 
3 *36:10 *36:16 37.0741 
4 *36:16 *36:18 51.2481 
5 *36:18 *36:20 17.2 
6 *36:20 *504:A2 22.5483 
7 *36:20 *940:A 19.8741 
*END

*D_NET *37 0.000689175
*CONN
*I *967:A I *D BUFx3_ASAP7_75t_L
*I *722:A I *D HAxp5_ASAP7_75t_L
*I *755:QN O *D DFFHQNx1_ASAP7_75t_L
*CAP
1 *967:A 3.64516e-06
2 *722:A 4.65211e-06
3 *755:QN 0
4 *37:39 3.56822e-05
5 *37:33 3.46319e-05
6 *37:18 7.38844e-05
7 *37:12 0.00010613
8 *37:8 6.65633e-05
9 *37:4 3.22598e-05
10 *967:A *450:8 4.7125e-06
11 *37:12 *981:A 2.83874e-07
12 *37:12 *210:20 3.77767e-06
13 *37:12 *223:18 1.93482e-06
14 *37:12 *234:18 1.58526e-05
15 *37:12 *235:12 2.85842e-05
16 *37:12 *275:145 0
17 *37:12 *290:38 1.68021e-06
18 *37:12 *339:32 0
19 *37:12 *401:88 4.02602e-06
20 *37:12 *450:30 3.67434e-06
21 *37:18 *41:10 6.18268e-06
22 *37:18 *42:16 1.24672e-08
23 *37:18 *122:18 4.06835e-06
24 *37:18 *402:14 1.49606e-07
25 *37:18 *429:24 2.49344e-08
26 *37:18 *433:14 3.05118e-08
27 *37:33 *148:113 7.42418e-06
28 *37:33 *417:153 7.34877e-06
29 *37:39 *625:A 0
30 *37:39 *220:8 0
31 *37:39 *234:14 9.06457e-05
32 *37:39 *455:12 9.06457e-05
33 *18:22 *37:18 3.30265e-05
34 *25:25 *37:18 0
35 *27:10 *37:12 1.64004e-05
36 *27:14 *37:8 4.70329e-06
37 *28:26 *37:18 6.53609e-06
*RES
1 *755:QN *37:4 17.2 
2 *37:4 *37:8 29.501 
3 *37:8 *37:12 49.9575 
4 *37:12 *37:18 43.167 
5 *37:18 *722:A 36.0045 
6 *37:4 *37:33 37.122 
7 *37:33 *37:39 39.8805 
8 *37:39 *967:A 37.0741 
*END

*D_NET *38 0.000153329
*CONN
*I *488:B I *D AND2x2_ASAP7_75t_L
*I *946:A I *D BUFx3_ASAP7_75t_L
*I *722:CON O *D HAxp5_ASAP7_75t_L
*CAP
1 *488:B 6.19941e-06
2 *946:A 1.35137e-05
3 *722:CON 0
4 *38:12 3.0906e-05
5 *38:4 2.35917e-05
6 *488:B *122:6 5.77141e-06
7 *946:A *934:A 5.62196e-06
8 *946:A *39:16 2.79389e-05
9 *946:A *422:31 2.90209e-08
10 *946:A *431:10 7.72183e-06
11 *946:A *433:8 6.6195e-06
12 *38:12 *39:10 2.25787e-06
13 *38:12 *42:10 1.55469e-05
14 *38:12 *122:6 3.65131e-06
15 *38:12 *425:58 3.32579e-06
16 *35:20 *38:12 6.33206e-07
*RES
1 *722:CON *38:4 17.2 
2 *38:4 *38:12 48.3374 
3 *38:12 *946:A 29.501 
4 *38:4 *488:B 21.4786 
*END

*D_NET *39 0.000408223
*CONN
*I *934:A I *D BUFx3_ASAP7_75t_L
*I *480:A I *D INVx1_ASAP7_75t_L
*I *722:SN O *D HAxp5_ASAP7_75t_L
*CAP
1 *934:A 1.71287e-06
2 *480:A 9.60501e-06
3 *722:SN 2.27644e-05
4 *39:28 3.61227e-05
5 *39:20 5.00377e-05
6 *39:16 3.3566e-05
7 *39:12 1.17589e-05
8 *39:10 2.27644e-05
9 *480:A *177:12 7.63254e-06
10 *480:A *177:23 6.7842e-07
11 *39:10 *41:14 2.74995e-05
12 *39:10 *42:10 2.19448e-07
13 *39:10 *433:14 1.62824e-05
14 *39:16 *422:31 2.20493e-06
15 *39:20 *41:21 2.07631e-05
16 *39:20 *140:10 2.68658e-05
17 *39:20 *179:8 1.34329e-05
18 *39:20 *422:31 3.33246e-05
19 *39:20 *433:31 1.50858e-05
20 *39:20 *433:44 8.86488e-06
21 *39:28 *583:A1 1.35684e-06
22 *39:28 *42:28 2.13376e-07
23 *39:28 *177:23 8.29033e-06
24 *39:28 *178:25 1.35684e-06
25 *946:A *934:A 5.62196e-06
26 *946:A *39:16 2.79389e-05
27 *38:12 *39:10 2.25787e-06
*RES
1 *722:SN *39:10 48.054 
2 *39:10 *39:12 17.2 
3 *39:12 *39:16 25.2224 
4 *39:16 *39:20 49.3005 
5 *39:20 *39:28 46.3079 
6 *39:28 *480:A 24.6875 
7 *39:12 *934:A 18.8045 
*END

*D_NET *40 0.000644588
*CONN
*I *500:C I *D AND4x1_ASAP7_75t_L
*I *723:B I *D HAxp5_ASAP7_75t_L
*I *618:A I *D INVx1_ASAP7_75t_L
*I *754:QN O *D DFFHQNx1_ASAP7_75t_L
*CAP
1 *500:C 0
2 *723:B 1.02678e-05
3 *618:A 5.48018e-06
4 *754:QN 0
5 *40:48 3.81689e-06
6 *40:31 4.38577e-05
7 *40:25 4.4399e-05
8 *40:10 3.10756e-05
9 *40:6 0.000119622
10 *40:4 0.000101019
11 *618:A *417:88 9.93076e-07
12 *723:B *723:A 6.61478e-06
13 *723:B *41:8 1.56713e-06
14 *723:B *141:6 4.13278e-05
15 *40:6 *754:D 0
16 *40:6 *417:122 1.86176e-05
17 *40:6 *448:127 1.3988e-05
18 *40:10 *217:14 2.07088e-06
19 *40:10 *417:84 1.91924e-06
20 *40:10 *417:88 2.07088e-06
21 *40:10 *417:122 1.10045e-05
22 *40:25 *148:109 2.02493e-06
23 *40:25 *286:14 2.13074e-05
24 *40:31 *723:A 1.70708e-06
25 *40:31 *146:44 6.18391e-05
26 *40:31 *146:48 5.82818e-06
27 *40:31 *148:109 6.96243e-06
28 *40:31 *209:79 3.55626e-07
29 *40:31 *286:14 7.84396e-06
30 *40:31 *286:20 1.44274e-05
31 *40:31 *286:26 4.10171e-06
32 *40:31 *288:46 1.11674e-05
33 *40:31 *453:25 9.434e-06
34 *40:31 *458:87 1.64152e-06
35 *40:48 *145:60 3.86483e-06
36 *40:48 *401:65 9.93076e-07
37 *34:8 *618:A 3.05118e-08
38 *34:12 *618:A 9.08513e-06
39 *34:12 *40:48 5.85387e-06
40 *35:8 *40:31 1.64071e-05
*RES
1 *754:QN *40:4 17.2 
2 *40:4 *40:6 35.8333 
3 *40:6 *40:10 29.8712 
4 *40:10 *618:A 38.482 
5 *40:10 *40:25 20.8794 
6 *40:25 *40:31 41.3823 
7 *40:31 *723:B 46.701 
8 *40:25 *40:48 37.4124 
9 *40:48 *500:C 17.2 
*END

*D_NET *41 0.000697201
*CONN
*I *581:A1 I *D OA211x2_ASAP7_75t_L
*I *562:B I *D OA21x2_ASAP7_75t_L
*I *488:A I *D AND2x2_ASAP7_75t_L
*I *723:CON O *D HAxp5_ASAP7_75t_L
*CAP
1 *581:A1 0
2 *562:B 4.3498e-06
3 *488:A 0
4 *723:CON 2.60895e-06
5 *41:37 2.03695e-05
6 *41:29 3.34667e-05
7 *41:23 1.7447e-05
8 *41:21 2.82396e-05
9 *41:14 2.13799e-05
10 *41:10 0.000108372
11 *41:8 6.13618e-05
12 *562:B *182:10 5.25794e-06
13 *41:10 *42:10 0
14 *41:10 *140:10 1.98536e-05
15 *41:10 *140:12 1.35522e-06
16 *41:10 *229:10 1.49407e-08
17 *41:10 *400:14 6.9051e-06
18 *41:10 *425:64 3.22574e-06
19 *41:10 *425:70 5.39071e-05
20 *41:10 *425:76 9.8862e-06
21 *41:10 *433:14 5.67747e-07
22 *41:10 *444:12 1.01122e-05
23 *41:14 *122:6 4.37185e-05
24 *41:14 *287:41 1.07377e-06
25 *41:21 *140:10 1.02359e-06
26 *41:21 *422:31 3.97761e-05
27 *41:21 *431:23 2.71036e-05
28 *41:21 *431:40 1.09842e-06
29 *41:21 *433:14 1.67336e-06
30 *41:29 *581:A2 2.12481e-06
31 *41:29 *583:A1 1.63547e-05
32 *41:29 *159:68 8.45637e-06
33 *41:29 *177:23 5.60551e-07
34 *41:29 *178:25 2.69203e-06
35 *41:29 *198:12 2.70426e-05
36 *41:37 *42:36 9.96301e-06
37 *41:37 *123:22 5.82688e-07
38 *41:37 *422:50 4.92633e-05
39 *723:B *41:8 1.56713e-06
40 *37:18 *41:10 6.18268e-06
41 *39:10 *41:14 2.74995e-05
42 *39:20 *41:21 2.07631e-05
*RES
1 *723:CON *41:8 36.0045 
2 *41:8 *41:10 51.2481 
3 *41:10 *41:14 35.384 
4 *41:14 *488:A 17.2 
5 *41:10 *41:21 33.2268 
6 *41:21 *41:23 17.2 
7 *41:23 *41:29 33.576 
8 *41:29 *41:37 43.8448 
9 *41:37 *562:B 38.1438 
10 *41:23 *581:A1 17.2 
*END

*D_NET *42 0.000642187
*CONN
*I *937:A I *D BUFx3_ASAP7_75t_L
*I *486:A I *D NOR2x1_ASAP7_75t_L
*I *723:SN O *D HAxp5_ASAP7_75t_L
*CAP
1 *937:A 0
2 *486:A 8.17456e-06
3 *723:SN 6.33026e-06
4 *42:36 3.969e-05
5 *42:28 7.41897e-05
6 *42:22 5.96981e-05
7 *42:16 4.10824e-05
8 *42:10 9.23731e-05
9 *42:8 7.46449e-05
10 *486:A *120:14 3.56177e-06
11 *486:A *123:10 1.04475e-06
12 *486:A *422:64 2.40363e-05
13 *486:A *438:14 2.28976e-06
14 *42:8 *723:A 4.43846e-06
15 *42:10 *186:28 6.22786e-06
16 *42:10 *186:34 1.13781e-05
17 *42:10 *228:8 5.52807e-07
18 *42:10 *229:10 8.66977e-06
19 *42:10 *231:69 4.3639e-06
20 *42:10 *275:137 3.17029e-06
21 *42:10 *287:41 1.27389e-05
22 *42:10 *400:14 0
23 *42:10 *407:84 8.33296e-06
24 *42:10 *425:58 2.00206e-06
25 *42:10 *433:14 1.32149e-07
26 *42:10 *453:25 4.94184e-06
27 *42:10 *453:36 2.33148e-05
28 *42:16 *122:18 1.88432e-05
29 *42:16 *402:94 1.05523e-05
30 *42:16 *422:14 1.03649e-05
31 *42:22 *122:30 0
32 *42:22 *122:38 0
33 *42:22 *126:8 0
34 *42:22 *422:14 7.15974e-07
35 *42:22 *431:10 3.84449e-06
36 *42:28 *557:B 2.68933e-07
37 *42:28 *44:18 0
38 *42:28 *114:8 1.51713e-05
39 *42:28 *122:38 1.09842e-06
40 *42:28 *123:22 0
41 *42:28 *125:8 8.3668e-07
42 *42:28 *125:25 0
43 *42:28 *159:68 0
44 *42:28 *177:23 3.79494e-06
45 *42:28 *178:10 0
46 *42:28 *431:10 0
47 *42:28 *433:31 0
48 *42:36 *115:12 2.11577e-05
49 *42:36 *120:14 7.6881e-06
50 *42:36 *124:22 3.74016e-08
51 *42:36 *422:50 3.90659e-06
52 *42:36 *422:64 2.54626e-07
53 *42:36 *442:19 3.16603e-07
54 *37:18 *42:16 1.24672e-08
55 *38:12 *42:10 1.55469e-05
56 *39:10 *42:10 2.19448e-07
57 *39:28 *42:28 2.13376e-07
58 *41:10 *42:10 0
59 *41:37 *42:36 9.96301e-06
*RES
1 *723:SN *42:8 37.0741 
2 *42:8 *42:10 51.5297 
3 *42:10 *42:16 45.2219 
4 *42:16 *42:22 28.5465 
5 *42:22 *42:28 48.3707 
6 *42:28 *42:36 48.3193 
7 *42:36 *486:A 42.4224 
8 *42:22 *937:A 17.2 
*END

*D_NET *43 0.000403341
*CONN
*I *959:A I *D BUFx3_ASAP7_75t_L
*I *724:B I *D HAxp5_ASAP7_75t_L
*I *768:QN O *D DFFHQNx1_ASAP7_75t_L
*CAP
1 *959:A 6.37171e-06
2 *724:B 9.99145e-06
3 *768:QN 0
4 *43:41 1.38572e-05
5 *43:24 3.32979e-05
6 *43:18 3.98176e-05
7 *43:12 4.49809e-05
8 *43:6 2.09843e-05
9 *724:B *45:8 2.02204e-06
10 *959:A *431:14 6.70433e-06
11 *43:12 *127:38 2.6401e-05
12 *43:12 *145:80 8.52268e-06
13 *43:12 *186:10 2.28512e-05
14 *43:12 *208:51 4.65366e-06
15 *43:12 *407:46 0
16 *43:12 *433:20 2.66207e-05
17 *43:18 *121:10 0
18 *43:18 *122:18 2.68255e-06
19 *43:18 *122:30 3.40422e-06
20 *43:18 *126:8 1.56614e-05
21 *43:18 *422:20 0
22 *43:18 *433:20 0
23 *43:24 *492:A2 1.97168e-05
24 *43:24 *121:10 1.2849e-06
25 *43:24 *124:26 1.70708e-06
26 *43:24 *124:45 0
27 *43:24 *145:84 3.88327e-06
28 *43:24 *300:10 1.32406e-05
29 *43:24 *402:94 5.74463e-06
30 *43:24 *422:14 2.88562e-05
31 *43:41 *126:8 6.72662e-07
32 *43:41 *127:8 1.62524e-05
33 *43:41 *127:38 1.03895e-05
34 *43:41 *402:88 0
35 *43:41 *433:20 1.2768e-05
*RES
1 *768:QN *43:6 34.4 
2 *43:6 *43:12 41.5542 
3 *43:12 *43:18 47.8221 
4 *43:18 *43:24 35.0923 
5 *43:24 *724:B 40.2831 
6 *43:12 *43:41 46.0281 
7 *43:41 *959:A 22.0134 
*END

*D_NET *44 0.000192872
*CONN
*I *562:A2 I *D OA21x2_ASAP7_75t_L
*I *491:B I *D OA21x2_ASAP7_75t_L
*I *724:CON O *D HAxp5_ASAP7_75t_L
*CAP
1 *562:A2 0
2 *491:B 0
3 *724:CON 8.91356e-06
4 *44:31 2.21532e-05
5 *44:18 1.45442e-05
6 *44:10 4.56109e-05
7 *44:10 *45:8 5.0551e-07
8 *44:10 *121:10 2.62709e-05
9 *44:10 *300:10 3.6665e-06
10 *44:10 *300:23 8.51183e-06
11 *44:18 *491:A2 4.07523e-06
12 *44:18 *123:22 1.12894e-06
13 *44:31 *115:20 2.34728e-05
14 *44:31 *121:10 2.3386e-05
15 *44:31 *123:22 3.12992e-06
16 *44:31 *124:26 5.52807e-07
17 *44:31 *300:23 5.51814e-06
18 *44:31 *422:54 7.15974e-07
19 *44:31 *422:64 7.15974e-07
20 *44:31 *442:19 0
21 *42:28 *44:18 0
*RES
1 *724:CON *44:10 45.0151 
2 *44:10 *44:18 43.0989 
3 *44:18 *491:B 34.4 
4 *44:10 *44:31 37.389 
5 *44:31 *562:A2 17.2 
*END

*D_NET *45 7.3613e-05
*CONN
*I *950:A I *D BUFx3_ASAP7_75t_L
*I *724:SN O *D HAxp5_ASAP7_75t_L
*CAP
1 *950:A 6.58054e-06
2 *724:SN 2.78218e-05
3 *45:8 3.44023e-05
4 *950:A *124:26 0
5 *950:A *300:31 6.33206e-07
6 *950:A *442:8 1.64764e-06
7 *724:B *45:8 2.02204e-06
8 *44:10 *45:8 5.0551e-07
*RES
1 *724:SN *45:8 45.6313 
2 *45:8 *950:A 38.9053 
*END

*D_NET *46 0.000251531
*CONN
*I *725:B I *D HAxp5_ASAP7_75t_L
*I *960:A I *D BUFx3_ASAP7_75t_L
*I *767:QN O *D DFFHQNx2_ASAP7_75t_L
*CAP
1 *725:B 0
2 *960:A 0
3 *767:QN 0
4 *46:21 2.38818e-05
5 *46:12 2.28289e-05
6 *46:6 4.67106e-05
7 *46:12 *349:12 5.25794e-06
8 *46:12 *375:8 2.95774e-05
9 *46:12 *441:106 4.3937e-06
10 *46:12 *445:44 4.69545e-06
11 *46:12 *445:55 7.72307e-07
12 *46:21 *159:18 2.25787e-06
13 *46:21 *159:33 1.09842e-06
14 *46:21 *299:8 0
15 *46:21 *299:23 1.5033e-05
16 *46:21 *375:8 8.88586e-05
17 *46:21 *441:106 2.50197e-06
18 *46:21 *441:203 3.66349e-06
19 *7:8 *46:21 0
*RES
1 *767:QN *46:6 34.4 
2 *46:6 *46:12 35.3594 
3 *46:12 *960:A 17.2 
4 *46:6 *46:21 47.0478 
5 *46:21 *725:B 17.2 
*END

*D_NET *47 0.000291771
*CONN
*I *491:A1 I *D OA21x2_ASAP7_75t_L
*I *551:B I *D OA21x2_ASAP7_75t_L
*I *725:CON O *D HAxp5_ASAP7_75t_L
*CAP
1 *491:A1 1.48156e-05
2 *551:B 0
3 *725:CON 7.31772e-06
4 *47:14 1.38014e-05
5 *47:6 3.59347e-05
6 *491:A1 *491:A2 2.20606e-05
7 *491:A1 *117:13 3.87418e-05
8 *491:A1 *124:14 1.60115e-05
9 *491:A1 *300:23 3.48286e-05
10 *47:6 *117:13 3.85237e-05
11 *47:6 *124:14 3.87556e-05
12 *47:14 *487:C 1.32074e-05
13 *47:14 *159:50 1.2903e-05
14 *47:14 *159:56 2.03526e-06
15 *47:14 *361:10 2.83449e-06
*RES
1 *725:CON *47:6 28.4313 
2 *47:6 *47:14 44.9018 
3 *47:14 *551:B 17.2 
4 *47:6 *491:A1 37.5233 
*END

*D_NET *48 0.000326557
*CONN
*I *933:A I *D BUFx3_ASAP7_75t_L
*I *489:A I *D OR2x2_ASAP7_75t_L
*I *551:A1 I *D OA21x2_ASAP7_75t_L
*I *725:SN O *D HAxp5_ASAP7_75t_L
*CAP
1 *933:A 0
2 *489:A 1.64417e-05
3 *551:A1 1.96956e-06
4 *725:SN 1.26427e-05
5 *48:34 3.05346e-05
6 *48:19 5.74904e-05
7 *48:8 2.51263e-05
8 *489:A *169:6 4.41457e-06
9 *489:A *353:16 9.30483e-06
10 *489:A *418:91 1.25483e-05
11 *489:A *442:58 1.29877e-05
12 *551:A1 *487:C 3.90258e-06
13 *48:8 *116:40 3.32579e-06
14 *48:8 *158:21 8.06799e-07
15 *48:8 *159:44 3.76935e-06
16 *48:8 *353:18 1.18287e-05
17 *48:8 *430:67 1.16894e-05
18 *48:19 *115:31 6.42451e-07
19 *48:19 *353:10 2.68933e-07
20 *48:19 *353:18 3.40662e-06
21 *48:19 *398:16 5.62556e-06
22 *48:19 *418:72 0
23 *48:19 *430:67 7.22911e-06
24 *48:34 *560:C 2.01774e-06
25 *48:34 *115:31 7.34586e-06
26 *48:34 *171:25 1.12561e-05
27 *48:34 *180:18 3.55626e-07
28 *48:34 *353:10 1.49407e-08
29 *48:34 *410:14 3.77206e-05
30 *48:34 *416:61 2.55256e-05
31 *48:34 *418:6 3.65131e-06
32 *48:34 *418:12 2.71368e-06
*RES
1 *725:SN *48:8 47.916 
2 *48:8 *551:A1 35.4697 
3 *48:8 *48:19 7.88432 
4 *48:19 *489:A 46.701 
5 *48:19 *48:34 43.1587 
6 *48:34 *933:A 17.2 
*END

*D_NET *49 0.000314774
*CONN
*I *978:A I *D BUFx3_ASAP7_75t_L
*I *726:B I *D HAxp5_ASAP7_75t_L
*I *766:QN O *D DFFHQNx1_ASAP7_75t_L
*CAP
1 *978:A 0
2 *726:B 2.24314e-06
3 *766:QN 8.69652e-06
4 *49:25 5.38178e-05
5 *49:10 2.59668e-05
6 *49:6 8.62379e-05
7 *49:6 *683:B1 1.04475e-06
8 *49:6 *212:101 5.19552e-07
9 *49:10 *56:10 3.41943e-05
10 *49:10 *352:24 7.34462e-05
11 *49:10 *352:32 7.4314e-06
12 *49:10 *439:14 1.12894e-06
13 *49:25 *683:B1 2.90209e-08
14 *49:25 *102:8 9.74162e-07
15 *49:25 *212:101 7.58265e-07
16 *49:25 *267:12 3.2272e-06
17 *49:25 *268:6 5.3366e-06
18 *49:25 *349:18 8.12538e-08
19 *49:25 *360:44 1.58373e-06
20 *49:25 *414:16 0
21 *49:25 *441:120 5.85124e-06
22 *49:25 *451:120 0
23 *8:6 *726:B 2.20493e-06
*RES
1 *766:QN *49:6 20.9438 
2 *49:6 *49:10 47.611 
3 *49:10 *726:B 36.0045 
4 *49:6 *49:25 45.6627 
5 *49:25 *978:A 34.4 
*END

*D_NET *50 0.000254782
*CONN
*I *490:B I *D OA21x2_ASAP7_75t_L
*I *945:A I *D BUFx3_ASAP7_75t_L
*I *726:CON O *D HAxp5_ASAP7_75t_L
*CAP
1 *490:B 4.96606e-06
2 *945:A 0
3 *726:CON 9.1169e-06
4 *50:22 2.98759e-05
5 *50:16 4.51755e-05
6 *50:10 2.93825e-05
7 *50:10 *51:10 6.17507e-06
8 *50:10 *352:24 0
9 *50:16 *490:A2 4.10256e-06
10 *50:16 *54:23 0
11 *50:22 *51:10 8.33296e-06
12 *50:22 *51:21 7.05936e-05
13 *50:22 *53:23 0
14 *50:22 *56:18 2.98532e-06
15 *50:22 *352:24 2.97823e-05
16 *50:22 *410:42 5.52807e-07
17 *50:22 *428:8 5.22486e-06
18 *50:22 *428:14 1.37195e-06
19 *50:22 *430:35 4.40246e-06
20 *8:6 *50:10 2.741e-06
*RES
1 *726:CON *50:10 40.5098 
2 *50:10 *50:16 40.2831 
3 *50:16 *50:22 47.9757 
4 *50:22 *945:A 17.2 
5 *50:10 *490:B 37.2158 
*END

*D_NET *51 0.000272221
*CONN
*I *483:A I *D INVx1_ASAP7_75t_L
*I *931:A I *D BUFx3_ASAP7_75t_L
*I *490:A2 I *D OA21x2_ASAP7_75t_L
*I *726:SN O *D HAxp5_ASAP7_75t_L
*CAP
1 *483:A 5.97089e-06
2 *931:A 5.73909e-06
3 *490:A2 3.64618e-06
4 *726:SN 0
5 *51:21 4.0845e-05
6 *51:10 6.0218e-05
7 *51:4 2.74368e-05
8 *490:A2 *54:23 1.78854e-06
9 *931:A *351:22 8.31044e-07
10 *51:10 *352:24 3.6269e-06
11 *51:21 *56:26 2.32935e-05
12 *51:21 *163:14 0
13 *51:21 *352:18 2.84286e-06
14 *51:21 *428:20 0
15 *51:21 *430:10 0
16 *51:21 *430:25 0
17 *8:6 *483:A 2.2819e-06
18 *8:6 *51:10 4.4961e-06
19 *50:10 *51:10 6.17507e-06
20 *50:16 *490:A2 4.10256e-06
21 *50:22 *51:10 8.33296e-06
22 *50:22 *51:21 7.05936e-05
*RES
1 *726:SN *51:4 17.2 
2 *51:4 *51:10 28.7147 
3 *51:10 *490:A2 37.0741 
4 *51:10 *51:21 33.2268 
5 *51:21 *931:A 37.0741 
6 *51:4 *483:A 19.8741 
*END

*D_NET *52 0.00053792
*CONN
*I *727:A I *D HAxp5_ASAP7_75t_L
*I *962:A I *D BUFx3_ASAP7_75t_L
*I *765:QN O *D DFFHQNx1_ASAP7_75t_L
*CAP
1 *727:A 0
2 *962:A 0
3 *765:QN 3.22401e-06
4 *52:33 6.07212e-05
5 *52:31 6.07212e-05
6 *52:24 2.16992e-05
7 *52:16 5.95975e-05
8 *52:12 7.6818e-05
9 *52:6 4.21437e-05
10 *52:6 *360:36 0
11 *52:12 *212:97 1.55069e-05
12 *52:12 *360:36 0
13 *52:12 *402:120 6.82458e-05
14 *52:12 *412:55 2.48972e-05
15 *52:16 *55:16 4.80865e-06
16 *52:16 *58:20 2.9696e-05
17 *52:16 *254:16 9.98595e-07
18 *52:16 *278:20 1.4099e-05
19 *52:16 *371:20 9.56042e-06
20 *52:24 *664:A 1.88408e-06
21 *52:24 *710:A1 5.63702e-07
22 *52:24 *259:14 4.45647e-06
23 *52:24 *275:84 0
24 *52:33 *930:A 4.57677e-07
25 *52:33 *53:8 0
26 *52:33 *53:23 0
27 *52:33 *56:10 0
28 *52:33 *85:8 1.57788e-05
29 *52:33 *298:22 3.31686e-06
30 *52:33 *351:34 0
31 *52:33 *402:116 6.87092e-06
32 *52:33 *459:8 0
33 *52:33 *460:30 1.18544e-05
*RES
1 *765:QN *52:6 18.8045 
2 *52:6 *52:12 48.9692 
3 *52:12 *52:16 33.2164 
4 *52:16 *52:24 45.0877 
5 *52:24 *962:A 17.2 
6 *52:6 *52:31 17.2 
7 *52:31 *52:33 48.4323 
8 *52:33 *727:A 34.4 
*END

*D_NET *53 0.000148527
*CONN
*I *943:A I *D BUFx3_ASAP7_75t_L
*I *490:A1 I *D OA21x2_ASAP7_75t_L
*I *727:CON O *D HAxp5_ASAP7_75t_L
*CAP
1 *943:A 0
2 *490:A1 7.34023e-06
3 *727:CON 5.07612e-06
4 *53:23 2.82152e-05
5 *53:8 4.06315e-05
6 *490:A1 *54:14 9.11668e-06
7 *490:A1 *54:23 7.80516e-06
8 *490:A1 *56:18 9.30483e-06
9 *53:8 *56:10 8.56882e-06
10 *53:8 *56:18 3.05118e-08
11 *53:23 *54:14 1.31716e-05
12 *53:23 *56:18 1.70866e-06
13 *53:23 *410:42 1.36943e-05
14 *53:23 *428:8 1.67815e-06
15 *53:23 *428:14 1.64764e-06
16 *53:23 *430:35 5.37866e-07
17 *50:22 *53:23 0
18 *52:33 *53:8 0
19 *52:33 *53:23 0
*RES
1 *727:CON *53:8 38.3422 
2 *53:8 *490:A1 40.2831 
3 *53:8 *53:23 41.3311 
4 *53:23 *943:A 17.2 
*END

*D_NET *54 0.000275802
*CONN
*I *482:A I *D INVx1_ASAP7_75t_L
*I *948:A I *D BUFx3_ASAP7_75t_L
*I *727:SN O *D HAxp5_ASAP7_75t_L
*CAP
1 *482:A 1.58292e-05
2 *948:A 0
3 *727:SN 0
4 *54:23 8.40124e-05
5 *54:14 1.44206e-05
6 *54:4 8.26039e-05
7 *482:A *116:12 7.84037e-07
8 *482:A *159:33 8.2174e-07
9 *482:A *375:8 0
10 *482:A *409:8 5.67735e-06
11 *482:A *409:25 3.05045e-06
12 *482:A *418:78 0
13 *54:14 *56:18 5.37569e-06
14 *54:23 *541:A1 2.29378e-05
15 *54:23 *124:10 0
16 *54:23 *159:33 5.0551e-07
17 *54:23 *163:14 7.90093e-06
18 *490:A1 *54:14 9.11668e-06
19 *490:A1 *54:23 7.80516e-06
20 *490:A2 *54:23 1.78854e-06
21 *50:16 *54:23 0
22 *53:23 *54:14 1.31716e-05
*RES
1 *727:SN *54:4 17.2 
2 *54:4 *54:14 44.2536 
3 *54:14 *948:A 17.2 
4 *54:4 *54:23 45.5457 
5 *54:23 *482:A 44.537 
*END

*D_NET *55 0.000390669
*CONN
*I *728:B I *D HAxp5_ASAP7_75t_L
*I *502:A I *D AND5x1_ASAP7_75t_L
*I *668:A I *D INVx1_ASAP7_75t_L
*I *764:QN O *D DFFHQNx1_ASAP7_75t_L
*CAP
1 *728:B 0
2 *502:A 3.98488e-06
3 *668:A 0
4 *764:QN 1.70415e-05
5 *55:42 2.00904e-05
6 *55:22 1.0911e-06
7 *55:16 6.3484e-05
8 *55:10 7.70621e-05
9 *55:8 4.78162e-05
10 *502:A *476:C 6.45397e-06
11 *502:A *110:6 1.62614e-05
12 *55:10 *58:37 2.68255e-06
13 *55:10 *402:120 0
14 *55:10 *412:45 1.69095e-06
15 *55:16 *57:30 2.98961e-07
16 *55:16 *212:39 2.49764e-05
17 *55:16 *254:16 1.41463e-05
18 *55:16 *256:8 7.86793e-06
19 *55:16 *278:12 1.92889e-06
20 *55:16 *278:20 5.38162e-05
21 *55:16 *348:14 2.57122e-06
22 *55:16 *348:20 5.78668e-06
23 *55:16 *412:45 1.51545e-06
24 *55:16 *413:37 9.50456e-07
25 *55:22 *710:A1 3.04043e-06
26 *55:22 *259:14 7.0121e-07
27 *55:42 *728:A 3.14035e-06
28 *55:42 *56:8 6.78445e-06
29 *55:42 *402:120 0
30 *55:42 *412:45 6.76763e-07
31 *52:16 *55:16 4.80865e-06
*RES
1 *764:QN *55:8 43.492 
2 *55:8 *55:10 5.63166 
3 *55:10 *55:16 42.7517 
4 *55:16 *55:22 35.4325 
5 *55:22 *668:A 17.2 
6 *55:10 *502:A 38.6786 
7 *55:8 *55:42 34.3994 
8 *55:42 *728:B 17.2 
*END

*D_NET *56 0.000639509
*CONN
*I *478:B I *D OA21x2_ASAP7_75t_L
*I *537:A2 I *D OA21x2_ASAP7_75t_L
*I *728:CON O *D HAxp5_ASAP7_75t_L
*CAP
1 *478:B 0
2 *537:A2 1.0375e-05
3 *728:CON 0
4 *56:47 6.27152e-05
5 *56:41 6.61748e-05
6 *56:26 2.20539e-05
7 *56:18 2.39926e-05
8 *56:10 8.70939e-05
9 *56:8 8.15855e-05
10 *56:4 1.02649e-05
11 *537:A2 *537:A1 5.92989e-06
12 *537:A2 *537:B 1.25529e-05
13 *537:A2 *428:14 1.79528e-05
14 *56:8 *728:A 2.12481e-06
15 *56:10 *930:A 0
16 *56:10 *135:10 1.63366e-05
17 *56:10 *352:24 4.7353e-06
18 *56:10 *352:32 7.53447e-06
19 *56:10 *374:28 5.02905e-06
20 *56:10 *401:39 4.03399e-07
21 *56:10 *402:116 0
22 *56:10 *439:14 0
23 *56:10 *441:136 4.74885e-06
24 *56:10 *451:96 0
25 *56:10 *456:100 1.70708e-06
26 *56:10 *459:8 5.52807e-07
27 *56:18 *352:24 1.93775e-05
28 *56:26 *352:18 2.0994e-05
29 *56:26 *352:22 4.9889e-06
30 *56:26 *410:42 6.28016e-06
31 *56:41 *283:12 0
32 *56:41 *401:39 8.11704e-06
33 *56:47 *57:8 0
34 *56:47 *266:18 0
35 *56:47 *283:6 4.3581e-05
36 *56:47 *414:8 0
37 *56:47 *414:16 6.10236e-08
38 *490:A1 *56:18 9.30483e-06
39 *49:10 *56:10 3.41943e-05
40 *50:22 *56:18 2.98532e-06
41 *51:21 *56:26 2.32935e-05
42 *52:33 *56:10 0
43 *53:8 *56:10 8.56882e-06
44 *53:8 *56:18 3.05118e-08
45 *53:23 *56:18 1.70866e-06
46 *54:14 *56:18 5.37569e-06
47 *55:42 *56:8 6.78445e-06
*RES
1 *728:CON *56:4 17.2 
2 *56:4 *56:8 23.0831 
3 *56:8 *56:10 59.6956 
4 *56:10 *56:18 46.0848 
5 *56:18 *56:26 47.0977 
6 *56:26 *537:A2 42.4224 
7 *56:4 *56:41 37.2158 
8 *56:41 *56:47 47.2389 
9 *56:47 *478:B 34.4 
*END

*D_NET *57 0.000304602
*CONN
*I *478:A1 I *D OA21x2_ASAP7_75t_L
*I *929:A I *D BUFx3_ASAP7_75t_L
*I *476:A I *D OR3x1_ASAP7_75t_L
*I *728:SN O *D HAxp5_ASAP7_75t_L
*CAP
1 *478:A1 2.52753e-06
2 *929:A 0
3 *476:A 0
4 *728:SN 8.09354e-06
5 *57:30 2.14062e-05
6 *57:20 3.07555e-05
7 *57:12 1.48944e-05
8 *57:10 8.07273e-06
9 *57:8 8.09354e-06
10 *478:A1 *502:D 5.56015e-06
11 *478:A1 *110:6 1.45133e-05
12 *57:8 *414:8 9.38684e-06
13 *57:12 *502:D 1.05376e-05
14 *57:12 *110:6 2.7386e-05
15 *57:20 *502:D 1.484e-05
16 *57:20 *110:6 3.54279e-05
17 *57:30 *476:B 6.19506e-06
18 *57:30 *476:C 6.23183e-07
19 *57:30 *58:14 2.90409e-05
20 *57:30 *58:20 1.32076e-05
21 *57:30 *256:12 3.04311e-07
22 *57:30 *278:12 4.26193e-05
23 *57:30 *402:120 3.05118e-08
24 *57:30 *413:37 7.86436e-07
25 *55:16 *57:30 2.98961e-07
26 *56:47 *57:8 0
*RES
1 *728:SN *57:8 40.0317 
2 *57:8 *57:10 17.2 
3 *57:10 *57:12 6.95272 
4 *57:12 *57:20 44.3368 
5 *57:20 *57:30 47.6618 
6 *57:30 *476:A 17.2 
7 *57:12 *929:A 17.2 
8 *57:10 *478:A1 20.9438 
*END

*D_NET *58 0.000511909
*CONN
*I *729:A I *D HAxp5_ASAP7_75t_L
*I *502:B I *D AND5x1_ASAP7_75t_L
*I *664:A I *D INVx1_ASAP7_75t_L
*I *763:QN O *D DFFHQNx1_ASAP7_75t_L
*CAP
1 *729:A 1.36051e-05
2 *502:B 0
3 *664:A 1.8922e-05
4 *763:QN 0
5 *58:37 1.2573e-05
6 *58:20 7.74751e-05
7 *58:14 8.94218e-05
8 *58:10 4.38696e-05
9 *58:4 3.91791e-05
10 *664:A *371:12 4.43846e-06
11 *729:A *295:14 0
12 *58:10 *67:29 1.43062e-06
13 *58:10 *136:8 3.3454e-05
14 *58:10 *154:12 1.41684e-05
15 *58:10 *295:14 0
16 *58:14 *278:12 2.84121e-06
17 *58:14 *458:17 1.24672e-08
18 *58:14 *458:47 4.14708e-06
19 *58:20 *104:16 3.3138e-06
20 *58:20 *148:68 3.96334e-06
21 *58:20 *258:12 3.17029e-06
22 *58:20 *278:12 7.3783e-07
23 *58:20 *278:20 2.77387e-08
24 *58:20 *371:20 2.79048e-05
25 *58:20 *458:47 1.93317e-05
26 *58:37 *110:6 1.87279e-05
27 *58:37 *412:45 2.68255e-06
28 *52:16 *58:20 2.9696e-05
29 *52:24 *664:A 1.88408e-06
30 *55:10 *58:37 2.68255e-06
31 *57:30 *58:14 2.90409e-05
32 *57:30 *58:20 1.32076e-05
*RES
1 *763:QN *58:4 17.2 
2 *58:4 *58:10 35.7933 
3 *58:10 *58:14 24.126 
4 *58:14 *58:20 42.2284 
5 *58:20 *664:A 43.492 
6 *58:14 *58:37 40.2459 
7 *58:37 *502:B 17.2 
8 *58:4 *729:A 22.0134 
*END

*D_NET *59 2.3468e-05
*CONN
*I *477:B I *D OA21x2_ASAP7_75t_L
*I *729:CON O *D HAxp5_ASAP7_75t_L
*CAP
1 *477:B 0
2 *729:CON 7.87082e-06
3 *59:8 7.87082e-06
4 *59:8 *60:8 7.54709e-06
5 *59:8 *62:23 0
6 *59:8 *111:8 1.79289e-07
*RES
1 *729:CON *59:8 41.158 
2 *59:8 *477:B 34.4 
*END

*D_NET *60 0.000377253
*CONN
*I *477:A1 I *D OA21x2_ASAP7_75t_L
*I *928:A I *D BUFx3_ASAP7_75t_L
*I *729:SN O *D HAxp5_ASAP7_75t_L
*CAP
1 *477:A1 0
2 *928:A 0
3 *729:SN 7.80572e-06
4 *60:18 6.41465e-05
5 *60:16 8.8989e-05
6 *60:12 3.86323e-05
7 *60:8 2.15954e-05
8 *60:8 *62:8 0
9 *60:8 *66:24 1.07573e-06
10 *60:8 *108:10 0
11 *60:8 *111:8 4.41094e-06
12 *60:12 *477:A2 5.92989e-06
13 *60:16 *477:A2 6.7842e-07
14 *60:16 *295:10 8.17002e-07
15 *60:18 *744:D 3.53149e-05
16 *60:18 *67:14 4.52309e-05
17 *60:18 *67:18 4.1834e-07
18 *60:18 *67:29 1.33022e-05
19 *60:18 *105:8 6.15972e-06
20 *60:18 *148:37 3.02698e-06
21 *60:18 *246:14 1.26975e-05
22 *60:18 *252:12 6.65177e-06
23 *60:18 *412:24 6.10236e-08
24 *60:18 *412:32 4.40246e-06
25 *60:18 *413:8 0
26 *60:18 *413:19 0
27 *597:A *60:16 4.20803e-06
28 *20:34 *60:18 4.15076e-06
29 *59:8 *60:8 7.54709e-06
*RES
1 *729:SN *60:8 42.2843 
2 *60:8 *60:12 25.2224 
3 *60:12 *60:16 30.5706 
4 *60:16 *60:18 57.4429 
5 *60:18 *928:A 34.4 
6 *60:12 *477:A1 17.2 
*END

*D_NET *61 0.000660297
*CONN
*I *502:C I *D AND5x1_ASAP7_75t_L
*I *730:B I *D HAxp5_ASAP7_75t_L
*I *660:A I *D INVx1_ASAP7_75t_L
*I *762:QN O *D DFFHQNx1_ASAP7_75t_L
*CAP
1 *502:C 9.63458e-06
2 *730:B 1.00203e-05
3 *660:A 0
4 *762:QN 0
5 *61:27 4.23899e-05
6 *61:25 7.32727e-05
7 *61:21 5.14428e-05
8 *61:12 3.87293e-05
9 *61:6 5.89034e-05
10 *502:C *63:22 2.68255e-06
11 *502:C *67:29 1.90539e-05
12 *502:C *110:6 3.90258e-06
13 *502:C *412:45 4.9137e-07
14 *730:B *732:A 9.58768e-06
15 *61:12 *705:A2 7.97634e-06
16 *61:12 *705:B2 7.75936e-07
17 *61:12 *251:6 7.86349e-07
18 *61:12 *275:32 3.31479e-05
19 *61:12 *292:10 3.62764e-06
20 *61:12 *402:120 4.34783e-05
21 *61:21 *275:26 5.97898e-06
22 *61:21 *275:32 9.8079e-06
23 *61:21 *402:120 7.3814e-05
24 *61:21 *413:37 1.48914e-05
25 *61:21 *457:10 3.56988e-06
26 *61:21 *457:45 2.49557e-06
27 *61:25 *413:37 4.06133e-06
28 *61:27 *67:14 3.0529e-05
29 *61:27 *67:29 7.34684e-05
30 *61:27 *412:20 3.24673e-06
31 *61:27 *412:24 2.36719e-05
32 *61:27 *412:45 1.49407e-08
33 *61:27 *458:31 4.84393e-06
*RES
1 *762:QN *61:6 34.4 
2 *61:6 *61:12 45.2129 
3 *61:12 *660:A 17.2 
4 *61:6 *61:21 43.1056 
5 *61:21 *61:25 28.4313 
6 *61:25 *61:27 35.4795 
7 *61:27 *730:B 41.3527 
8 *61:25 *502:C 42.2276 
*END

*D_NET *62 0.000166015
*CONN
*I *527:B I *D OA21x2_ASAP7_75t_L
*I *477:A2 I *D OA21x2_ASAP7_75t_L
*I *730:CON O *D HAxp5_ASAP7_75t_L
*CAP
1 *527:B 0
2 *477:A2 6.31107e-06
3 *730:CON 0
4 *62:23 3.0692e-05
5 *62:8 6.11105e-05
6 *62:6 2.41075e-05
7 *62:8 *63:12 0
8 *62:8 *67:44 0
9 *62:8 *456:10 0
10 *62:23 *527:A2 1.06023e-05
11 *62:23 *729:B 5.08497e-06
12 *62:23 *63:12 0
13 *62:23 *63:39 8.74893e-06
14 *62:23 *111:8 0
15 *62:23 *154:6 9.60504e-06
16 *62:23 *295:10 3.14436e-06
17 *62:23 *449:38 0
18 *59:8 *62:23 0
19 *60:8 *62:8 0
20 *60:12 *477:A2 5.92989e-06
21 *60:16 *477:A2 6.7842e-07
*RES
1 *730:CON *62:6 34.4 
2 *62:6 *62:8 16.3318 
3 *62:8 *477:A2 38.1438 
4 *62:8 *62:23 40.5412 
5 *62:23 *527:B 17.2 
*END

*D_NET *63 0.000682084
*CONN
*I *530:A I *D OR2x2_ASAP7_75t_L
*I *980:A I *D BUFx3_ASAP7_75t_L
*I *527:A1 I *D OA21x2_ASAP7_75t_L
*I *476:C I *D OR3x1_ASAP7_75t_L
*I *730:SN O *D HAxp5_ASAP7_75t_L
*CAP
1 *530:A 0
2 *980:A 5.73103e-06
3 *527:A1 0
4 *476:C 1.2601e-05
5 *730:SN 2.93543e-06
6 *63:60 1.44247e-05
7 *63:54 4.12188e-05
8 *63:48 4.97658e-05
9 *63:39 2.18602e-05
10 *63:22 2.55795e-05
11 *63:14 3.48386e-05
12 *63:12 4.05867e-05
13 *63:10 5.51719e-05
14 *63:6 3.47612e-05
15 *476:C *110:6 1.16945e-06
16 *476:C *256:12 1.62742e-05
17 *980:A *345:14 1.41612e-05
18 *63:6 *732:A 2.27522e-06
19 *63:10 *732:A 1.08675e-05
20 *63:12 *729:B 5.06311e-07
21 *63:12 *136:8 4.7284e-06
22 *63:12 *295:10 5.37866e-07
23 *63:12 *348:10 6.52017e-06
24 *63:12 *413:19 0.000111086
25 *63:12 *456:10 1.08708e-05
26 *63:22 *212:39 9.03467e-06
27 *63:22 *278:12 3.51639e-05
28 *63:39 *212:39 3.43044e-06
29 *63:39 *278:12 2.03439e-05
30 *63:39 *348:10 1.64676e-07
31 *63:39 *449:38 0
32 *63:48 *411:20 0
33 *63:48 *413:19 0
34 *63:48 *415:12 0
35 *63:54 *148:29 9.70856e-07
36 *63:54 *415:12 0
37 *63:60 *399:14 1.95291e-05
38 *63:60 *408:8 1.2142e-05
39 *63:60 *413:8 4.00916e-05
40 *502:A *476:C 6.45397e-06
41 *502:C *63:22 2.68255e-06
42 *717:A *63:60 5.37866e-07
43 *22:10 *63:48 0
44 *22:10 *63:54 0
45 *22:18 *63:54 3.69446e-06
46 *57:30 *476:C 6.23183e-07
47 *62:8 *63:12 0
48 *62:23 *63:12 0
49 *62:23 *63:39 8.74893e-06
*RES
1 *730:SN *63:6 18.8045 
2 *63:6 *63:10 24.1527 
3 *63:10 *63:12 43.4576 
4 *63:12 *63:14 17.2 
5 *63:14 *63:22 41.7092 
6 *63:22 *476:C 25.7572 
7 *63:14 *63:39 48.2253 
8 *63:39 *527:A1 17.2 
9 *63:6 *63:48 30.1528 
10 *63:48 *63:54 34.3877 
11 *63:54 *63:60 48.0098 
12 *63:60 *980:A 20.9438 
13 *63:48 *530:A 34.4 
*END

*D_NET *64 0.000295736
*CONN
*I *731:B I *D HAxp5_ASAP7_75t_L
*I *964:A I *D BUFx3_ASAP7_75t_L
*I *761:QN O *D DFFHQNx1_ASAP7_75t_L
*CAP
1 *731:B 3.99729e-06
2 *964:A 1.37655e-05
3 *761:QN 5.19974e-05
4 *64:16 4.56434e-05
5 *64:12 3.60569e-05
6 *64:6 6.01737e-05
7 *731:B *212:16 0
8 *731:B *449:12 1.33022e-05
9 *964:A *212:16 0
10 *964:A *401:29 2.69203e-06
11 *964:A *449:12 8.19503e-06
12 *64:12 *96:8 7.84037e-07
13 *64:12 *247:16 1.09067e-06
14 *64:12 *417:54 1.6136e-06
15 *4:69 *64:6 3.5807e-06
16 *4:83 *64:12 7.3874e-07
17 *4:87 *964:A 5.22376e-06
18 *4:87 *64:6 7.72307e-07
19 *4:87 *64:16 4.61092e-05
*RES
1 *761:QN *64:6 39.1278 
2 *64:6 *64:12 40.5948 
3 *64:12 *64:16 30.5706 
4 *64:16 *964:A 45.3516 
5 *64:16 *731:B 38.9053 
*END

*D_NET *65 0.000507464
*CONN
*I *475:B I *D OA21x2_ASAP7_75t_L
*I *529:B I *D OA211x2_ASAP7_75t_L
*I *525:B I *D OA21x2_ASAP7_75t_L
*I *531:A1 I *D AO21x1_ASAP7_75t_L
*I *731:CON O *D HAxp5_ASAP7_75t_L
*CAP
1 *475:B 0
2 *529:B 2.254e-06
3 *525:B 0
4 *531:A1 3.41255e-05
5 *731:CON 1.23935e-05
6 *65:59 1.90131e-05
7 *65:30 5.04506e-05
8 *65:24 2.90158e-05
9 *65:18 2.79664e-05
10 *65:16 4.49697e-05
11 *65:10 2.53285e-05
12 *529:B *68:33 1.52651e-06
13 *529:B *456:194 9.31704e-06
14 *531:A1 *531:B 1.52651e-06
15 *531:A1 *71:44 9.46081e-06
16 *65:10 *66:14 1.66706e-05
17 *65:10 *212:16 2.98814e-07
18 *65:10 *449:12 3.05118e-08
19 *65:16 *66:14 3.52924e-05
20 *65:16 *465:8 3.48165e-06
21 *65:18 *68:33 8.06436e-06
22 *65:18 *155:8 3.17441e-06
23 *65:18 *157:10 0
24 *65:18 *465:14 8.28849e-06
25 *65:24 *525:A2 6.7842e-07
26 *65:24 *153:10 2.80323e-06
27 *65:24 *434:29 1.97096e-05
28 *65:24 *434:37 1.49407e-08
29 *65:24 *441:98 5.52807e-07
30 *65:24 *456:194 2.19685e-06
31 *65:30 *525:A2 2.03526e-06
32 *65:30 *152:8 1.61517e-05
33 *65:30 *153:10 1.13705e-05
34 *65:30 *411:10 1.27326e-05
35 *65:30 *411:38 1.85401e-05
36 *65:30 *434:8 1.13547e-05
37 *65:30 *434:29 6.76305e-06
38 *65:59 *532:A1 1.01907e-05
39 *65:59 *532:B 2.24856e-05
40 *65:59 *983:A 1.15945e-06
41 *65:59 *157:10 0
42 *65:59 *465:14 2.50306e-05
43 *4:87 *529:B 1.04475e-06
*RES
1 *731:CON *65:10 42.0293 
2 *65:10 *65:16 44.5617 
3 *65:16 *65:18 10.137 
4 *65:18 *65:24 27.7584 
5 *65:24 *65:30 38.5153 
6 *65:30 *531:A1 49.9099 
7 *65:24 *525:B 17.2 
8 *65:18 *529:B 37.0741 
9 *65:16 *65:59 34.233 
10 *65:59 *475:B 17.2 
*END

*D_NET *66 0.000469875
*CONN
*I *926:A I *D BUFx3_ASAP7_75t_L
*I *475:A1 I *D OA21x2_ASAP7_75t_L
*I *731:SN O *D HAxp5_ASAP7_75t_L
*CAP
1 *926:A 8.50575e-07
2 *475:A1 0
3 *731:SN 1.40671e-05
4 *66:33 2.09699e-05
5 *66:31 2.01193e-05
6 *66:24 1.37713e-05
7 *66:14 4.84611e-05
8 *66:10 4.87569e-05
9 *926:A *71:44 5.19475e-06
10 *926:A *157:8 5.62196e-06
11 *66:10 *731:A 2.35211e-06
12 *66:10 *247:14 0
13 *66:10 *275:20 5.76364e-06
14 *66:10 *282:10 1.182e-05
15 *66:10 *401:29 2.54196e-07
16 *66:14 *983:A 1.23408e-05
17 *66:14 *111:21 4.41457e-06
18 *66:14 *113:12 5.62196e-06
19 *66:14 *405:8 8.40497e-06
20 *66:24 *108:10 6.6421e-06
21 *66:24 *111:8 4.10928e-06
22 *66:24 *111:21 4.2449e-06
23 *66:24 *113:12 1.95129e-06
24 *66:33 *524:A1 2.98326e-05
25 *66:33 *529:A1 1.84022e-05
26 *66:33 *108:10 9.85039e-05
27 *66:33 *157:10 1.56472e-05
28 *66:33 *434:16 8.71771e-06
29 *60:8 *66:24 1.07573e-06
30 *65:10 *66:14 1.66706e-05
31 *65:16 *66:14 3.52924e-05
*RES
1 *731:SN *66:10 43.1556 
2 *66:10 *66:14 44.4761 
3 *66:14 *66:24 44.8451 
4 *66:24 *475:A1 17.2 
5 *66:14 *66:31 17.2 
6 *66:31 *66:33 33.2268 
7 *66:33 *926:A 36.0045 
*END

*D_NET *67 0.000759702
*CONN
*I *732:B I *D HAxp5_ASAP7_75t_L
*I *501:D I *D AND4x1_ASAP7_75t_L
*I *467:A I *D INVx1_ASAP7_75t_L
*I *760:QN O *D DFFHQNx1_ASAP7_75t_L
*CAP
1 *732:B 0
2 *501:D 5.861e-06
3 *467:A 4.29816e-06
4 *760:QN 0
5 *67:44 1.36563e-05
6 *67:29 6.21e-05
7 *67:18 4.72395e-05
8 *67:16 4.29413e-05
9 *67:14 1.63755e-05
10 *67:8 0.000130378
11 *67:4 7.14197e-05
12 *467:A *441:28 9.75645e-06
13 *501:D *135:10 2.20493e-06
14 *501:D *451:96 1.04475e-06
15 *67:8 *456:10 0
16 *67:14 *292:35 8.67578e-07
17 *67:14 *412:24 4.88501e-06
18 *67:14 *456:14 4.59335e-07
19 *67:18 *105:8 0
20 *67:18 *128:8 5.90812e-06
21 *67:18 *148:37 4.50843e-06
22 *67:18 *246:14 3.00471e-05
23 *67:18 *294:10 1.62788e-05
24 *67:18 *294:56 3.62246e-06
25 *67:18 *302:25 6.01205e-06
26 *67:18 *302:33 8.06436e-06
27 *67:18 *345:22 1.47844e-05
28 *67:18 *379:10 3.2526e-05
29 *67:18 *412:24 1.39722e-05
30 *67:29 *135:10 1.24448e-05
31 *67:29 *154:12 1.74263e-06
32 *67:29 *412:45 0
33 *67:29 *413:19 0
34 *67:29 *413:31 7.90296e-06
35 *67:44 *68:8 0
36 *502:C *67:29 1.90539e-05
37 *20:40 *67:14 4.96663e-06
38 *58:10 *67:29 1.43062e-06
39 *60:18 *67:14 4.52309e-05
40 *60:18 *67:18 4.1834e-07
41 *60:18 *67:29 1.33022e-05
42 *61:27 *67:14 3.0529e-05
43 *61:27 *67:29 7.34684e-05
44 *62:8 *67:44 0
*RES
1 *760:QN *67:4 17.2 
2 *67:4 *67:8 38.0582 
3 *67:8 *67:14 34.8802 
4 *67:14 *67:16 17.2 
5 *67:16 *67:18 47.2121 
6 *67:18 *467:A 37.0741 
7 *67:8 *67:29 47.8691 
8 *67:29 *501:D 38.6786 
9 *67:4 *67:44 44.537 
10 *67:44 *732:B 17.2 
*END

*D_NET *68 0.000278286
*CONN
*I *529:C I *D OA211x2_ASAP7_75t_L
*I *524:B I *D OA21x2_ASAP7_75t_L
*I *732:CON O *D HAxp5_ASAP7_75t_L
*CAP
1 *529:C 0
2 *524:B 0
3 *732:CON 9.36392e-06
4 *68:33 1.36502e-05
5 *68:16 1.5035e-05
6 *68:12 4.25012e-05
7 *68:8 2.31799e-05
8 *68:8 *108:10 3.00843e-05
9 *68:16 *152:8 8.2174e-07
10 *68:16 *157:10 6.15298e-05
11 *68:16 *411:10 2.65996e-05
12 *68:16 *434:29 0
13 *68:16 *434:37 3.27156e-06
14 *529:B *68:33 1.52651e-06
15 *4:87 *68:12 2.10126e-05
16 *4:87 *68:33 2.16456e-05
17 *65:18 *68:33 8.06436e-06
18 *67:44 *68:8 0
*RES
1 *732:CON *68:8 44.537 
2 *68:8 *68:12 23.0831 
3 *68:12 *68:16 38.0371 
4 *68:16 *524:B 34.4 
5 *68:12 *68:33 44.1686 
6 *68:33 *529:C 17.2 
*END

*D_NET *69 0.000183662
*CONN
*I *529:A1 I *D OA211x2_ASAP7_75t_L
*I *524:A1 I *D OA21x2_ASAP7_75t_L
*I *732:SN O *D HAxp5_ASAP7_75t_L
*CAP
1 *529:A1 9.82713e-06
2 *524:A1 1.11253e-05
3 *732:SN 0
4 *69:6 2.09524e-05
5 *524:A1 *526:B 1.32196e-05
6 *524:A1 *157:10 2.98326e-05
7 *524:A1 *347:8 6.7842e-07
8 *529:A1 *157:10 1.98844e-05
9 *529:A1 *434:37 1.12561e-05
10 *529:A1 *456:194 2.90209e-08
11 *4:87 *529:A1 1.86219e-05
12 *66:33 *524:A1 2.98326e-05
13 *66:33 *529:A1 1.84022e-05
*RES
1 *732:SN *69:6 34.4 
2 *69:6 *524:A1 48.2808 
3 *69:6 *529:A1 46.5062 
*END

*D_NET *70 0.000138815
*CONN
*I *733:A I *D HAxp5_ASAP7_75t_L
*I *607:A I *D INVx1_ASAP7_75t_L
*I *737:QN O *D DFFHQNx1_ASAP7_75t_L
*CAP
1 *733:A 0
2 *607:A 1.37924e-05
3 *737:QN 2.39984e-05
4 *70:10 2.6654e-05
5 *70:8 3.686e-05
6 *607:A *207:10 0
7 *607:A *335:74 1.94745e-06
8 *70:8 *72:14 5.08318e-06
9 *70:10 *696:B2 0
10 *70:10 *71:8 1.49407e-08
11 *70:10 *145:60 3.03529e-05
12 *70:10 *207:10 0
13 *70:10 *335:74 1.1211e-07
*RES
1 *737:QN *70:8 49.9099 
2 *70:8 *70:10 12.3897 
3 *70:10 *607:A 41.5795 
4 *70:10 *733:A 34.4 
*END

*D_NET *71 0.000835156
*CONN
*I *523:A I *D INVx1_ASAP7_75t_L
*I *733:CON O *D HAxp5_ASAP7_75t_L
*CAP
1 *523:A 0
2 *733:CON 3.23408e-06
3 *71:44 5.39386e-05
4 *71:42 5.39386e-05
5 *71:40 3.32308e-05
6 *71:34 3.49113e-05
7 *71:28 1.3533e-05
8 *71:20 8.65205e-05
9 *71:18 8.9499e-05
10 *71:14 2.62847e-05
11 *71:8 1.46879e-05
12 *71:8 *733:B 7.84037e-07
13 *71:8 *145:60 1.64764e-06
14 *71:14 *335:74 1.75548e-05
15 *71:18 *733:B 0
16 *71:18 *209:91 0
17 *71:18 *224:27 5.52807e-07
18 *71:18 *448:14 6.33206e-07
19 *71:18 *453:102 4.83862e-06
20 *71:20 *407:10 1.60115e-05
21 *71:20 *448:44 3.83284e-05
22 *71:20 *448:54 2.20728e-05
23 *71:20 *453:12 2.35847e-05
24 *71:20 *453:102 2.40241e-05
25 *71:28 *247:16 2.32626e-06
26 *71:28 *248:10 2.19448e-07
27 *71:34 *448:62 2.19448e-07
28 *71:40 *745:CLK 5.25839e-05
29 *71:40 *745:D 3.0471e-06
30 *71:40 *434:8 2.22736e-06
31 *71:40 *434:29 3.32579e-06
32 *71:40 *441:81 3.6269e-06
33 *71:40 *441:98 9.59753e-06
34 *71:40 *448:62 2.12062e-05
35 *71:44 *530:B 1.78852e-05
36 *71:44 *531:B 3.68287e-06
37 *71:44 *156:10 1.13265e-05
38 *71:44 *157:8 2.88806e-06
39 *71:44 *346:14 5.62196e-06
40 *71:44 *411:10 2.20493e-06
41 *531:A1 *71:44 9.46081e-06
42 *736:D *71:20 1.02506e-06
43 *926:A *71:44 5.19475e-06
44 *4:22 *71:20 6.14615e-05
45 *20:8 *71:20 4.45712e-05
46 *20:18 *71:28 2.50523e-06
47 *20:22 *71:28 6.99655e-06
48 *22:10 *71:44 2.12481e-06
49 *70:10 *71:8 1.49407e-08
*RES
1 *733:CON *71:8 37.2158 
2 *71:8 *71:14 46.701 
3 *71:14 *71:18 28.4633 
4 *71:18 *71:20 62.5745 
5 *71:20 *71:28 39.5735 
6 *71:28 *71:34 35.2447 
7 *71:34 *71:40 49.2648 
8 *71:40 *71:42 17.2 
9 *71:42 *71:44 35.2985 
10 *71:44 *523:A 17.2 
*END

*D_NET *72 0.000128426
*CONN
*I *737:D I *D DFFHQNx1_ASAP7_75t_L
*I *617:Y O *D OA21x2_ASAP7_75t_L
*CAP
1 *737:D 0
2 *617:Y 1.1714e-05
3 *72:14 4.80494e-05
4 *72:10 5.97634e-05
5 *72:10 *617:B 3.81627e-06
6 *70:8 *72:14 5.08318e-06
*RES
1 *617:Y *72:10 40.4531 
2 *72:10 *72:14 39.1278 
3 *72:14 *737:D 17.2 
*END

*D_NET *73 0.000178518
*CONN
*I *738:D I *D DFFHQNx1_ASAP7_75t_L
*I *621:Y O *D OA21x2_ASAP7_75t_L
*CAP
1 *738:D 0
2 *621:Y 3.63424e-05
3 *73:14 2.81725e-05
4 *73:8 6.45149e-05
5 *73:8 *620:A2 2.55346e-06
6 *73:8 *620:C 1.29837e-06
7 *73:8 *186:42 4.43846e-06
8 *73:8 *219:6 0
9 *73:8 *339:32 4.26607e-06
10 *73:8 *412:97 3.90258e-06
11 *73:14 *738:CLK 2.52755e-07
12 *73:14 *212:144 3.00758e-05
13 *73:14 *217:25 1.49407e-08
14 *73:14 *448:127 2.68627e-06
*RES
1 *621:Y *73:8 49.9099 
2 *73:8 *73:14 33.8399 
3 *73:14 *738:D 17.2 
*END

*D_NET *74 6.10995e-05
*CONN
*I *739:D I *D DFFHQNx1_ASAP7_75t_L
*I *626:Y O *D AOI22x1_ASAP7_75t_L
*CAP
1 *739:D 1.96269e-05
2 *626:Y 1.96269e-05
3 *739:D *220:14 2.03052e-05
4 *739:D *220:20 1.40419e-08
5 *739:D *463:16 1.52651e-06
*RES
1 *626:Y *739:D 43.492 
*END

*D_NET *75 5.16385e-05
*CONN
*I *740:D I *D DFFHQNx1_ASAP7_75t_L
*I *634:Y O *D OA33x2_ASAP7_75t_L
*CAP
1 *740:D 9.89376e-06
2 *634:Y 6.17314e-06
3 *75:8 1.60669e-05
4 *740:D *448:25 1.90474e-05
5 *75:8 *208:68 0
6 *75:8 *335:59 4.57263e-07
*RES
1 *634:Y *75:8 37.779 
2 *75:8 *740:D 40.2831 
*END

*D_NET *76 6.91471e-05
*CONN
*I *741:D I *D DFFHQNx1_ASAP7_75t_L
*I *641:Y O *D AOI22x1_ASAP7_75t_L
*CAP
1 *741:D 1.30188e-05
2 *641:Y 3.26098e-06
3 *76:8 1.62797e-05
4 *741:D *446:88 2.35969e-05
5 *76:8 *939:A 3.32524e-06
6 *76:8 *289:25 9.6655e-06
*RES
1 *641:Y *76:8 37.779 
2 *76:8 *741:D 41.3527 
*END

*D_NET *77 7.89048e-05
*CONN
*I *742:D I *D DFFHQNx1_ASAP7_75t_L
*I *646:Y O *D AO21x1_ASAP7_75t_L
*CAP
1 *742:D 1.22798e-05
2 *646:Y 1.10844e-05
3 *77:10 2.33642e-05
4 *742:D *344:14 0
5 *742:D *344:31 1.45042e-05
6 *77:10 *646:B 2.51047e-06
7 *77:10 *344:14 0
8 *77:10 *397:32 1.51618e-05
*RES
1 *646:Y *77:10 40.9879 
2 *77:10 *742:D 39.2134 
*END

*D_NET *78 0.000130485
*CONN
*I *743:D I *D DFFHQNx1_ASAP7_75t_L
*I *651:Y O *D AO21x1_ASAP7_75t_L
*CAP
1 *743:D 0
2 *651:Y 3.78257e-06
3 *78:14 5.66911e-05
4 *78:8 6.04737e-05
5 *78:8 *651:B 2.741e-06
6 *78:14 *290:14 6.78173e-06
7 *78:14 *397:32 1.49407e-08
*RES
1 *651:Y *78:8 36.0045 
2 *78:8 *78:14 49.945 
3 *78:14 *743:D 17.2 
*END

*D_NET *79 0.000110322
*CONN
*I *744:D I *D DFFHQNx1_ASAP7_75t_L
*I *654:Y O *D AO221x2_ASAP7_75t_L
*CAP
1 *744:D 5.52543e-06
2 *654:Y 1.3847e-05
3 *79:8 1.93724e-05
4 *744:D *246:14 3.55835e-05
5 *79:8 *654:A2 6.7842e-07
6 *20:28 *79:8 0
7 *60:18 *744:D 3.53149e-05
*RES
1 *654:Y *79:8 40.2831 
2 *79:8 *744:D 46.2265 
*END

*D_NET *80 9.55753e-05
*CONN
*I *745:D I *D DFFHQNx1_ASAP7_75t_L
*I *659:Y O *D OA22x2_ASAP7_75t_L
*CAP
1 *745:D 1.7232e-05
2 *659:Y 1.25109e-05
3 *80:10 2.97429e-05
4 *80:10 *250:8 6.70433e-06
5 *80:10 *293:18 8.06588e-06
6 *80:10 *293:29 1.66587e-05
7 *80:10 *366:18 1.6136e-06
8 *71:40 *745:D 3.0471e-06
*RES
1 *659:Y *80:10 46.9844 
2 *80:10 *745:D 42.4224 
*END

*D_NET *81 3.81953e-05
*CONN
*I *746:D I *D DFFHQNx1_ASAP7_75t_L
*I *663:Y O *D OA21x2_ASAP7_75t_L
*CAP
1 *746:D 0
2 *663:Y 9.09941e-06
3 *81:10 9.09941e-06
4 *81:10 *663:B 1.01504e-05
5 *81:10 *107:10 9.84606e-06
6 *81:10 *245:6 0
*RES
1 *663:Y *81:10 40.4531 
2 *81:10 *746:D 34.4 
*END

*D_NET *82 0.000114742
*CONN
*I *747:D I *D DFFHQNx1_ASAP7_75t_L
*I *667:Y O *D OA21x2_ASAP7_75t_L
*CAP
1 *747:D 1.38285e-05
2 *667:Y 8.4713e-06
3 *82:8 2.22998e-05
4 *747:D *212:57 2.66992e-06
5 *747:D *275:41 0
6 *82:8 *145:143 3.37362e-05
7 *82:8 *148:62 3.37362e-05
*RES
1 *667:Y *82:8 46.2265 
2 *82:8 *747:D 40.2831 
*END

*D_NET *83 0.00018115
*CONN
*I *748:D I *D DFFHQNx1_ASAP7_75t_L
*I *671:Y O *D AO221x2_ASAP7_75t_L
*CAP
1 *748:D 0
2 *671:Y 3.06573e-05
3 *83:14 5.2315e-05
4 *83:10 8.29723e-05
5 *83:10 *671:A2 1.04475e-06
6 *83:10 *257:25 1.40419e-08
7 *83:10 *259:14 1.37649e-06
8 *83:10 *264:10 6.33206e-07
9 *83:10 *275:84 2.15424e-06
10 *83:10 *278:92 1.59615e-06
11 *83:14 *456:75 8.38704e-06
12 *10:8 *83:14 0
*RES
1 *671:Y *83:10 47.9407 
2 *83:10 *83:14 38.0582 
3 *83:14 *748:D 17.2 
*END

*D_NET *84 0.00028423
*CONN
*I *749:D I *D DFFHQNx1_ASAP7_75t_L
*I *675:Y O *D AO221x2_ASAP7_75t_L
*CAP
1 *749:D 4.82891e-05
2 *675:Y 5.64747e-06
3 *84:18 5.68327e-05
4 *84:12 5.60822e-05
5 *84:8 5.3186e-05
6 *749:D *297:10 0
7 *84:8 *260:35 8.84014e-07
8 *84:8 *351:34 0
9 *84:12 *85:12 0
10 *84:12 *451:72 5.0551e-07
11 *84:18 *262:10 4.39092e-05
12 *84:18 *421:31 1.88934e-05
*RES
1 *675:Y *84:8 37.779 
2 *84:8 *84:12 35.9189 
3 *84:12 *84:18 49.0423 
4 *84:18 *749:D 39.1278 
*END

*D_NET *85 0.000130142
*CONN
*I *750:D I *D DFFHQNx1_ASAP7_75t_L
*I *679:Y O *D OA21x2_ASAP7_75t_L
*CAP
1 *750:D 0
2 *679:Y 1.39494e-05
3 *85:12 3.65156e-05
4 *85:8 5.04649e-05
5 *85:8 *145:114 0
6 *85:8 *351:34 0
7 *85:8 *460:30 1.34329e-05
8 *52:33 *85:8 1.57788e-05
9 *84:12 *85:12 0
*RES
1 *679:Y *85:8 47.3528 
2 *85:8 *85:12 33.7796 
3 *85:12 *750:D 17.2 
*END

*D_NET *86 7.78664e-05
*CONN
*I *751:D I *D DFFHQNx1_ASAP7_75t_L
*I *684:Y O *D OA22x2_ASAP7_75t_L
*CAP
1 *751:D 6.60513e-06
2 *684:Y 3.93628e-06
3 *86:8 1.05414e-05
4 *751:D *439:6 2.27522e-06
5 *86:8 *684:A1 1.86635e-05
6 *86:8 *352:24 2.73812e-05
7 *86:8 *439:14 8.46363e-06
*RES
1 *684:Y *86:8 43.4107 
2 *86:8 *751:D 37.0741 
*END

*D_NET *87 1.70965e-05
*CONN
*I *752:D I *D DFFHQNx1_ASAP7_75t_L
*I *689:Y O *D OA22x2_ASAP7_75t_L
*CAP
1 *752:D 0
2 *689:Y 2.33096e-06
3 *87:8 2.33096e-06
4 *87:8 *159:44 2.22736e-06
5 *87:8 *353:18 1.02072e-05
*RES
1 *689:Y *87:8 37.779 
2 *87:8 *752:D 34.4 
*END

*D_NET *88 2.68064e-05
*CONN
*I *753:D I *D DFFHQNx1_ASAP7_75t_L
*I *696:Y O *D OA222x2_ASAP7_75t_L
*CAP
1 *753:D 4.62567e-06
2 *696:Y 3.25903e-06
3 *88:8 7.88469e-06
4 *88:8 *212:144 9.93857e-06
5 *88:8 *417:138 1.09842e-06
*RES
1 *696:Y *88:8 37.779 
2 *88:8 *753:D 36.0045 
*END

*D_NET *89 4.87468e-05
*CONN
*I *754:D I *D DFFHQNx1_ASAP7_75t_L
*I *697:Y O *D OA222x2_ASAP7_75t_L
*CAP
1 *754:D 2.37744e-05
2 *697:Y 2.37744e-05
3 *754:D *217:14 6.7842e-07
4 *754:D *417:122 5.19552e-07
5 *40:6 *754:D 0
*RES
1 *697:Y *754:D 43.492 
*END

*D_NET *90 1.70251e-05
*CONN
*I *755:D I *D DFFHQNx1_ASAP7_75t_L
*I *699:Y O *D OA222x2_ASAP7_75t_L
*CAP
1 *755:D 0
2 *699:Y 5.05556e-06
3 *90:8 5.05556e-06
4 *90:8 *145:48 6.89903e-06
5 *90:8 *209:102 1.49407e-08
6 *90:8 *287:14 0
7 *90:8 *287:22 0
*RES
1 *699:Y *90:8 37.779 
2 *90:8 *755:D 34.4 
*END

*D_NET *91 1.96678e-05
*CONN
*I *756:D I *D DFFHQNx1_ASAP7_75t_L
*I *700:Y O *D OA222x2_ASAP7_75t_L
*CAP
1 *756:D 3.6513e-06
2 *700:Y 3.87938e-06
3 *91:8 7.53068e-06
4 *756:D *448:23 5.0551e-07
5 *91:8 *448:14 4.1009e-06
6 *34:25 *91:8 0
*RES
1 *700:Y *91:8 37.779 
2 *91:8 *756:D 36.0045 
*END

*D_NET *92 0.000101116
*CONN
*I *757:D I *D DFFHQNx1_ASAP7_75t_L
*I *702:Y O *D OA222x2_ASAP7_75t_L
*CAP
1 *757:D 0
2 *702:Y 6.65056e-06
3 *92:14 1.81998e-05
4 *92:8 2.48504e-05
5 *92:8 *702:C1 5.22376e-07
6 *92:8 *291:22 7.63254e-07
7 *92:14 *148:129 3.51915e-06
8 *92:14 *237:34 4.4115e-06
9 *92:14 *402:33 5.8241e-06
10 *92:14 *429:12 1.08539e-05
11 *92:14 *446:62 1.76005e-05
12 *92:14 *446:72 7.92031e-06
*RES
1 *702:Y *92:8 37.0741 
2 *92:8 *92:14 33.3618 
3 *92:14 *757:D 17.2 
*END

*D_NET *93 5.45256e-05
*CONN
*I *758:D I *D DFFHQNx1_ASAP7_75t_L
*I *703:Y O *D OA222x2_ASAP7_75t_L
*CAP
1 *758:D 2.65081e-05
2 *703:Y 2.65081e-05
3 *758:D *703:C1 6.7842e-07
4 *758:D *237:26 8.31044e-07
*RES
1 *703:Y *758:D 43.492 
*END

*D_NET *94 2.78791e-05
*CONN
*I *759:D I *D DFFHQNx1_ASAP7_75t_L
*I *704:Y O *D OA222x2_ASAP7_75t_L
*CAP
1 *759:D 3.78017e-06
2 *704:Y 3.82779e-06
3 *94:8 7.60796e-06
4 *759:D *702:C1 2.741e-06
5 *94:8 *209:118 0
6 *31:21 *94:8 9.92218e-06
*RES
1 *704:Y *94:8 37.779 
2 *94:8 *759:D 36.0045 
*END

*D_NET *95 1.79333e-05
*CONN
*I *760:D I *D DFFHQNx1_ASAP7_75t_L
*I *705:Y O *D OA222x2_ASAP7_75t_L
*CAP
1 *760:D 0
2 *705:Y 3.93838e-06
3 *95:8 3.93838e-06
4 *95:8 *278:67 1.49407e-08
5 *95:8 *412:24 1.00416e-05
*RES
1 *705:Y *95:8 37.779 
2 *95:8 *760:D 34.4 
*END

*D_NET *96 1.23827e-05
*CONN
*I *761:D I *D DFFHQNx1_ASAP7_75t_L
*I *707:Y O *D OA222x2_ASAP7_75t_L
*CAP
1 *761:D 0
2 *707:Y 3.70212e-06
3 *96:8 3.70212e-06
4 *96:8 *247:16 0
5 *96:8 *417:54 4.19438e-06
6 *64:12 *96:8 7.84037e-07
*RES
1 *707:Y *96:8 37.779 
2 *96:8 *761:D 34.4 
*END

*D_NET *97 5.66921e-05
*CONN
*I *762:D I *D DFFHQNx1_ASAP7_75t_L
*I *708:Y O *D OA222x2_ASAP7_75t_L
*CAP
1 *762:D 1.65654e-05
2 *708:Y 2.00759e-06
3 *97:8 1.8573e-05
4 *97:8 *708:C2 9.77304e-06
5 *97:8 *212:61 9.77304e-06
*RES
1 *708:Y *97:8 37.779 
2 *97:8 *762:D 41.3527 
*END

*D_NET *98 8.8501e-05
*CONN
*I *763:D I *D DFFHQNx1_ASAP7_75t_L
*I *709:Y O *D OA222x2_ASAP7_75t_L
*CAP
1 *763:D 2.37725e-05
2 *709:Y 2.37725e-05
3 *763:D *457:45 1.84236e-05
4 *763:D *457:51 2.25324e-05
*RES
1 *709:Y *763:D 44.5617 
*END

*D_NET *99 2.83663e-05
*CONN
*I *764:D I *D DFFHQNx1_ASAP7_75t_L
*I *710:Y O *D OA222x2_ASAP7_75t_L
*CAP
1 *764:D 3.85792e-06
2 *710:Y 3.88469e-06
3 *99:8 7.74261e-06
4 *764:D *447:14 2.03526e-06
5 *99:8 *672:A 2.98814e-08
6 *99:8 *148:62 9.65829e-06
7 *99:8 *458:49 1.15762e-06
*RES
1 *710:Y *99:8 37.779 
2 *99:8 *764:D 36.0045 
*END

*D_NET *100 3.35575e-05
*CONN
*I *765:D I *D DFFHQNx1_ASAP7_75t_L
*I *711:Y O *D OA222x2_ASAP7_75t_L
*CAP
1 *765:D 0
2 *711:Y 6.8588e-06
3 *100:10 6.8588e-06
4 *100:10 *260:28 1.02592e-05
5 *100:10 *451:32 8.29207e-07
6 *100:10 *451:72 8.75155e-06
*RES
1 *711:Y *100:10 39.3835 
2 *100:10 *765:D 34.4 
*END

*D_NET *101 1.94912e-05
*CONN
*I *766:D I *D DFFHQNx1_ASAP7_75t_L
*I *712:Y O *D OA222x2_ASAP7_75t_L
*CAP
1 *766:D 0
2 *712:Y 3.60158e-06
3 *101:8 3.60158e-06
4 *101:8 *209:60 9.5132e-06
5 *101:8 *260:35 2.7748e-06
*RES
1 *712:Y *101:8 37.779 
2 *101:8 *766:D 34.4 
*END

*D_NET *102 1.22019e-05
*CONN
*I *767:D I *D DFFHQNx2_ASAP7_75t_L
*I *714:Y O *D OA222x2_ASAP7_75t_L
*CAP
1 *767:D 0
2 *714:Y 5.61387e-06
3 *102:8 5.61387e-06
4 *102:8 *439:14 0
5 *49:25 *102:8 9.74162e-07
*RES
1 *714:Y *102:8 37.779 
2 *102:8 *767:D 34.4 
*END

*D_NET *103 4.79593e-05
*CONN
*I *768:D I *D DFFHQNx1_ASAP7_75t_L
*I *716:Y O *D OA222x2_ASAP7_75t_L
*CAP
1 *768:D 0
2 *716:Y 1.11998e-05
3 *103:10 1.11998e-05
4 *103:10 *716:C1 6.06409e-06
5 *103:10 *146:115 9.72242e-06
6 *103:10 *417:33 9.77305e-06
*RES
1 *716:Y *103:10 41.5228 
2 *103:10 *768:D 34.4 
*END

*D_NET *104 0.000457853
*CONN
*I *670:A2 I *D AO21x1_ASAP7_75t_L
*I *469:Y O *D BUFx2_ASAP7_75t_L
*CAP
1 *670:A2 2.59563e-06
2 *469:Y 1.37916e-06
3 *104:16 2.20587e-05
4 *104:12 0.000115239
5 *104:10 9.57756e-05
6 *104:8 1.37916e-06
7 *104:12 *296:20 1.10564e-05
8 *104:12 *296:27 6.98161e-06
9 *104:12 *349:20 2.4971e-06
10 *104:12 *374:20 3.83627e-05
11 *104:12 *391:14 4.90209e-05
12 *104:16 *258:12 1.60335e-05
13 *104:16 *441:158 5.16618e-06
14 *104:16 *456:88 2.05419e-05
15 *10:14 *104:16 4.01178e-05
16 *20:62 *104:12 2.6334e-05
17 *58:20 *104:16 3.3138e-06
*RES
1 *469:Y *104:8 35.2447 
2 *104:8 *104:10 17.2 
3 *104:10 *104:12 51.0794 
4 *104:12 *104:16 40.0082 
5 *104:16 *670:A2 35.4697 
*END

*D_NET *105 0.000438912
*CONN
*I *665:A2 I *D AO21x1_ASAP7_75t_L
*I *471:Y O *D BUFx2_ASAP7_75t_L
*CAP
1 *665:A2 2.32757e-06
2 *471:Y 0
3 *105:16 3.32355e-05
4 *105:8 0.000168117
5 *105:6 0.000137209
6 *105:8 *148:45 4.26244e-06
7 *105:8 *252:12 3.54383e-05
8 *105:8 *379:10 0
9 *105:8 *399:14 0
10 *105:8 *441:22 3.05118e-08
11 *105:16 *107:10 4.94003e-06
12 *105:16 *148:56 7.01264e-06
13 *105:16 *148:60 2.75588e-06
14 *105:16 *302:16 3.66338e-05
15 *105:16 *347:22 7.89181e-07
16 *105:16 *441:16 0
17 *60:18 *105:8 6.15972e-06
18 *67:18 *105:8 0
*RES
1 *471:Y *105:6 34.4 
2 *105:6 *105:8 113.29 
3 *105:8 *105:16 48.7655 
4 *105:16 *665:A2 35.4697 
*END

*D_NET *106 0.000483353
*CONN
*I *510:A1 I *D OA21x2_ASAP7_75t_L
*I *521:A1 I *D AO221x1_ASAP7_75t_L
*I *472:Y O *D INVx1_ASAP7_75t_L
*CAP
1 *510:A1 0
2 *521:A1 0
3 *472:Y 0
4 *106:17 3.51126e-05
5 *106:8 0.000168672
6 *106:6 0.000133559
7 *106:8 *335:43 3.92018e-06
8 *106:8 *377:10 1.73468e-05
9 *106:8 *377:25 3.47607e-06
10 *106:8 *396:10 0
11 *106:17 *145:23 8.33296e-06
12 *106:17 *145:29 0
13 *106:17 *145:36 4.78501e-05
14 *106:17 *147:12 3.38681e-06
15 *106:17 *148:96 2.48762e-06
16 *106:17 *248:10 0
17 *106:17 *335:43 1.08748e-05
18 *106:17 *377:25 1.55439e-05
19 *736:D *106:17 8.51183e-06
20 *2:18 *106:17 4.09751e-06
21 *20:115 *106:17 6.74764e-06
22 *21:8 *106:17 1.34329e-05
*RES
1 *472:Y *106:6 34.4 
2 *106:6 *106:8 109.254 
3 *106:8 *521:A1 34.4 
4 *106:8 *106:17 39.4216 
5 *106:17 *510:A1 34.4 
*END

*D_NET *107 0.000489576
*CONN
*I *705:A2 I *D OA222x2_ASAP7_75t_L
*I *473:Y O *D BUFx2_ASAP7_75t_L
*CAP
1 *705:A2 7.50776e-06
2 *473:Y 4.47746e-06
3 *107:18 2.19211e-05
4 *107:10 0.000166331
5 *107:8 0.000156395
6 *705:A2 *456:183 1.52651e-06
7 *107:10 *663:B 1.36411e-05
8 *107:10 *148:62 0
9 *107:10 *148:85 1.5963e-06
10 *107:10 *255:18 2.71478e-05
11 *107:10 *292:10 0
12 *107:10 *347:22 5.4683e-06
13 *107:10 *387:10 0
14 *107:10 *441:28 7.24542e-06
15 *107:10 *441:36 3.73726e-05
16 *107:18 *145:143 6.31136e-06
17 *107:18 *245:6 9.30483e-06
18 *107:18 *255:18 5.67747e-07
19 *61:12 *705:A2 7.97634e-06
20 *81:10 *107:10 9.84606e-06
21 *105:16 *107:10 4.94003e-06
*RES
1 *473:Y *107:8 36.0045 
2 *107:8 *107:10 134.597 
3 *107:10 *107:18 43.8321 
4 *107:18 *705:A2 40.2831 
*END

*D_NET *108 0.000416462
*CONN
*I *475:A2 I *D OA21x2_ASAP7_75t_L
*I *474:Y O *D INVx1_ASAP7_75t_L
*CAP
1 *475:A2 2.5525e-06
2 *474:Y 1.31429e-05
3 *108:10 6.45201e-05
4 *108:8 7.51105e-05
5 *108:10 *111:8 1.79289e-07
6 *108:10 *113:12 6.10787e-06
7 *108:10 *157:10 3.05118e-08
8 *108:10 *347:10 0.000118288
9 *108:10 *411:20 1.29984e-06
10 *108:10 *411:38 0
11 *108:10 *434:8 0
12 *108:10 *441:12 0
13 *22:35 *108:10 0
14 *60:8 *108:10 0
15 *66:24 *108:10 6.6421e-06
16 *66:33 *108:10 9.85039e-05
17 *68:8 *108:10 3.00843e-05
*RES
1 *474:Y *108:8 39.2134 
2 *108:8 *108:10 72.0853 
3 *108:10 *475:A2 35.4697 
*END

*D_NET *109 0.000151004
*CONN
*I *479:A2 I *D OAI21x1_ASAP7_75t_L
*I *983:A I *D BUFx3_ASAP7_75t_L
*I *534:A2 I *D OA21x2_ASAP7_75t_L
*I *475:Y O *D OA21x2_ASAP7_75t_L
*CAP
1 *479:A2 4.66605e-06
2 *983:A 1.8835e-05
3 *534:A2 0
4 *475:Y 0
5 *109:21 2.74669e-05
6 *109:12 1.57639e-05
7 *109:4 1.97297e-05
8 *479:A2 *441:106 4.84874e-06
9 *983:A *111:21 4.27331e-06
10 *983:A *157:10 5.37866e-07
11 *983:A *405:8 8.87763e-06
12 *983:A *441:106 1.69111e-06
13 *983:A *465:14 1.49407e-08
14 *109:12 *110:19 1.60733e-05
15 *109:12 *112:6 1.36155e-06
16 *109:12 *113:12 2.46349e-07
17 *109:12 *441:106 3.03138e-06
18 *109:12 *465:20 7.53304e-06
19 *109:21 *532:B 2.55346e-06
20 *65:59 *983:A 1.15945e-06
21 *66:14 *983:A 1.23408e-05
*RES
1 *475:Y *109:4 17.2 
2 *109:4 *109:12 48.4225 
3 *109:12 *534:A2 17.2 
4 *109:4 *109:21 18.8045 
5 *109:21 *983:A 48.2808 
6 *109:21 *479:A2 40.0317 
*END

*D_NET *110 0.000317177
*CONN
*I *479:A1 I *D OAI21x1_ASAP7_75t_L
*I *534:A1 I *D OA21x2_ASAP7_75t_L
*I *476:Y O *D OR3x1_ASAP7_75t_L
*CAP
1 *479:A1 0
2 *534:A1 0
3 *476:Y 0
4 *110:19 1.30505e-05
5 *110:6 7.71755e-05
6 *110:4 6.4125e-05
7 *110:6 *502:D 1.85506e-06
8 *110:6 *502:E 4.26607e-06
9 *110:6 *112:6 8.13414e-06
10 *110:19 *112:6 6.19506e-06
11 *110:19 *113:12 9.15354e-08
12 *110:19 *113:25 9.15354e-08
13 *110:19 *266:18 8.55119e-06
14 *110:19 *441:106 1.79617e-07
15 *476:C *110:6 1.16945e-06
16 *478:A1 *110:6 1.45133e-05
17 *502:A *110:6 1.62614e-05
18 *502:C *110:6 3.90258e-06
19 *57:12 *110:6 2.7386e-05
20 *57:20 *110:6 3.54279e-05
21 *58:37 *110:6 1.87279e-05
22 *109:12 *110:19 1.60733e-05
*RES
1 *476:Y *110:4 17.2 
2 *110:4 *110:6 39.577 
3 *110:6 *534:A1 17.2 
4 *110:6 *110:19 45.55 
5 *110:19 *479:A1 17.2 
*END

*D_NET *111 0.000237789
*CONN
*I *532:B I *D OA21x2_ASAP7_75t_L
*I *478:A2 I *D OA21x2_ASAP7_75t_L
*I *477:Y O *D OA21x2_ASAP7_75t_L
*CAP
1 *532:B 1.2171e-05
2 *478:A2 0
3 *477:Y 0
4 *111:21 4.4865e-05
5 *111:8 2.73096e-05
6 *111:4 6.00037e-05
7 *532:B *532:A2 1.36155e-06
8 *532:B *441:104 2.28613e-05
9 *111:8 *113:12 0
10 *111:8 *113:25 0
11 *111:8 *449:38 1.05031e-05
12 *111:21 *113:12 8.06341e-06
13 *111:21 *157:10 3.79923e-06
14 *983:A *111:21 4.27331e-06
15 *59:8 *111:8 1.79289e-07
16 *60:8 *111:8 4.41094e-06
17 *62:23 *111:8 0
18 *65:59 *532:B 2.24856e-05
19 *66:14 *111:21 4.41457e-06
20 *66:24 *111:8 4.10928e-06
21 *66:24 *111:21 4.2449e-06
22 *108:10 *111:8 1.79289e-07
23 *109:21 *532:B 2.55346e-06
*RES
1 *477:Y *111:4 17.2 
2 *111:4 *111:8 38.6003 
3 *111:8 *478:A2 34.4 
4 *111:4 *111:21 34.1197 
5 *111:21 *532:B 44.5617 
*END

*D_NET *112 9.76418e-05
*CONN
*I *479:B I *D OAI21x1_ASAP7_75t_L
*I *534:B I *D OA21x2_ASAP7_75t_L
*I *478:Y O *D OA21x2_ASAP7_75t_L
*CAP
1 *479:B 0
2 *534:B 0
3 *478:Y 1.17937e-05
4 *112:19 1.68798e-05
5 *112:6 2.86736e-05
6 *112:19 *113:31 1.36914e-05
7 *112:19 *266:10 7.84772e-07
8 *112:19 *441:106 8.88122e-06
9 *112:19 *445:55 1.24644e-06
10 *109:12 *112:6 1.36155e-06
11 *110:6 *112:6 8.13414e-06
12 *110:19 *112:6 6.19506e-06
*RES
1 *478:Y *112:6 24.1527 
2 *112:6 *534:B 17.2 
3 *112:6 *112:19 47.1544 
4 *112:19 *479:B 17.2 
*END

*D_NET *113 0.000649151
*CONN
*I *974:A2 I *D AO211x2_ASAP7_75t_L
*I *498:A2 I *D AO211x2_ASAP7_75t_L
*I *920:A I *D BUFx3_ASAP7_75t_L
*I *479:Y O *D OAI21x1_ASAP7_75t_L
*CAP
1 *974:A2 7.58087e-06
2 *498:A2 0
3 *920:A 0
4 *479:Y 0
5 *113:54 2.67076e-05
6 *113:45 1.91267e-05
7 *113:43 4.65805e-05
8 *113:37 4.91693e-05
9 *113:31 4.43906e-05
10 *113:25 5.98669e-05
11 *113:12 2.30493e-05
12 *113:6 4.11144e-05
13 *974:A2 *127:12 8.06436e-06
14 *974:A2 *186:18 6.76763e-07
15 *974:A2 *186:22 5.60929e-06
16 *974:A2 *400:27 2.63749e-05
17 *113:12 *157:10 1.31716e-05
18 *113:12 *266:18 1.45295e-06
19 *113:12 *449:26 1.83502e-06
20 *113:12 *465:20 8.89433e-07
21 *113:25 *266:16 1.46349e-05
22 *113:25 *266:18 1.00713e-05
23 *113:25 *278:12 1.25099e-05
24 *113:25 *412:12 5.4335e-08
25 *113:31 *713:A 7.84037e-07
26 *113:31 *982:A 4.92332e-06
27 *113:31 *375:8 2.29394e-05
28 *113:31 *441:106 1.05893e-06
29 *113:31 *445:55 2.11555e-06
30 *113:37 *159:10 0
31 *113:37 *401:29 5.16782e-06
32 *113:37 *440:16 3.47607e-06
33 *113:43 *121:24 1.14246e-05
34 *113:43 *121:39 6.13072e-06
35 *113:43 *131:22 3.25095e-06
36 *113:43 *284:10 0
37 *113:54 *498:C 1.35684e-06
38 *113:54 *127:27 2.03526e-06
39 *113:54 *145:80 2.01215e-05
40 *113:54 *186:18 3.39742e-05
41 *113:54 *446:8 8.15952e-05
42 *66:14 *113:12 5.62196e-06
43 *66:24 *113:12 1.95129e-06
44 *108:10 *113:12 6.10787e-06
45 *109:12 *113:12 2.46349e-07
46 *110:19 *113:12 9.15354e-08
47 *110:19 *113:25 9.15354e-08
48 *111:8 *113:12 0
49 *111:8 *113:25 0
50 *111:21 *113:12 8.06341e-06
51 *112:19 *113:31 1.36914e-05
*RES
1 *479:Y *113:6 34.4 
2 *113:6 *113:12 36.2626 
3 *113:12 *920:A 17.2 
4 *113:6 *113:25 44.9866 
5 *113:25 *113:31 40.426 
6 *113:31 *113:37 37.2158 
7 *113:37 *113:43 47.1822 
8 *113:43 *113:45 17.2 
9 *113:45 *498:A2 17.2 
10 *113:45 *113:54 41.2671 
11 *113:54 *974:A2 43.4107 
*END

*D_NET *114 8.13231e-05
*CONN
*I *487:B I *D AND5x2_ASAP7_75t_L
*I *480:Y O *D INVx1_ASAP7_75t_L
*CAP
1 *487:B 7.80301e-06
2 *480:Y 7.31797e-06
3 *114:8 1.5121e-05
4 *487:B *115:20 1.29877e-05
5 *487:B *121:8 7.31327e-06
6 *487:B *159:60 1.56089e-05
7 *114:8 *123:22 0
8 *42:28 *114:8 1.51713e-05
*RES
1 *480:Y *114:8 40.0317 
2 *114:8 *487:B 45.6313 
*END

*D_NET *115 0.000423198
*CONN
*I *925:A I *D BUFx3_ASAP7_75t_L
*I *487:A I *D AND5x2_ASAP7_75t_L
*I *481:Y O *D INVx2_ASAP7_75t_L
*CAP
1 *925:A 0
2 *487:A 0
3 *481:Y 4.84267e-07
4 *115:31 3.61787e-05
5 *115:20 7.87504e-06
6 *115:12 5.1892e-05
7 *115:8 8.068e-05
8 *115:8 *398:16 4.26751e-07
9 *115:8 *418:72 9.1471e-07
10 *115:12 *124:22 0
11 *115:12 *180:18 0
12 *115:12 *398:16 6.22226e-05
13 *115:12 *410:14 8.56308e-06
14 *115:12 *422:50 5.19085e-06
15 *115:12 *422:72 2.68026e-05
16 *115:12 *430:67 4.70569e-06
17 *115:20 *121:8 5.00816e-06
18 *115:20 *123:22 2.28194e-05
19 *115:31 *171:25 2.54626e-07
20 *115:31 *180:18 9.90932e-06
21 *115:31 *180:33 2.38563e-05
22 *115:31 *352:8 1.56881e-06
23 *115:31 *375:8 3.13755e-07
24 *115:31 *418:57 4.24732e-06
25 *115:31 *418:72 3.67789e-06
26 *487:B *115:20 1.29877e-05
27 *42:36 *115:12 2.11577e-05
28 *44:31 *115:20 2.34728e-05
29 *48:19 *115:31 6.42451e-07
30 *48:34 *115:31 7.34586e-06
*RES
1 *481:Y *115:8 35.057 
2 *115:8 *115:12 39.0602 
3 *115:12 *115:20 46.122 
4 *115:20 *487:A 17.2 
5 *115:8 *115:31 43.8264 
6 *115:31 *925:A 17.2 
*END

*D_NET *116 0.000376201
*CONN
*I *487:C I *D AND5x2_ASAP7_75t_L
*I *542:B I *D AND4x1_ASAP7_75t_L
*I *535:A I *D XNOR2x2_ASAP7_75t_L
*I *482:Y O *D INVx1_ASAP7_75t_L
*CAP
1 *487:C 4.36124e-05
2 *542:B 0
3 *535:A 0
4 *482:Y 0
5 *116:40 5.5279e-05
6 *116:27 9.45891e-06
7 *116:19 2.34164e-05
8 *116:12 1.53725e-05
9 *116:4 1.76635e-05
10 *487:C *551:A2 4.2449e-06
11 *487:C *120:22 5.94108e-06
12 *487:C *159:56 6.35558e-06
13 *487:C *159:60 1.11189e-05
14 *487:C *165:10 6.7842e-07
15 *116:12 *117:13 5.62196e-06
16 *116:12 *124:14 5.62196e-06
17 *116:12 *159:18 7.84037e-07
18 *116:12 *159:33 1.45123e-05
19 *116:12 *266:18 2.68933e-07
20 *116:12 *409:8 1.62854e-06
21 *116:12 *414:16 0
22 *116:19 *117:13 1.42799e-05
23 *116:19 *124:14 1.62312e-05
24 *116:27 *159:33 1.12894e-06
25 *116:27 *375:8 2.30567e-05
26 *116:27 *418:78 8.52381e-06
27 *116:40 *117:13 2.20728e-05
28 *116:40 *124:14 2.44757e-05
29 *116:40 *158:21 2.36328e-05
30 *482:A *116:12 7.84037e-07
31 *551:A1 *487:C 3.90258e-06
32 *47:14 *487:C 1.32074e-05
33 *48:8 *116:40 3.32579e-06
*RES
1 *482:Y *116:4 17.2 
2 *116:4 *116:12 48.3941 
3 *116:12 *535:A 17.2 
4 *116:4 *116:19 4.81343 
5 *116:19 *116:27 43.354 
6 *116:27 *542:B 17.2 
7 *116:19 *116:40 49.237 
8 *116:40 *487:C 47.685 
*END

*D_NET *117 0.000338937
*CONN
*I *487:D I *D AND5x2_ASAP7_75t_L
*I *924:A I *D BUFx3_ASAP7_75t_L
*I *483:Y O *D INVx1_ASAP7_75t_L
*CAP
1 *487:D 0
2 *924:A 0
3 *483:Y 6.38599e-06
4 *117:19 9.44281e-06
5 *117:13 5.80644e-05
6 *117:6 5.50075e-05
7 *117:13 *124:14 1.76177e-05
8 *117:13 *159:44 3.87434e-05
9 *117:13 *300:31 1.1364e-05
10 *117:19 *159:56 6.41585e-07
11 *117:19 *398:8 0
12 *117:19 *442:8 6.33206e-07
13 *117:19 *442:19 7.35422e-06
14 *491:A1 *117:13 3.87418e-05
15 *8:6 *117:6 1.44418e-05
16 *47:6 *117:13 3.85237e-05
17 *116:12 *117:13 5.62196e-06
18 *116:19 *117:13 1.42799e-05
19 *116:40 *117:13 2.20728e-05
*RES
1 *483:Y *117:6 22.5483 
2 *117:6 *924:A 17.2 
3 *117:6 *117:13 48.6691 
4 *117:13 *117:19 41.158 
5 *117:19 *487:D 17.2 
*END

*D_NET *118 0.000561914
*CONN
*I *661:A2 I *D AO21x1_ASAP7_75t_L
*I *484:Y O *D BUFx2_ASAP7_75t_L
*CAP
1 *661:A2 0
2 *484:Y 0
3 *118:12 2.83644e-05
4 *118:8 0.00011598
5 *118:6 8.7616e-05
6 *118:8 *366:10 3.79923e-06
7 *118:8 *389:10 0.000265334
8 *118:12 *148:45 5.41446e-06
9 *118:12 *252:8 4.41457e-06
10 *118:12 *399:8 6.30602e-06
11 *474:A *118:12 1.0354e-05
12 *975:A *118:12 1.41856e-05
13 *23:12 *118:8 2.01457e-05
*RES
1 *484:Y *118:6 34.4 
2 *118:6 *118:8 99.6804 
3 *118:8 *118:12 37.5233 
4 *118:12 *661:A2 17.2 
*END

*D_NET *119 0.000517498
*CONN
*I *658:A2 I *D AO221x2_ASAP7_75t_L
*I *485:Y O *D BUFx2_ASAP7_75t_L
*CAP
1 *658:A2 4.70193e-06
2 *485:Y 0
3 *119:16 4.40402e-05
4 *119:14 4.91218e-05
5 *119:8 9.14039e-05
6 *119:6 8.16203e-05
7 *119:8 *366:18 0.000111587
8 *119:8 *388:8 0
9 *119:16 *293:10 2.9732e-06
10 *119:16 *366:18 0.000132049
*RES
1 *485:Y *119:6 34.4 
2 *119:6 *119:8 87.8539 
3 *119:8 *119:14 38.1438 
4 *119:14 *119:16 43.9269 
5 *119:16 *658:A2 36.5393 
*END

*D_NET *120 0.00040889
*CONN
*I *571:B I *D AND3x1_ASAP7_75t_L
*I *575:B I *D OR2x2_ASAP7_75t_L
*I *487:E I *D AND5x2_ASAP7_75t_L
*I *486:Y O *D NOR2x1_ASAP7_75t_L
*CAP
1 *571:B 1.18414e-05
2 *575:B 0
3 *487:E 0
4 *486:Y 0
5 *120:37 2.00009e-05
6 *120:33 7.35586e-05
7 *120:31 4.41827e-05
8 *120:22 1.27175e-05
9 *120:14 3.53942e-05
10 *120:4 2.51429e-05
11 *571:B *181:12 0
12 *571:B *189:8 1.12894e-06
13 *571:B *426:77 5.67735e-06
14 *120:14 *123:10 0
15 *120:14 *422:54 1.12894e-06
16 *120:14 *422:64 1.97065e-05
17 *120:14 *442:19 1.45389e-05
18 *120:22 *159:56 6.33206e-07
19 *120:22 *398:8 8.71976e-06
20 *120:31 *422:64 5.51397e-07
21 *120:33 *563:C 0
22 *120:33 *565:B 4.16503e-05
23 *120:33 *123:22 0
24 *120:33 *171:31 0
25 *120:33 *181:12 0
26 *120:33 *181:20 3.6777e-06
27 *120:33 *196:14 0
28 *120:33 *196:22 0
29 *120:33 *197:12 0
30 *120:33 *422:54 8.06436e-07
31 *120:33 *442:19 1.64764e-06
32 *120:33 *442:34 2.25787e-06
33 *120:37 *195:14 5.95224e-05
34 *120:37 *342:8 3.65131e-06
35 *120:37 *342:21 3.56177e-06
36 *486:A *120:14 3.56177e-06
37 *487:C *120:22 5.94108e-06
38 *42:36 *120:14 7.6881e-06
*RES
1 *486:Y *120:4 17.2 
2 *120:4 *120:14 49.0953 
3 *120:14 *120:22 42.0576 
4 *120:22 *487:E 17.2 
5 *120:4 *120:31 18.8045 
6 *120:31 *120:33 32.1005 
7 *120:33 *120:37 34.8492 
8 *120:37 *575:B 17.2 
9 *120:33 *571:B 43.354 
*END

*D_NET *121 0.000532412
*CONN
*I *567:A2 I *D AO21x2_ASAP7_75t_L
*I *974:A1 I *D AO211x2_ASAP7_75t_L
*I *498:A1 I *D AO211x2_ASAP7_75t_L
*I *487:Y O *D AND5x2_ASAP7_75t_L
*CAP
1 *567:A2 2.60129e-06
2 *974:A1 1.60971e-05
3 *498:A1 2.81977e-06
4 *487:Y 2.22036e-05
5 *121:45 1.8313e-05
6 *121:39 3.17039e-05
7 *121:24 5.1317e-05
8 *121:18 3.15987e-05
9 *121:16 3.19202e-05
10 *121:10 5.09444e-05
11 *121:8 5.1216e-05
12 *498:A1 *446:8 5.0551e-07
13 *567:A2 *407:50 2.90209e-08
14 *974:A1 *131:16 7.46759e-06
15 *974:A1 *131:22 1.41719e-05
16 *974:A1 *227:8 2.0895e-06
17 *121:10 *122:30 0
18 *121:10 *123:22 4.17809e-05
19 *121:10 *123:37 1.16665e-05
20 *121:10 *124:45 1.93482e-06
21 *121:10 *145:84 0
22 *121:10 *300:10 1.63733e-06
23 *121:10 *422:20 1.66613e-05
24 *121:10 *433:20 7.99932e-06
25 *121:16 *431:14 0
26 *121:18 *145:84 8.95073e-06
27 *121:18 *284:10 0
28 *121:24 *131:22 4.35576e-08
29 *121:24 *145:84 7.07276e-06
30 *121:24 *284:10 0
31 *121:24 *407:46 2.83874e-07
32 *121:24 *446:8 5.19552e-07
33 *121:39 *131:22 0
34 *121:39 *284:10 9.26325e-07
35 *121:45 *145:80 5.04414e-06
36 *121:45 *407:46 1.20741e-05
37 *487:B *121:8 7.31327e-06
38 *43:18 *121:10 0
39 *43:24 *121:10 1.2849e-06
40 *44:10 *121:10 2.62709e-05
41 *44:31 *121:10 2.3386e-05
42 *113:43 *121:24 1.14246e-05
43 *113:43 *121:39 6.13072e-06
44 *115:20 *121:8 5.00816e-06
*RES
1 *487:Y *121:8 45.6313 
2 *121:8 *121:10 34.3531 
3 *121:10 *121:16 43.492 
4 *121:16 *121:18 7.88432 
5 *121:18 *121:24 29.9544 
6 *121:24 *498:A1 18.8045 
7 *121:24 *121:39 47.9974 
8 *121:39 *121:45 38.3422 
9 *121:45 *974:A1 32.1751 
10 *121:18 *567:A2 35.4697 
*END

*D_NET *122 0.000308076
*CONN
*I *493:B2 I *D AOI221x1_ASAP7_75t_L
*I *492:C I *D OA211x2_ASAP7_75t_L
*I *488:Y O *D AND2x2_ASAP7_75t_L
*CAP
1 *493:B2 0
2 *492:C 0
3 *488:Y 2.1016e-05
4 *122:38 5.93884e-06
5 *122:30 2.69164e-05
6 *122:22 2.36091e-05
7 *122:18 2.48894e-05
8 *122:12 2.38598e-05
9 *122:6 2.26179e-05
10 *122:6 *287:41 2.20493e-06
11 *122:12 *433:14 2.94829e-06
12 *122:18 *402:14 0
13 *122:18 *402:94 4.16336e-05
14 *122:18 *422:20 0
15 *122:18 *444:39 2.45572e-05
16 *122:22 *431:14 2.03526e-06
17 *122:30 *123:37 5.52807e-07
18 *122:30 *125:25 2.05883e-06
19 *122:30 *422:20 0
20 *488:B *122:6 5.77141e-06
21 *37:18 *122:18 4.06835e-06
22 *38:12 *122:6 3.65131e-06
23 *41:14 *122:6 4.37185e-05
24 *42:16 *122:18 1.88432e-05
25 *42:22 *122:30 0
26 *42:22 *122:38 0
27 *42:28 *122:38 1.09842e-06
28 *43:18 *122:18 2.68255e-06
29 *43:18 *122:30 3.40422e-06
30 *121:10 *122:30 0
*RES
1 *488:Y *122:6 34.8492 
2 *122:6 *122:12 35.4325 
3 *122:12 *122:18 32.9503 
4 *122:18 *122:22 18.8045 
5 *122:22 *122:30 48.3374 
6 *122:30 *122:38 39.89 
7 *122:38 *492:C 17.2 
8 *122:22 *493:B2 17.2 
*END

*D_NET *123 0.000331648
*CONN
*I *492:A1 I *D OA211x2_ASAP7_75t_L
*I *557:A1 I *D OA21x2_ASAP7_75t_L
*I *489:Y O *D OR2x2_ASAP7_75t_L
*CAP
1 *492:A1 0
2 *557:A1 0
3 *489:Y 1.54644e-05
4 *123:37 1.29981e-05
5 *123:22 4.89309e-05
6 *123:16 6.07855e-05
7 *123:10 4.03171e-05
8 *123:10 *442:50 1.12894e-06
9 *123:16 *564:B 4.52303e-05
10 *123:22 *557:A2 1.35684e-06
11 *123:22 *125:8 0
12 *123:22 *177:8 0
13 *123:22 *182:10 9.93857e-06
14 *123:22 *422:54 6.2751e-07
15 *123:37 *557:A2 6.7842e-07
16 *123:37 *124:45 1.70708e-06
17 *123:37 *125:25 9.77825e-06
18 *486:A *123:10 1.04475e-06
19 *41:37 *123:22 5.82688e-07
20 *42:28 *123:22 0
21 *44:18 *123:22 1.12894e-06
22 *44:31 *123:22 3.12992e-06
23 *114:8 *123:22 0
24 *115:20 *123:22 2.28194e-05
25 *120:14 *123:10 0
26 *120:33 *123:22 0
27 *121:10 *123:22 4.17809e-05
28 *121:10 *123:37 1.16665e-05
29 *122:30 *123:37 5.52807e-07
*RES
1 *489:Y *123:10 41.5228 
2 *123:10 *123:16 47.7706 
3 *123:16 *123:22 49.2438 
4 *123:22 *557:A1 17.2 
5 *123:22 *123:37 47.2111 
6 *123:37 *492:A1 17.2 
*END

*D_NET *124 0.000580499
*CONN
*I *557:A2 I *D OA21x2_ASAP7_75t_L
*I *492:A2 I *D OA211x2_ASAP7_75t_L
*I *490:Y O *D OA21x2_ASAP7_75t_L
*CAP
1 *557:A2 7.92211e-06
2 *492:A2 1.54232e-05
3 *490:Y 2.38367e-05
4 *124:45 2.11098e-05
5 *124:26 4.71389e-05
6 *124:22 4.89441e-05
7 *124:14 0.000112716
8 *124:12 8.23003e-05
9 *124:10 2.38367e-05
10 *492:A2 *145:84 8.58704e-06
11 *492:A2 *145:92 0
12 *492:A2 *300:10 2.28976e-06
13 *557:A2 *125:25 1.36155e-06
14 *124:10 *163:14 5.22376e-06
15 *124:22 *398:8 3.80761e-06
16 *124:22 *398:16 4.98688e-07
17 *124:26 *300:10 2.04215e-06
18 *124:26 *300:23 1.32459e-05
19 *124:26 *442:8 5.33743e-06
20 *124:26 *442:19 7.42687e-06
21 *124:45 *402:94 0
22 *491:A1 *124:14 1.60115e-05
23 *592:A *492:A2 1.04475e-06
24 *950:A *124:26 0
25 *42:36 *124:22 3.74016e-08
26 *43:24 *492:A2 1.97168e-05
27 *43:24 *124:26 1.70708e-06
28 *43:24 *124:45 0
29 *44:31 *124:26 5.52807e-07
30 *47:6 *124:14 3.87556e-05
31 *54:23 *124:10 0
32 *115:12 *124:22 0
33 *116:12 *124:14 5.62196e-06
34 *116:19 *124:14 1.62312e-05
35 *116:40 *124:14 2.44757e-05
36 *117:13 *124:14 1.76177e-05
37 *121:10 *124:45 1.93482e-06
38 *123:22 *557:A2 1.35684e-06
39 *123:37 *557:A2 6.7842e-07
40 *123:37 *124:45 1.70708e-06
*RES
1 *490:Y *124:10 45.8014 
2 *124:10 *124:12 17.2 
3 *124:12 *124:14 40.1119 
4 *124:14 *124:22 46.0114 
5 *124:22 *124:26 34.2827 
6 *124:26 *492:A2 46.9472 
7 *124:26 *124:45 39.3858 
8 *124:45 *557:A2 38.6786 
*END

*D_NET *125 6.99429e-05
*CONN
*I *492:B I *D OA211x2_ASAP7_75t_L
*I *557:B I *D OA21x2_ASAP7_75t_L
*I *491:Y O *D OA21x2_ASAP7_75t_L
*CAP
1 *492:B 2.30897e-06
2 *557:B 2.0925e-06
3 *491:Y 8.24843e-06
4 *125:25 1.74784e-05
5 *125:8 2.55104e-05
6 *557:A2 *125:25 1.36155e-06
7 *42:28 *557:B 2.68933e-07
8 *42:28 *125:8 8.3668e-07
9 *42:28 *125:25 0
10 *122:30 *125:25 2.05883e-06
11 *123:22 *125:8 0
12 *123:37 *125:25 9.77825e-06
*RES
1 *491:Y *125:8 40.0317 
2 *125:8 *557:B 36.0895 
3 *125:8 *125:25 46.0281 
4 *125:25 *492:B 35.4697 
*END

*D_NET *126 3.06023e-05
*CONN
*I *493:C I *D AOI221x1_ASAP7_75t_L
*I *492:Y O *D OA211x2_ASAP7_75t_L
*CAP
1 *493:C 0
2 *492:Y 7.13412e-06
3 *126:8 7.13412e-06
4 *126:8 *431:10 0
5 *42:22 *126:8 0
6 *43:18 *126:8 1.56614e-05
7 *43:41 *126:8 6.72662e-07
*RES
1 *492:Y *126:8 40.0317 
2 *126:8 *493:C 34.4 
*END

*D_NET *127 0.000372487
*CONN
*I *567:B I *D AO21x2_ASAP7_75t_L
*I *974:C I *D AO211x2_ASAP7_75t_L
*I *498:C I *D AO211x2_ASAP7_75t_L
*I *493:Y O *D AOI221x1_ASAP7_75t_L
*CAP
1 *567:B 0
2 *974:C 1.44212e-05
3 *498:C 1.19541e-05
4 *493:Y 8.80609e-06
5 *127:38 1.63515e-05
6 *127:27 2.83722e-05
7 *127:12 3.90956e-05
8 *127:8 3.83481e-05
9 *498:C *631:C 5.62196e-06
10 *498:C *132:8 2.12481e-06
11 *498:C *186:18 3.3547e-05
12 *974:C *131:14 6.32656e-06
13 *974:C *131:16 1.04475e-06
14 *974:C *227:8 5.00816e-06
15 *127:8 *402:88 0
16 *127:8 *407:72 3.05118e-08
17 *127:12 *186:10 0
18 *127:12 *186:18 4.83862e-06
19 *127:12 *208:51 0
20 *127:12 *400:27 7.27531e-06
21 *127:12 *407:72 3.05118e-08
22 *127:27 *631:B 1.9076e-06
23 *127:27 *131:40 4.97654e-06
24 *127:27 *140:10 0
25 *127:27 *231:69 6.7842e-07
26 *127:27 *400:27 2.34105e-05
27 *127:38 *635:A 2.27303e-05
28 *127:38 *186:10 1.62434e-05
29 *127:38 *208:51 1.04475e-06
30 *127:38 *407:50 9.30483e-06
31 *127:38 *433:20 4.49469e-06
32 *974:A2 *127:12 8.06436e-06
33 *43:12 *127:38 2.6401e-05
34 *43:41 *127:8 1.62524e-05
35 *43:41 *127:38 1.03895e-05
36 *113:54 *498:C 1.35684e-06
37 *113:54 *127:27 2.03526e-06
*RES
1 *493:Y *127:8 41.158 
2 *127:8 *127:12 27.337 
3 *127:12 *498:C 28.4313 
4 *127:12 *127:27 46.0281 
5 *127:27 *974:C 27.3617 
6 *127:8 *127:38 36.9885 
7 *127:38 *567:B 17.2 
*END

*D_NET *128 0.000657195
*CONN
*I *653:A2 I *D AO21x1_ASAP7_75t_L
*I *494:Y O *D BUFx2_ASAP7_75t_L
*CAP
1 *653:A2 4.28527e-06
2 *494:Y 0
3 *128:8 6.90336e-05
4 *128:6 6.47484e-05
5 *653:A2 *653:B 2.71368e-06
6 *128:8 *302:10 3.84405e-05
7 *128:8 *302:25 6.61697e-06
8 *128:8 *379:10 0.000332337
9 *128:8 *387:10 0.000133111
10 *67:18 *128:8 5.90812e-06
*RES
1 *494:Y *128:6 34.4 
2 *128:6 *128:8 116.575 
3 *128:8 *653:A2 36.5393 
*END

*D_NET *129 0.000224068
*CONN
*I *496:A2 I *D OA21x2_ASAP7_75t_L
*I *581:C I *D OA211x2_ASAP7_75t_L
*I *495:Y O *D OA21x2_ASAP7_75t_L
*CAP
1 *496:A2 0
2 *581:C 1.41784e-05
3 *495:Y 0
4 *129:35 7.68277e-06
5 *129:20 2.53106e-05
6 *129:14 3.85888e-05
7 *129:4 3.51394e-05
8 *581:C *198:6 1.52651e-06
9 *581:C *198:12 3.48165e-06
10 *581:C *431:38 6.7842e-07
11 *129:14 *584:A1 6.10578e-06
12 *129:14 *137:10 4.10928e-06
13 *129:14 *138:25 2.66797e-07
14 *129:20 *584:B2 1.67815e-06
15 *129:20 *198:27 0
16 *129:20 *422:46 0
17 *129:35 *201:6 1.47193e-05
18 *129:35 *425:12 1.26192e-05
19 *495:B *129:14 2.03526e-06
20 *30:22 *129:35 4.34378e-06
21 *32:16 *129:14 9.67723e-06
22 *32:16 *129:35 5.45241e-06
23 *35:20 *581:C 2.12481e-06
24 *35:31 *581:C 7.63254e-07
25 *35:31 *129:20 3.35859e-05
*RES
1 *495:Y *129:4 17.2 
2 *129:4 *129:14 47.4058 
3 *129:14 *129:20 45.6633 
4 *129:20 *581:C 26.292 
5 *129:4 *129:35 43.1839 
6 *129:35 *496:A2 17.2 
*END

*D_NET *130 0.000128879
*CONN
*I *497:A2 I *D OAI21x1_ASAP7_75t_L
*I *496:Y O *D OA21x2_ASAP7_75t_L
*CAP
1 *497:A2 0
2 *496:Y 0
3 *130:8 4.91379e-05
4 *130:6 4.91379e-05
5 *130:8 *235:12 0
6 *130:8 *236:10 5.6882e-06
7 *130:8 *290:53 7.82298e-07
8 *130:8 *291:34 0
9 *130:8 *339:14 2.68255e-06
10 *130:8 *342:25 1.57806e-05
11 *130:8 *429:24 0
12 *130:8 *453:70 0
13 *25:31 *130:8 0
14 *26:34 *130:8 2.80886e-06
15 *27:10 *130:8 0
16 *28:28 *130:8 0
17 *29:8 *130:8 1.09842e-06
18 *29:29 *130:8 1.12894e-06
19 *30:33 *130:8 6.33206e-07
*RES
1 *496:Y *130:6 34.4 
2 *130:6 *130:8 39.4216 
3 *130:8 *497:A2 34.4 
*END

*D_NET *131 0.000506511
*CONN
*I *974:B I *D AO211x2_ASAP7_75t_L
*I *630:A I *D INVx1_ASAP7_75t_L
*I *498:B I *D AO211x2_ASAP7_75t_L
*I *497:Y O *D OAI21x1_ASAP7_75t_L
*CAP
1 *974:B 0
2 *630:A 0
3 *498:B 0
4 *497:Y 6.79108e-06
5 *131:40 5.2711e-06
6 *131:22 3.80609e-05
7 *131:16 6.18566e-05
8 *131:14 0.000108183
9 *131:12 0.000108602
10 *131:8 3.6277e-05
11 *131:12 *755:CLK 2.1014e-06
12 *131:12 *233:8 1.10902e-06
13 *131:12 *401:88 0
14 *131:12 *450:51 3.87376e-05
15 *131:12 *453:51 0
16 *131:14 *632:A1 1.52651e-06
17 *131:14 *632:A2 5.19552e-07
18 *131:14 *632:C 1.35684e-06
19 *131:14 *229:6 0
20 *131:14 *400:8 1.10341e-05
21 *131:14 *444:28 8.15309e-06
22 *131:16 *227:8 0
23 *131:22 *284:10 0
24 *131:22 *407:46 1.29336e-05
25 *131:40 *140:10 0
26 *131:40 *400:27 4.41094e-06
27 *499:B *131:14 2.52755e-07
28 *974:A1 *131:16 7.46759e-06
29 *974:A1 *131:22 1.41719e-05
30 *974:C *131:14 6.32656e-06
31 *974:C *131:16 1.04475e-06
32 *18:28 *131:12 4.03399e-07
33 *25:31 *131:12 7.68914e-06
34 *28:45 *131:12 6.72332e-07
35 *28:51 *131:12 1.32867e-05
36 *113:43 *131:22 3.25095e-06
37 *121:24 *131:22 4.35576e-08
38 *121:39 *131:22 0
39 *127:27 *131:40 4.97654e-06
*RES
1 *497:Y *131:8 37.0741 
2 *131:8 *131:12 43.1056 
3 *131:12 *131:14 35.8333 
4 *131:14 *131:16 11.2313 
5 *131:16 *131:22 40.7076 
6 *131:22 *498:B 34.4 
7 *131:16 *630:A 17.2 
8 *131:14 *131:40 39.4685 
9 *131:40 *974:B 17.2 
*END

*D_NET *132 0.000632417
*CONN
*I *612:B I *D AND3x4_ASAP7_75t_L
*I *693:A1 I *D AO21x2_ASAP7_75t_L
*I *915:A I *D BUFx3_ASAP7_75t_L
*I *609:A1 I *D AOI21x1_ASAP7_75t_L
*I *913:A2 I *D AO21x1_ASAP7_75t_L
*I *498:Y O *D AO211x2_ASAP7_75t_L
*CAP
1 *612:B 7.24447e-06
2 *693:A1 0
3 *915:A 0
4 *609:A1 5.86281e-06
5 *913:A2 2.18819e-05
6 *498:Y 3.51132e-06
7 *132:48 3.58024e-05
8 *132:33 5.13703e-05
9 *132:27 2.83601e-05
10 *132:16 5.15259e-05
11 *132:12 6.58817e-05
12 *132:10 4.6513e-05
13 *132:8 2.51971e-05
14 *609:A1 *916:B 1.35684e-06
15 *609:A1 *209:8 1.3659e-05
16 *612:B *186:28 9.425e-07
17 *913:A2 *913:A1 5.62196e-06
18 *913:A2 *208:68 3.0511e-05
19 *913:A2 *208:76 9.84664e-06
20 *132:10 *186:22 6.86204e-06
21 *132:10 *208:51 2.55486e-06
22 *132:10 *278:144 3.05118e-08
23 *132:10 *407:40 3.00255e-06
24 *132:12 *211:18 0
25 *132:12 *277:8 5.07717e-06
26 *132:12 *400:27 0
27 *132:12 *407:40 1.1349e-05
28 *132:16 *140:29 4.33802e-06
29 *132:16 *208:62 2.77307e-06
30 *132:16 *208:68 6.75856e-06
31 *132:16 *277:8 1.10964e-06
32 *132:16 *400:33 0
33 *132:16 *407:40 7.0121e-07
34 *132:27 *140:33 1.20367e-05
35 *132:27 *140:41 1.20245e-05
36 *132:33 *921:A 5.0551e-07
37 *132:33 *145:36 1.48544e-06
38 *132:33 *208:29 1.83109e-06
39 *132:33 *212:8 1.14625e-05
40 *132:48 *145:80 1.87368e-06
41 *132:48 *208:29 6.10236e-08
42 *132:48 *208:51 1.94975e-06
43 *132:48 *212:8 1.71435e-05
44 *132:48 *404:8 5.58147e-06
45 *132:48 *407:44 9.02665e-06
46 *498:C *132:8 2.12481e-06
47 *516:B *913:A2 1.55843e-05
48 *4:35 *913:A2 4.41457e-06
49 *4:35 *132:16 0
50 *4:117 *609:A1 1.3659e-05
51 *20:141 *132:16 7.20071e-05
*RES
1 *498:Y *132:8 36.0045 
2 *132:8 *132:10 16.3318 
3 *132:10 *132:12 12.9528 
4 *132:12 *132:16 45.3583 
5 *132:16 *913:A2 36.4537 
6 *132:12 *132:27 24.6875 
7 *132:27 *132:33 23.9013 
8 *132:33 *609:A1 39.2134 
9 *132:33 *132:48 40.6509 
10 *132:48 *915:A 17.2 
11 *132:27 *693:A1 17.2 
12 *132:10 *612:B 38.1438 
*END

*D_NET *133 0.000240913
*CONN
*I *507:A I *D AND4x1_ASAP7_75t_L
*I *499:Y O *D AND4x1_ASAP7_75t_L
*CAP
1 *507:A 0
2 *499:Y 0
3 *133:20 5.22824e-06
4 *133:12 5.27191e-05
5 *133:6 4.74909e-05
6 *133:12 *621:A1 1.24539e-05
7 *133:12 *755:CLK 0
8 *133:12 *136:12 3.32102e-06
9 *133:12 *145:56 3.9986e-06
10 *133:12 *146:48 0
11 *133:12 *209:102 1.5076e-05
12 *133:12 *212:127 6.93339e-05
13 *133:12 *286:26 1.41386e-05
14 *133:12 *401:88 8.0913e-06
15 *133:20 *141:6 2.66797e-07
16 *133:20 *209:79 4.33802e-06
17 *35:8 *133:20 4.45647e-06
*RES
1 *499:Y *133:6 34.4 
2 *133:6 *133:12 49.6884 
3 *133:12 *133:20 37.6001 
4 *133:20 *507:A 17.2 
*END

*D_NET *134 0.0002079
*CONN
*I *507:B I *D AND4x1_ASAP7_75t_L
*I *500:Y O *D AND4x1_ASAP7_75t_L
*CAP
1 *507:B 2.40645e-05
2 *500:Y 1.62832e-05
3 *134:12 3.20848e-05
4 *134:6 2.43035e-05
5 *507:B *141:6 8.82914e-06
6 *507:B *407:102 6.49184e-07
7 *134:6 *401:73 2.4251e-05
8 *134:6 *401:86 7.57325e-06
9 *134:6 *452:24 2.38044e-05
10 *134:6 *452:30 3.39109e-05
11 *134:12 *621:A1 1.49407e-08
12 *134:12 *401:73 5.91084e-06
13 *134:12 *452:30 1.09842e-06
14 *134:12 *453:108 5.12128e-06
*RES
1 *500:Y *134:6 33.2448 
2 *134:6 *134:12 41.158 
3 *134:12 *507:B 31.1054 
*END

*D_NET *135 8.36919e-05
*CONN
*I *502:E I *D AND5x1_ASAP7_75t_L
*I *501:Y O *D AND4x1_ASAP7_75t_L
*CAP
1 *502:E 2.41742e-06
2 *501:Y 2.18023e-05
3 *135:10 2.42198e-05
4 *135:10 *401:39 0
5 *501:D *135:10 2.20493e-06
6 *56:10 *135:10 1.63366e-05
7 *67:29 *135:10 1.24448e-05
8 *110:6 *502:E 4.26607e-06
*RES
1 *501:Y *135:10 49.9703 
2 *135:10 *502:E 35.4697 
*END

*D_NET *136 0.000788009
*CONN
*I *507:C I *D AND4x1_ASAP7_75t_L
*I *502:Y O *D AND5x1_ASAP7_75t_L
*CAP
1 *507:C 0
2 *502:Y 1.24019e-05
3 *136:18 2.18012e-06
4 *136:12 0.000155177
5 *136:10 0.000152997
6 *136:8 1.24019e-05
7 *136:8 *413:19 2.83276e-05
8 *136:12 *140:29 2.08134e-05
9 *136:12 *146:25 0
10 *136:12 *146:111 1.17844e-05
11 *136:12 *209:14 0.000261327
12 *136:12 *212:14 1.50508e-05
13 *136:12 *212:127 1.39369e-05
14 *136:12 *275:14 1.83984e-05
15 *136:12 *286:26 2.10798e-05
16 *136:12 *288:46 3.65289e-06
17 *136:12 *412:12 0
18 *136:12 *449:26 2.75325e-06
19 *136:18 *209:79 7.11159e-06
20 *36:10 *136:18 7.11159e-06
21 *58:10 *136:8 3.3454e-05
22 *63:12 *136:8 4.7284e-06
23 *133:12 *136:12 3.32102e-06
*RES
1 *502:Y *136:8 49.3239 
2 *136:8 *136:10 17.2 
3 *136:10 *136:12 71.8574 
4 *136:12 *136:18 36.9342 
5 *136:18 *507:C 17.2 
*END

*D_NET *137 0.000357625
*CONN
*I *506:A2 I *D AOI21x1_ASAP7_75t_L
*I *503:Y O *D AO21x1_ASAP7_75t_L
*CAP
1 *506:A2 0
2 *503:Y 3.59754e-05
3 *137:10 3.25766e-05
4 *137:8 6.8552e-05
5 *137:8 *187:10 0
6 *137:8 *425:39 2.03526e-06
7 *137:8 *429:58 2.79851e-06
8 *137:10 *506:B 6.45301e-06
9 *137:10 *424:42 6.15347e-05
10 *503:A2 *137:8 7.58265e-07
11 *505:B *137:10 1.13547e-05
12 *26:10 *137:10 2.35211e-06
13 *32:16 *137:10 3.32579e-06
14 *33:29 *137:10 3.68117e-05
15 *33:42 *137:10 4.12534e-05
16 *35:20 *137:10 8.2174e-07
17 *35:31 *137:10 9.15342e-06
18 *35:46 *137:10 3.77591e-05
19 *129:14 *137:10 4.10928e-06
*RES
1 *503:Y *137:8 49.9099 
2 *137:8 *137:10 47.8691 
3 *137:10 *506:A2 34.4 
*END

*D_NET *138 0.000176894
*CONN
*I *584:A2 I *D AO221x1_ASAP7_75t_L
*I *505:D I *D AND4x2_ASAP7_75t_L
*I *504:Y O *D AO21x1_ASAP7_75t_L
*CAP
1 *584:A2 0
2 *505:D 1.56849e-05
3 *504:Y 3.1014e-06
4 *138:25 1.76527e-05
5 *138:8 3.64389e-05
6 *505:D *505:C 1.62517e-06
7 *505:D *506:B 8.33296e-06
8 *505:D *139:8 1.06947e-05
9 *505:D *424:42 3.47607e-06
10 *138:25 *584:A1 4.74894e-06
11 *138:25 *424:42 5.03576e-06
12 *138:25 *425:12 1.12894e-06
13 *504:B *138:25 8.06436e-06
14 *505:A *505:D 5.60174e-06
15 *33:27 *138:25 2.33363e-05
16 *36:18 *505:D 1.66587e-05
17 *36:18 *138:25 1.50458e-05
18 *129:14 *138:25 2.66797e-07
*RES
1 *504:Y *138:8 35.4697 
2 *138:8 *505:D 49.1237 
3 *138:8 *138:25 33.2201 
4 *138:25 *584:A2 17.2 
*END

*D_NET *139 0.000137346
*CONN
*I *506:B I *D AOI21x1_ASAP7_75t_L
*I *505:Y O *D AND4x2_ASAP7_75t_L
*CAP
1 *506:B 1.18723e-05
2 *505:Y 2.79963e-05
3 *139:8 3.98687e-05
4 *506:B *424:42 1.82788e-05
5 *506:B *425:54 3.73144e-06
6 *505:D *506:B 8.33296e-06
7 *505:D *139:8 1.06947e-05
8 *36:18 *506:B 1.01182e-05
9 *137:10 *506:B 6.45301e-06
*RES
1 *505:Y *139:8 46.701 
2 *139:8 *506:B 48.3374 
*END

*D_NET *140 0.000789462
*CONN
*I *693:A2 I *D AO21x2_ASAP7_75t_L
*I *921:A I *D BUFx3_ASAP7_75t_L
*I *922:A I *D BUFx3_ASAP7_75t_L
*I *506:Y O *D AOI21x1_ASAP7_75t_L
*CAP
1 *693:A2 0
2 *921:A 1.0529e-05
3 *922:A 3.76518e-06
4 *506:Y 2.06964e-05
5 *140:41 1.94993e-05
6 *140:33 1.20099e-05
7 *140:29 1.83069e-05
8 *140:12 4.00767e-05
9 *140:10 0.000124541
10 *140:8 9.36592e-05
11 *921:A *208:25 2.68282e-05
12 *921:A *406:6 5.0551e-07
13 *921:A *406:8 1.26378e-06
14 *140:8 *339:6 3.81627e-06
15 *140:8 *422:35 4.92332e-06
16 *140:8 *422:46 2.97289e-06
17 *140:10 *631:B 3.00603e-06
18 *140:10 *275:131 0
19 *140:10 *400:27 0
20 *140:10 *402:88 1.2849e-06
21 *140:10 *422:31 2.84286e-06
22 *140:10 *433:31 6.70569e-05
23 *140:10 *444:12 2.66435e-05
24 *140:12 *141:12 1.12894e-06
25 *140:12 *229:10 0
26 *140:12 *230:10 5.67747e-07
27 *140:12 *275:10 0
28 *140:12 *275:131 0
29 *140:12 *288:46 9.1471e-07
30 *140:12 *335:59 7.55813e-05
31 *140:12 *403:8 0
32 *140:12 *407:10 2.32553e-05
33 *140:12 *407:25 3.3205e-05
34 *140:29 *212:127 5.44803e-05
35 *140:29 *407:40 4.45647e-06
36 *140:33 *208:62 5.0551e-07
37 *140:41 *145:36 1.94775e-06
38 *140:41 *208:25 7.58265e-07
39 *140:41 *208:29 3.91524e-06
40 *140:41 *208:62 1.40419e-08
41 *4:22 *922:A 3.65131e-06
42 *20:141 *140:33 2.03526e-06
43 *39:20 *140:10 2.68658e-05
44 *41:10 *140:10 1.98536e-05
45 *41:10 *140:12 1.35522e-06
46 *41:21 *140:10 1.02359e-06
47 *127:27 *140:10 0
48 *131:40 *140:10 0
49 *132:16 *140:29 4.33802e-06
50 *132:27 *140:33 1.20367e-05
51 *132:27 *140:41 1.20245e-05
52 *132:33 *921:A 5.0551e-07
53 *136:12 *140:29 2.08134e-05
*RES
1 *506:Y *140:8 47.7706 
2 *140:8 *140:10 64.8579 
3 *140:10 *140:12 38.7646 
4 *140:12 *922:A 37.0741 
5 *140:10 *140:29 45.5189 
6 *140:29 *140:33 20.409 
7 *140:33 *140:41 41.5511 
8 *140:41 *921:A 27.3617 
9 *140:33 *693:A2 17.2 
*END

*D_NET *141 0.000446432
*CONN
*I *509:A2 I *D AO21x1_ASAP7_75t_L
*I *515:C I *D AND3x1_ASAP7_75t_L
*I *507:Y O *D AND4x1_ASAP7_75t_L
*CAP
1 *509:A2 0
2 *515:C 1.97486e-06
3 *507:Y 4.07515e-05
4 *141:26 2.83852e-05
5 *141:20 2.64103e-05
6 *141:18 6.0642e-05
7 *141:12 6.61872e-05
8 *141:6 4.62968e-05
9 *141:18 *634:A2 1.44167e-06
10 *141:18 *145:36 8.20229e-06
11 *141:18 *146:33 2.52755e-07
12 *141:18 *403:12 6.04012e-05
13 *141:26 *145:36 7.65969e-06
14 *141:26 *146:21 1.12894e-06
15 *141:26 *208:14 1.15611e-05
16 *141:26 *403:12 1.10486e-05
17 *141:26 *403:18 2.04767e-05
18 *507:B *141:6 8.82914e-06
19 *723:B *141:6 4.13278e-05
20 *4:47 *141:26 2.05883e-06
21 *133:20 *141:6 2.66797e-07
22 *140:12 *141:12 1.12894e-06
*RES
1 *507:Y *141:6 38.0582 
2 *141:6 *141:12 37.779 
3 *141:12 *141:18 46.2223 
4 *141:18 *141:20 17.2 
5 *141:20 *141:26 40.5979 
6 *141:26 *515:C 35.4697 
7 *141:20 *509:A2 17.2 
*END

*D_NET *142 9.82706e-05
*CONN
*I *615:A2 I *D AO21x1_ASAP7_75t_L
*I *508:Y O *D BUFx2_ASAP7_75t_L
*CAP
1 *615:A2 0
2 *508:Y 3.72033e-05
3 *142:14 5.93401e-06
4 *142:6 4.31373e-05
5 *142:6 *615:A1 3.28582e-06
6 *142:6 *615:B 5.41446e-06
7 *142:6 *310:13 1.76928e-06
8 *142:14 *615:A1 1.52651e-06
*RES
1 *508:Y *142:6 34.8492 
2 *142:6 *142:14 38.2855 
3 *142:14 *615:A2 17.2 
*END

*D_NET *143 9.11151e-05
*CONN
*I *510:B I *D OA21x2_ASAP7_75t_L
*I *509:Y O *D AO21x1_ASAP7_75t_L
*CAP
1 *510:B 0
2 *509:Y 2.21479e-06
3 *143:12 1.38626e-05
4 *143:8 1.60774e-05
5 *143:8 *403:12 2.20493e-06
6 *143:12 *145:36 0
7 *143:12 *407:29 4.67936e-06
8 *143:12 *407:40 6.64959e-06
9 *143:12 *448:31 3.01744e-05
10 *20:115 *143:12 7.32095e-07
11 *20:141 *143:12 1.45199e-05
*RES
1 *509:Y *143:8 36.0045 
2 *143:8 *143:12 33.5318 
3 *143:12 *510:B 17.2 
*END

*D_NET *144 0.000123487
*CONN
*I *511:B I *D NOR2x1_ASAP7_75t_L
*I *510:Y O *D OA21x2_ASAP7_75t_L
*CAP
1 *511:B 0
2 *510:Y 0
3 *144:12 3.56388e-05
4 *144:6 3.56388e-05
5 *144:12 *519:A 1.40419e-08
6 *144:12 *734:CLK 0
7 *144:12 *147:12 0
8 *144:12 *148:12 0
9 *144:12 *151:6 2.68282e-05
10 *1:12 *144:12 1.30912e-05
11 *2:10 *144:12 3.65131e-06
12 *3:10 *144:12 5.62196e-06
13 *4:22 *144:12 0
14 *20:10 *144:12 2.33013e-06
15 *20:126 *144:12 6.72662e-07
*RES
1 *510:Y *144:6 34.4 
2 *144:6 *144:12 46.6227 
3 *144:12 *511:B 17.2 
*END

*D_NET *145 0.00257631
*CONN
*I *689:A2 I *D OA22x2_ASAP7_75t_L
*I *684:A2 I *D OA22x2_ASAP7_75t_L
*I *679:A2 I *D OA21x2_ASAP7_75t_L
*I *663:A2 I *D OA21x2_ASAP7_75t_L
*I *667:A2 I *D OA21x2_ASAP7_75t_L
*I *621:A2 I *D OA21x2_ASAP7_75t_L
*I *617:A2 I *D OA21x2_ASAP7_75t_L
*I *513:B I *D NOR2x1_ASAP7_75t_L
*I *659:A2 I *D OA22x2_ASAP7_75t_L
*I *512:Y O *D NAND2x1_ASAP7_75t_L
*CAP
1 *689:A2 0
2 *684:A2 0
3 *679:A2 0
4 *663:A2 9.07636e-07
5 *667:A2 0
6 *621:A2 0
7 *617:A2 1.56741e-05
8 *513:B 0
9 *659:A2 1.70947e-05
10 *512:Y 2.35246e-06
11 *145:143 4.89502e-05
12 *145:141 4.80426e-05
13 *145:134 2.29803e-05
14 *145:124 3.55652e-05
15 *145:120 5.35984e-05
16 *145:118 4.86664e-05
17 *145:114 1.72668e-05
18 *145:110 4.78556e-05
19 *145:106 8.92131e-05
20 *145:104 6.351e-05
21 *145:96 2.60597e-05
22 *145:92 4.20859e-05
23 *145:84 6.27006e-05
24 *145:80 6.98406e-05
25 *145:60 7.13712e-05
26 *145:58 5.56971e-05
27 *145:56 1.35085e-05
28 *145:48 3.53447e-05
29 *145:40 0.000123462
30 *145:38 0.000101626
31 *145:36 9.11762e-05
32 *145:29 2.53087e-05
33 *145:23 4.26624e-05
34 *145:15 7.28251e-05
35 *145:6 1.94472e-05
36 *617:A2 *617:A1 2.20493e-06
37 *617:A2 *338:6 4.73041e-06
38 *659:A2 *659:B1 1.12561e-05
39 *659:A2 *659:B2 5.62196e-06
40 *659:A2 *250:8 5.22376e-07
41 *663:A2 *245:6 1.44167e-06
42 *663:A2 *294:22 1.04475e-06
43 *145:23 *248:10 0
44 *145:29 *147:12 5.41295e-06
45 *145:29 *150:8 1.31336e-05
46 *145:29 *151:14 1.18591e-05
47 *145:29 *335:43 1.87709e-06
48 *145:36 *146:94 0
49 *145:36 *208:14 2.68933e-07
50 *145:36 *208:25 2.98814e-08
51 *145:36 *209:12 5.12908e-06
52 *145:36 *209:73 4.54371e-06
53 *145:36 *212:8 2.61137e-05
54 *145:36 *248:10 0
55 *145:36 *407:40 0
56 *145:40 *186:34 7.18513e-05
57 *145:40 *209:75 1.34122e-05
58 *145:40 *209:102 5.11322e-06
59 *145:40 *278:12 7.72574e-06
60 *145:40 *417:14 1.64092e-05
61 *145:48 *209:102 2.13376e-07
62 *145:48 *287:22 0
63 *145:48 *417:78 2.52588e-06
64 *145:56 *219:6 0
65 *145:56 *401:88 1.08499e-05
66 *145:60 *696:B2 0
67 *145:60 *733:B 0
68 *145:60 *276:20 3.67907e-06
69 *145:60 *401:65 2.61463e-06
70 *145:60 *401:88 9.05024e-06
71 *145:60 *417:84 1.32197e-05
72 *145:60 *417:88 6.51169e-05
73 *145:60 *417:94 0
74 *145:60 *417:151 0
75 *145:80 *208:51 0
76 *145:80 *209:73 3.01974e-06
77 *145:80 *212:8 3.97187e-06
78 *145:80 *407:46 4.16547e-06
79 *145:84 *284:10 0
80 *145:84 *407:46 1.13245e-05
81 *145:84 *433:20 0
82 *145:92 *270:16 1.09067e-06
83 *145:104 *689:A1 7.63254e-07
84 *145:104 *353:18 8.45637e-06
85 *145:104 *440:14 2.12481e-06
86 *145:104 *440:16 3.16603e-06
87 *145:106 *535:B 2.03526e-06
88 *145:106 *684:B1 4.30016e-05
89 *145:106 *269:12 1.04206e-05
90 *145:106 *298:8 2.93253e-06
91 *145:106 *350:6 2.7634e-05
92 *145:110 *684:A1 2.25412e-05
93 *145:110 *263:6 2.85598e-05
94 *145:110 *298:8 1.20203e-06
95 *145:110 *298:14 6.56538e-05
96 *145:110 *298:22 5.41446e-06
97 *145:114 *212:112 1.98844e-05
98 *145:114 *263:12 0
99 *145:114 *265:8 7.24542e-06
100 *145:114 *460:30 0
101 *145:118 *421:8 3.48165e-06
102 *145:120 *672:A 1.61552e-05
103 *145:120 *148:62 0
104 *145:120 *209:60 2.0051e-05
105 *145:120 *212:95 1.82173e-05
106 *145:120 *212:97 1.61002e-05
107 *145:120 *212:112 2.7748e-06
108 *145:120 *260:12 6.53077e-05
109 *145:120 *360:32 9.55592e-06
110 *145:120 *402:120 0
111 *145:120 *421:14 8.58704e-06
112 *145:120 *447:31 3.3335e-05
113 *145:120 *451:83 0
114 *145:124 *212:47 5.62196e-06
115 *145:124 *348:37 5.96787e-07
116 *145:134 *148:62 5.63762e-07
117 *145:134 *256:20 5.7953e-06
118 *145:134 *278:34 8.66478e-06
119 *145:143 *148:62 3.09389e-05
120 *145:143 *212:51 2.13283e-06
121 *145:143 *212:57 6.98194e-06
122 *145:143 *212:95 5.43212e-07
123 *145:143 *255:18 0
124 *145:143 *256:20 8.16553e-06
125 *145:143 *278:55 1.15587e-05
126 *145:143 *348:37 3.08218e-06
127 *145:143 *456:183 0
128 *492:A2 *145:84 8.58704e-06
129 *492:A2 *145:92 0
130 *512:B *659:A2 1.22121e-05
131 *513:A *145:29 2.12481e-06
132 *1:12 *145:29 3.1792e-06
133 *3:16 *145:23 5.09299e-06
134 *4:41 *145:36 7.9361e-06
135 *4:47 *145:36 4.44791e-05
136 *4:69 *145:36 2.15475e-05
137 *4:113 *145:36 1.056e-05
138 *20:104 *145:36 0
139 *20:115 *145:36 8.25196e-06
140 *40:48 *145:60 3.86483e-06
141 *43:12 *145:80 8.52268e-06
142 *43:24 *145:84 3.88327e-06
143 *70:10 *145:60 3.03529e-05
144 *71:8 *145:60 1.64764e-06
145 *82:8 *145:143 3.37362e-05
146 *85:8 *145:114 0
147 *90:8 *145:48 6.89903e-06
148 *106:17 *145:23 8.33296e-06
149 *106:17 *145:29 0
150 *106:17 *145:36 4.78501e-05
151 *107:18 *145:143 6.31136e-06
152 *113:54 *145:80 2.01215e-05
153 *121:10 *145:84 0
154 *121:18 *145:84 8.95073e-06
155 *121:24 *145:84 7.07276e-06
156 *121:45 *145:80 5.04414e-06
157 *132:33 *145:36 1.48544e-06
158 *132:48 *145:80 1.87368e-06
159 *133:12 *145:56 3.9986e-06
160 *140:41 *145:36 1.94775e-06
161 *141:18 *145:36 8.20229e-06
162 *141:26 *145:36 7.65969e-06
163 *143:12 *145:36 0
*RES
1 *512:Y *145:6 18.8045 
2 *145:6 *659:A2 31.1054 
3 *145:6 *145:15 17.2 
4 *145:15 *145:23 44.1686 
5 *145:23 *145:29 37.2189 
6 *145:29 *513:B 17.2 
7 *145:15 *145:36 56.5982 
8 *145:36 *145:38 17.2 
9 *145:38 *145:40 34.1972 
10 *145:40 *145:48 46.1396 
11 *145:48 *145:56 42.0859 
12 *145:56 *145:58 17.2 
13 *145:58 *145:60 47.8691 
14 *145:60 *617:A2 44.5617 
15 *145:48 *621:A2 17.2 
16 *145:36 *145:80 44.765 
17 *145:80 *145:84 45.3583 
18 *145:84 *145:92 47.9974 
19 *145:92 *145:96 25.2224 
20 *145:96 *145:104 43.0989 
21 *145:104 *145:106 38.5074 
22 *145:106 *145:110 48.2198 
23 *145:110 *145:114 27.337 
24 *145:114 *145:118 20.9438 
25 *145:118 *145:120 47.8691 
26 *145:120 *145:124 22.0134 
27 *145:124 *145:134 45.2382 
28 *145:134 *667:A2 17.2 
29 *145:124 *145:141 17.2 
30 *145:141 *145:143 45.0533 
31 *145:143 *663:A2 35.4697 
32 *145:114 *679:A2 17.2 
33 *145:106 *684:A2 17.2 
34 *145:96 *689:A2 17.2 
*END

*D_NET *146 0.00151494
*CONN
*I *608:B I *D NAND2x1_ASAP7_75t_L
*I *681:B I *D OA21x2_ASAP7_75t_L
*I *686:B I *D OA21x2_ASAP7_75t_L
*I *656:B I *D OA21x2_ASAP7_75t_L
*I *637:B I *D OA211x2_ASAP7_75t_L
*I *624:C I *D AND3x1_ASAP7_75t_L
*I *634:A3 I *D OA33x2_ASAP7_75t_L
*I *515:A I *D AND3x1_ASAP7_75t_L
*I *514:Y O *D INVx1_ASAP7_75t_L
*CAP
1 *608:B 0
2 *681:B 1.15253e-05
3 *686:B 3.54583e-06
4 *656:B 2.67463e-06
5 *637:B 0
6 *624:C 0
7 *634:A3 0
8 *515:A 1.2048e-06
9 *514:Y 1.45297e-05
10 *146:115 6.2383e-05
11 *146:113 4.73119e-05
12 *146:111 1.22597e-05
13 *146:96 2.43558e-05
14 *146:94 2.20936e-05
15 *146:86 1.54271e-05
16 *146:75 8.22683e-06
17 *146:67 9.82529e-05
18 *146:56 2.14038e-05
19 *146:48 8.13386e-05
20 *146:44 0.000177124
21 *146:33 6.55901e-06
22 *146:25 8.07438e-05
23 *146:21 6.50653e-05
24 *146:10 3.10235e-05
25 *656:B *406:8 6.1473e-07
26 *656:B *406:18 6.20163e-07
27 *681:B *681:A2 3.39864e-05
28 *681:B *686:A1 1.36155e-06
29 *681:B *267:6 3.65663e-06
30 *681:B *444:53 5.49212e-07
31 *686:B *681:A2 6.83133e-07
32 *686:B *407:50 2.28976e-06
33 *146:10 *248:10 1.70866e-06
34 *146:21 *248:10 5.75209e-06
35 *146:21 *403:18 3.91031e-05
36 *146:25 *148:109 4.25458e-06
37 *146:25 *275:14 1.1789e-05
38 *146:25 *288:46 5.71404e-06
39 *146:25 *401:14 0
40 *146:25 *407:25 6.2194e-05
41 *146:33 *634:B3 1.35684e-06
42 *146:33 *230:10 3.30589e-06
43 *146:44 *148:109 2.63258e-05
44 *146:44 *288:46 1.44874e-05
45 *146:48 *148:213 0
46 *146:48 *212:127 0
47 *146:48 *276:12 8.15519e-06
48 *146:48 *286:14 0.000135749
49 *146:48 *286:20 1.36643e-05
50 *146:48 *286:26 3.45879e-06
51 *146:48 *452:16 2.55245e-05
52 *146:56 *624:A 1.56713e-06
53 *146:56 *624:B 1.02895e-05
54 *146:56 *452:10 3.14574e-06
55 *146:56 *452:16 8.5732e-06
56 *146:56 *453:146 0
57 *146:67 *226:18 0
58 *146:67 *402:14 8.53546e-06
59 *146:67 *458:87 1.11663e-05
60 *146:75 *637:A1 5.85387e-06
61 *146:75 *287:14 1.15154e-05
62 *146:75 *287:33 1.00456e-05
63 *146:75 *453:40 5.85387e-06
64 *146:86 *208:14 6.7842e-07
65 *146:86 *248:10 1.12894e-06
66 *146:86 *403:18 6.61697e-06
67 *146:94 *208:14 3.59088e-06
68 *146:94 *208:25 6.42451e-07
69 *146:94 *211:12 4.30517e-07
70 *146:94 *248:10 1.99672e-05
71 *146:94 *403:18 1.67815e-06
72 *146:96 *248:8 2.03526e-06
73 *146:96 *406:8 1.26391e-06
74 *146:111 *212:14 2.8506e-05
75 *146:111 *406:18 6.10236e-08
76 *146:111 *406:31 1.21934e-06
77 *146:115 *284:10 0
78 *146:115 *406:31 0
79 *146:115 *417:22 2.15674e-06
80 *146:115 *417:33 1.34247e-05
81 *146:115 *417:54 4.08754e-05
82 *146:115 *444:53 5.79724e-07
83 *146:115 *444:59 3.11818e-06
84 *146:115 *458:11 1.17606e-06
85 *146:115 *458:15 6.4908e-06
86 *4:47 *146:10 0
87 *4:105 *146:111 1.05128e-05
88 *36:18 *146:75 8.33261e-06
89 *40:31 *146:44 6.18391e-05
90 *40:31 *146:48 5.82818e-06
91 *103:10 *146:115 9.72242e-06
92 *133:12 *146:48 0
93 *136:12 *146:25 0
94 *136:12 *146:111 1.17844e-05
95 *141:18 *146:33 2.52755e-07
96 *141:26 *146:21 1.12894e-06
97 *145:36 *146:94 0
*RES
1 *514:Y *146:10 42.0293 
2 *146:10 *515:A 35.4697 
3 *146:10 *146:21 15.6748 
4 *146:21 *146:25 39.0602 
5 *146:25 *146:33 38.2943 
6 *146:33 *634:A3 17.2 
7 *146:25 *146:44 31.0614 
8 *146:44 *146:48 43.9952 
9 *146:48 *146:56 48.2896 
10 *146:56 *624:C 17.2 
11 *146:44 *146:67 42.1658 
12 *146:67 *146:75 43.6072 
13 *146:75 *637:B 17.2 
14 *146:21 *146:86 20.6162 
15 *146:86 *146:94 45.55 
16 *146:94 *146:96 4.81343 
17 *146:96 *656:B 18.8045 
18 *146:96 *146:111 43.2264 
19 *146:111 *146:113 17.2 
20 *146:113 *146:115 39.5155 
21 *146:115 *686:B 37.0741 
22 *146:115 *681:B 46.2512 
23 *146:86 *608:B 17.2 
*END

*D_NET *147 0.000181336
*CONN
*I *520:A1 I *D OA21x2_ASAP7_75t_L
*I *515:Y O *D AND3x1_ASAP7_75t_L
*CAP
1 *520:A1 0
2 *515:Y 6.70496e-06
3 *147:12 2.39076e-05
4 *147:8 3.06126e-05
5 *147:12 *734:CLK 2.71199e-05
6 *147:12 *448:31 2.1369e-05
7 *510:A2 *147:8 1.32074e-05
8 *736:D *147:12 2.01457e-05
9 *2:18 *147:12 4.35576e-08
10 *4:35 *147:8 1.32074e-05
11 *4:47 *147:8 9.75645e-06
12 *20:115 *147:12 6.46153e-06
13 *106:17 *147:12 3.38681e-06
14 *144:12 *147:12 0
15 *145:29 *147:12 5.41295e-06
*RES
1 *515:Y *147:8 40.2831 
2 *147:8 *147:12 43.1056 
3 *147:12 *520:A1 17.2 
*END

*D_NET *148 0.0029794
*CONN
*I *619:B I *D AO21x1_ASAP7_75t_L
*I *615:B I *D AO21x1_ASAP7_75t_L
*I *626:A2 I *D AOI22x1_ASAP7_75t_L
*I *649:B I *D AO21x1_ASAP7_75t_L
*I *644:B I *D AO21x1_ASAP7_75t_L
*I *643:B I *D NAND2x1_ASAP7_75t_L
*I *648:B I *D NAND2x1_ASAP7_75t_L
*I *641:A2 I *D AOI22x1_ASAP7_75t_L
*I *518:A2 I *D AOI21x1_ASAP7_75t_L
*I *665:B I *D AO21x1_ASAP7_75t_L
*I *677:B I *D AO21x1_ASAP7_75t_L
*I *661:B I *D AO21x1_ASAP7_75t_L
*I *633:B I *D AO21x1_ASAP7_75t_L
*I *516:Y O *D AND2x2_ASAP7_75t_L
*CAP
1 *619:B 0
2 *615:B 2.18213e-05
3 *626:A2 0
4 *649:B 7.95963e-07
5 *644:B 1.18464e-05
6 *643:B 0
7 *648:B 0
8 *641:A2 0
9 *518:A2 0
10 *665:B 0
11 *677:B 1.42247e-05
12 *661:B 0
13 *633:B 7.87946e-06
14 *516:Y 3.27486e-06
15 *148:236 2.21321e-05
16 *148:230 4.15715e-05
17 *148:213 0.00010081
18 *148:182 2.85113e-05
19 *148:171 2.74023e-05
20 *148:164 2.13976e-05
21 *148:158 6.55413e-05
22 *148:145 1.22737e-05
23 *148:137 8.36475e-05
24 *148:135 1.89109e-05
25 *148:129 1.94294e-05
26 *148:125 3.59093e-05
27 *148:117 2.21347e-05
28 *148:113 5.94952e-05
29 *148:111 5.70548e-05
30 *148:109 0.000141454
31 *148:107 9.10801e-05
32 *148:96 4.69403e-07
33 *148:85 9.73018e-07
34 *148:68 4.09889e-05
35 *148:62 0.000115049
36 *148:60 0.000103521
37 *148:56 4.32153e-05
38 *148:45 1.31918e-05
39 *148:39 4.01976e-05
40 *148:37 1.97421e-05
41 *148:29 0.000143738
42 *148:27 0.000153648
43 *148:12 7.74341e-05
44 *148:10 4.42004e-05
45 *148:6 1.62795e-05
46 *615:B *615:A1 1.56713e-06
47 *615:B *335:101 0
48 *615:B *453:146 1.12894e-06
49 *633:B *335:28 3.39823e-06
50 *633:B *364:10 7.49254e-06
51 *644:B *239:10 7.30263e-06
52 *644:B *240:10 1.89962e-06
53 *644:B *243:10 5.17782e-06
54 *644:B *335:139 5.23062e-06
55 *644:B *368:22 6.70433e-06
56 *649:B *368:22 3.89037e-06
57 *677:B *258:12 2.48389e-05
58 *677:B *259:14 6.42287e-06
59 *677:B *264:10 6.7842e-07
60 *677:B *349:28 1.1488e-05
61 *677:B *456:69 2.43869e-07
62 *148:6 *208:68 3.68287e-06
63 *148:10 *208:68 5.62196e-06
64 *148:12 *208:76 5.03576e-06
65 *148:12 *230:10 0
66 *148:12 *335:22 1.96231e-05
67 *148:12 *335:28 1.01518e-06
68 *148:12 *335:59 1.11063e-05
69 *148:12 *364:10 2.48762e-06
70 *148:27 *377:25 1.06794e-05
71 *148:29 *302:16 6.50923e-05
72 *148:29 *377:25 8.32162e-08
73 *148:29 *441:16 0
74 *148:37 *399:14 6.28016e-06
75 *148:45 *252:12 3.50003e-05
76 *148:45 *399:14 1.55218e-06
77 *148:45 *413:8 2.6982e-05
78 *148:56 *252:12 1.29984e-05
79 *148:56 *252:18 9.18153e-06
80 *148:56 *302:16 7.3244e-06
81 *148:56 *413:8 1.46112e-05
82 *148:60 *252:18 6.13026e-06
83 *148:62 *663:B 3.54095e-06
84 *148:62 *212:61 6.47448e-06
85 *148:62 *212:95 0
86 *148:62 *251:17 7.69564e-05
87 *148:62 *256:20 1.57954e-05
88 *148:62 *278:24 7.11762e-06
89 *148:62 *278:34 0
90 *148:62 *278:36 0
91 *148:62 *278:55 1.19435e-05
92 *148:62 *278:92 3.06388e-05
93 *148:62 *458:49 1.75184e-06
94 *148:68 *296:27 1.48143e-05
95 *148:68 *296:48 1.16652e-05
96 *148:85 *347:22 5.4219e-06
97 *148:96 *377:25 2.48762e-06
98 *148:107 *208:68 0
99 *148:107 *335:59 8.02116e-06
100 *148:109 *286:14 2.00722e-06
101 *148:109 *401:14 1.37139e-06
102 *148:109 *407:25 6.44347e-06
103 *148:109 *453:104 0
104 *148:113 *217:25 6.6339e-06
105 *148:113 *278:150 1.62479e-05
106 *148:113 *339:24 5.68454e-06
107 *148:113 *339:32 1.49407e-08
108 *148:113 *412:97 4.14576e-06
109 *148:113 *417:130 1.72485e-05
110 *148:113 *417:151 4.43557e-06
111 *148:113 *417:153 3.11725e-06
112 *148:113 *448:112 1.70866e-06
113 *148:113 *448:127 1.64764e-06
114 *148:113 *452:22 1.852e-05
115 *148:113 *455:18 1.95317e-06
116 *148:117 *220:20 5.85387e-06
117 *148:125 *278:150 9.83265e-06
118 *148:125 *339:18 9.96257e-06
119 *148:125 *339:24 2.15344e-05
120 *148:129 *237:34 1.86792e-06
121 *148:129 *291:22 7.66146e-06
122 *148:129 *402:33 3.062e-06
123 *148:129 *417:153 4.96476e-05
124 *148:129 *446:62 1.89962e-06
125 *148:135 *702:C1 9.31704e-06
126 *148:135 *417:161 5.85387e-06
127 *148:137 *704:B2 6.31369e-06
128 *148:137 *149:22 4.76674e-06
129 *148:137 *291:26 1.43483e-05
130 *148:137 *401:119 1.14563e-06
131 *148:137 *402:41 0
132 *148:137 *417:153 4.83862e-06
133 *148:137 *429:35 7.89354e-06
134 *148:145 *641:A1 2.48278e-06
135 *148:145 *289:25 5.31312e-06
136 *148:145 *339:14 2.17894e-05
137 *148:145 *424:23 7.60499e-07
138 *148:145 *454:16 4.31093e-06
139 *148:158 *209:137 4.08984e-05
140 *148:158 *402:51 3.84126e-06
141 *148:158 *402:64 1.07283e-05
142 *148:158 *429:35 3.54302e-06
143 *148:158 *446:84 0
144 *148:158 *454:16 3.02352e-06
145 *148:164 *244:8 8.25178e-06
146 *148:182 *238:10 2.22736e-06
147 *148:182 *240:10 9.47659e-06
148 *148:182 *335:139 6.45149e-06
149 *148:213 *276:12 0
150 *148:213 *286:14 3.21654e-06
151 *148:213 *452:16 0
152 *148:213 *453:146 3.09138e-06
153 *148:236 *619:A2 3.77e-06
154 *148:236 *335:101 5.97925e-05
155 *648:A *148:171 2.66207e-05
156 *3:10 *148:12 9.47659e-06
157 *4:22 *148:12 9.62742e-06
158 *4:35 *148:12 3.68714e-06
159 *5:14 *148:109 1.56962e-05
160 *5:14 *148:213 2.39199e-05
161 *5:24 *148:109 1.79174e-05
162 *14:23 *148:164 0
163 *14:23 *148:171 5.85387e-06
164 *37:33 *148:113 7.42418e-06
165 *40:25 *148:109 2.02493e-06
166 *40:31 *148:109 6.96243e-06
167 *58:20 *148:68 3.96334e-06
168 *60:18 *148:37 3.02698e-06
169 *63:54 *148:29 9.70856e-07
170 *67:18 *148:37 4.50843e-06
171 *82:8 *148:62 3.37362e-05
172 *92:14 *148:129 3.51915e-06
173 *99:8 *148:62 9.65829e-06
174 *105:8 *148:45 4.26244e-06
175 *105:16 *148:56 7.01264e-06
176 *105:16 *148:60 2.75588e-06
177 *106:17 *148:96 2.48762e-06
178 *107:10 *148:62 0
179 *107:10 *148:85 1.5963e-06
180 *118:12 *148:45 5.41446e-06
181 *142:6 *615:B 5.41446e-06
182 *144:12 *148:12 0
183 *145:120 *148:62 0
184 *145:134 *148:62 5.63762e-07
185 *145:143 *148:62 3.09389e-05
186 *146:25 *148:109 4.25458e-06
187 *146:44 *148:109 2.63258e-05
188 *146:48 *148:213 0
*RES
1 *516:Y *148:6 18.8045 
2 *148:6 *148:10 18.8045 
3 *148:10 *148:12 36.8874 
4 *148:12 *633:B 40.1432 
5 *148:12 *148:27 29.3205 
6 *148:27 *148:29 49.7807 
7 *148:29 *148:37 45.0133 
8 *148:37 *148:39 17.2 
9 *148:39 *148:45 34.01 
10 *148:45 *661:B 17.2 
11 *148:39 *148:56 35.1322 
12 *148:56 *148:60 23.4767 
13 *148:60 *148:62 83.1608 
14 *148:62 *148:68 45.8712 
15 *148:68 *677:B 46.1503 
16 *148:56 *148:85 36.1834 
17 *148:85 *665:B 17.2 
18 *148:27 *148:96 35.2447 
19 *148:96 *518:A2 17.2 
20 *148:6 *148:107 42.1905 
21 *148:107 *148:109 34.8465 
22 *148:109 *148:111 17.2 
23 *148:111 *148:113 41.7681 
24 *148:113 *148:117 18.8045 
25 *148:117 *148:125 49.3504 
26 *148:125 *148:129 34.6581 
27 *148:129 *148:135 37.0741 
28 *148:135 *148:137 13.9853 
29 *148:137 *148:145 41.8107 
30 *148:145 *641:A2 34.4 
31 *148:137 *148:158 38.7311 
32 *148:158 *148:164 41.6273 
33 *148:164 *648:B 17.2 
34 *148:164 *148:171 10.1617 
35 *148:171 *643:B 17.2 
36 *148:171 *148:182 29.8977 
37 *148:182 *644:B 46.786 
38 *148:182 *649:B 35.4697 
39 *148:117 *626:A2 17.2 
40 *148:109 *148:213 43.3856 
41 *148:213 *615:B 48.9573 
42 *148:213 *148:230 42.4224 
43 *148:230 *148:236 40.1198 
44 *148:236 *619:B 17.2 
*END

*D_NET *149 0.0003672
*CONN
*I *704:A2 I *D OA222x2_ASAP7_75t_L
*I *517:Y O *D BUFx2_ASAP7_75t_L
*CAP
1 *704:A2 0
2 *517:Y 1.87547e-05
3 *149:22 7.94491e-06
4 *149:14 7.93227e-05
5 *149:12 7.13778e-05
6 *149:10 1.87547e-05
7 *149:10 *309:13 6.86929e-06
8 *149:14 *209:137 1.53347e-06
9 *149:14 *213:32 5.67668e-05
10 *149:14 *237:16 4.13307e-06
11 *149:14 *291:14 2.84252e-06
12 *149:14 *368:14 0
13 *149:14 *402:64 6.93469e-06
14 *149:22 *704:B2 2.03526e-06
15 *149:22 *401:119 8.27348e-07
16 *149:22 *402:33 4.03043e-07
17 *25:25 *149:14 8.39327e-05
18 *148:137 *149:22 4.76674e-06
*RES
1 *517:Y *149:10 46.0653 
2 *149:10 *149:12 17.2 
3 *149:12 *149:14 32.8986 
4 *149:14 *149:22 39.2046 
5 *149:22 *704:A2 17.2 
*END

*D_NET *150 3.72304e-05
*CONN
*I *520:A2 I *D OA21x2_ASAP7_75t_L
*I *518:Y O *D AOI21x1_ASAP7_75t_L
*CAP
1 *520:A2 5.74418e-06
2 *518:Y 4.55736e-06
3 *150:8 1.03015e-05
4 *520:A2 *151:14 1.73158e-06
5 *150:8 *335:43 6.33206e-07
6 *21:8 *150:8 1.12894e-06
7 *145:29 *150:8 1.31336e-05
*RES
1 *518:Y *150:8 38.9053 
2 *150:8 *520:A2 37.0741 
*END

*D_NET *151 0.000153601
*CONN
*I *520:B I *D OA21x2_ASAP7_75t_L
*I *519:Y O *D INVx1_ASAP7_75t_L
*CAP
1 *520:B 0
2 *519:Y 4.23313e-05
3 *151:14 6.72824e-06
4 *151:6 4.90595e-05
5 *151:6 *335:12 3.65663e-06
6 *520:A2 *151:14 1.73158e-06
7 *1:12 *151:14 4.10378e-06
8 *3:10 *151:6 7.30263e-06
9 *144:12 *151:6 2.68282e-05
10 *145:29 *151:14 1.18591e-05
*RES
1 *519:Y *151:6 38.0582 
2 *151:6 *151:14 41.0163 
3 *151:14 *520:B 17.2 
*END

*D_NET *152 6.27452e-05
*CONN
*I *525:A2 I *D OA21x2_ASAP7_75t_L
*I *524:Y O *D OA21x2_ASAP7_75t_L
*CAP
1 *525:A2 4.35285e-06
2 *524:Y 5.74029e-06
3 *152:8 1.00931e-05
4 *152:8 *434:29 2.28718e-05
5 *65:24 *525:A2 6.7842e-07
6 *65:30 *525:A2 2.03526e-06
7 *65:30 *152:8 1.61517e-05
8 *68:16 *152:8 8.2174e-07
*RES
1 *524:Y *152:8 42.2843 
2 *152:8 *525:A2 36.5393 
*END

*D_NET *153 0.00015464
*CONN
*I *526:B I *D XOR2x2_ASAP7_75t_L
*I *525:Y O *D OA21x2_ASAP7_75t_L
*CAP
1 *526:B 3.78811e-05
2 *525:Y 1.89138e-05
3 *153:10 5.67949e-05
4 *526:B *526:A 2.0895e-06
5 *526:B *347:8 2.11853e-06
6 *526:B *434:16 0
7 *153:10 *411:10 9.4492e-06
8 *524:A1 *526:B 1.32196e-05
9 *65:24 *153:10 2.80323e-06
10 *65:30 *153:10 1.13705e-05
*RES
1 *525:Y *153:10 44.7317 
2 *153:10 *526:B 49.9099 
*END

*D_NET *154 0.000161673
*CONN
*I *528:B I *D XOR2x2_ASAP7_75t_L
*I *527:Y O *D OA21x2_ASAP7_75t_L
*CAP
1 *528:B 0
2 *527:Y 5.78004e-05
3 *154:12 5.15687e-06
4 *154:6 6.29573e-05
5 *154:6 *527:A2 3.11897e-06
6 *154:6 *348:10 0
7 *154:6 *413:23 1.35684e-06
8 *154:6 *413:31 4.07052e-06
9 *154:12 *413:31 1.696e-06
10 *58:10 *154:12 1.41684e-05
11 *62:23 *154:6 9.60504e-06
12 *67:29 *154:12 1.74263e-06
*RES
1 *527:Y *154:6 38.0582 
2 *154:6 *154:12 39.4685 
3 *154:12 *528:B 17.2 
*END

*D_NET *155 7.57151e-05
*CONN
*I *532:A2 I *D OA21x2_ASAP7_75t_L
*I *529:Y O *D OA211x2_ASAP7_75t_L
*CAP
1 *532:A2 2.07914e-06
2 *529:Y 1.20724e-05
3 *155:8 1.41515e-05
4 *155:8 *441:98 1.33235e-05
5 *155:8 *465:14 2.95527e-05
6 *532:B *532:A2 1.36155e-06
7 *65:18 *155:8 3.17441e-06
*RES
1 *529:Y *155:8 47.3528 
2 *155:8 *532:A2 35.4697 
*END

*D_NET *156 7.33779e-05
*CONN
*I *531:B I *D AO21x1_ASAP7_75t_L
*I *530:Y O *D OR2x2_ASAP7_75t_L
*CAP
1 *531:B 5.65063e-07
2 *530:Y 1.95545e-05
3 *156:10 2.01196e-05
4 *156:10 *347:10 1.15587e-05
5 *156:10 *411:20 5.04414e-06
6 *531:A1 *531:B 1.52651e-06
7 *71:44 *531:B 3.68287e-06
8 *71:44 *156:10 1.13265e-05
*RES
1 *530:Y *156:10 46.3645 
2 *156:10 *531:B 35.4697 
*END

*D_NET *157 0.000282496
*CONN
*I *532:A1 I *D OA21x2_ASAP7_75t_L
*I *531:Y O *D AO21x1_ASAP7_75t_L
*CAP
1 *532:A1 1.51602e-05
2 *531:Y 8.55561e-06
3 *157:10 4.40298e-05
4 *157:8 3.74252e-05
5 *157:10 *411:10 5.85806e-06
6 *157:10 *434:16 8.33296e-06
7 *524:A1 *157:10 2.98326e-05
8 *529:A1 *157:10 1.98844e-05
9 *926:A *157:8 5.62196e-06
10 *983:A *157:10 5.37866e-07
11 *65:18 *157:10 0
12 *65:59 *532:A1 1.01907e-05
13 *65:59 *157:10 0
14 *66:33 *157:10 1.56472e-05
15 *68:16 *157:10 6.15298e-05
16 *71:44 *157:8 2.88806e-06
17 *108:10 *157:10 3.05118e-08
18 *111:21 *157:10 3.79923e-06
19 *113:12 *157:10 1.31716e-05
*RES
1 *531:Y *157:8 38.1438 
2 *157:8 *157:10 37.169 
3 *157:10 *532:A1 41.8876 
*END

*D_NET *158 0.00116694
*CONN
*I *579:A1 I *D OA211x2_ASAP7_75t_L
*I *554:A2 I *D OAI21x1_ASAP7_75t_L
*I *565:A1 I *D OAI21x1_ASAP7_75t_L
*I *538:A1 I *D OA21x2_ASAP7_75t_L
*I *982:A I *D BUFx3_ASAP7_75t_L
*I *532:Y O *D OA21x2_ASAP7_75t_L
*CAP
1 *579:A1 1.00061e-06
2 *554:A2 1.43371e-05
3 *565:A1 8.30617e-06
4 *538:A1 0
5 *982:A 5.95044e-06
6 *532:Y 4.47746e-06
7 *158:56 3.94703e-05
8 *158:48 2.42498e-05
9 *158:41 1.58316e-05
10 *158:33 5.71053e-05
11 *158:29 6.20201e-05
12 *158:27 3.18409e-05
13 *158:21 5.6544e-05
14 *158:10 6.40138e-05
15 *158:8 2.35135e-05
16 *554:A2 *175:27 5.52652e-06
17 *554:A2 *176:6 3.73144e-06
18 *554:A2 *181:12 0
19 *554:A2 *361:10 0
20 *565:A1 *175:27 3.65131e-06
21 *565:A1 *196:22 3.00838e-05
22 *579:A1 *361:10 3.48708e-06
23 *982:A *464:8 1.07377e-06
24 *158:10 *231:20 4.45583e-05
25 *158:10 *231:30 4.77005e-06
26 *158:10 *401:29 0
27 *158:10 *405:10 6.40699e-05
28 *158:10 *449:18 1.49407e-08
29 *158:21 *159:10 1.81413e-05
30 *158:21 *159:44 2.473e-05
31 *158:21 *231:18 9.12467e-06
32 *158:21 *231:20 3.29574e-05
33 *158:21 *272:8 8.32045e-06
34 *158:21 *405:10 4.49853e-05
35 *158:21 *405:29 0.000135083
36 *158:21 *418:72 2.09025e-06
37 *158:27 *398:16 1.03977e-05
38 *158:27 *430:67 2.17894e-05
39 *158:29 *173:12 6.02329e-05
40 *158:29 *361:10 6.18762e-05
41 *158:33 *161:14 2.94684e-05
42 *158:33 *161:35 1.43513e-05
43 *158:33 *171:31 5.4483e-05
44 *158:33 *351:18 0
45 *158:41 *538:B 2.48464e-06
46 *158:41 *539:A 2.98961e-07
47 *158:48 *173:12 8.72051e-06
48 *158:48 *361:10 2.2294e-05
49 *158:48 *420:46 2.84286e-06
50 *158:56 *175:14 1.07377e-06
51 *158:56 *175:27 0
52 *158:56 *196:22 2.20493e-06
53 *158:56 *361:10 0
54 *48:8 *158:21 8.06799e-07
55 *113:31 *982:A 4.92332e-06
56 *116:40 *158:21 2.36328e-05
*RES
1 *532:Y *158:8 36.0045 
2 *158:8 *158:10 22.5266 
3 *158:10 *982:A 38.1438 
4 *158:10 *158:21 62.6053 
5 *158:21 *158:27 42.6246 
6 *158:27 *158:29 21.588 
7 *158:29 *158:33 37.1123 
8 *158:33 *158:41 42.1975 
9 *158:41 *538:A1 17.2 
10 *158:29 *158:48 8.16591 
11 *158:48 *158:56 43.1556 
12 *158:56 *565:A1 43.492 
13 *158:56 *554:A2 44.9585 
14 *158:48 *579:A1 36.0895 
*END

*D_NET *159 0.00103194
*CONN
*I *583:A1 I *D OA211x2_ASAP7_75t_L
*I *558:A1 I *D OA21x2_ASAP7_75t_L
*I *541:A2 I *D OA21x2_ASAP7_75t_L
*I *535:B I *D XNOR2x2_ASAP7_75t_L
*I *534:Y O *D OA21x2_ASAP7_75t_L
*CAP
1 *583:A1 5.10704e-06
2 *558:A1 0
3 *541:A2 0
4 *535:B 3.15963e-06
5 *534:Y 2.42641e-05
6 *159:68 1.67301e-05
7 *159:62 2.18371e-05
8 *159:60 6.44037e-05
9 *159:56 0.000100294
10 *159:50 4.13589e-05
11 *159:44 3.71593e-05
12 *159:33 3.24247e-05
13 *159:18 4.54048e-05
14 *159:16 3.53995e-05
15 *159:10 8.999e-05
16 *159:8 5.69839e-05
17 *583:A1 *177:23 1.48867e-05
18 *159:8 *716:A2 5.96787e-07
19 *159:10 *231:18 1.04777e-05
20 *159:10 *231:20 4.77651e-05
21 *159:10 *270:10 5.85165e-05
22 *159:10 *272:8 7.83791e-06
23 *159:10 *285:42 1.79289e-08
24 *159:10 *401:29 2.98814e-08
25 *159:10 *440:16 0
26 *159:10 *444:67 3.51333e-06
27 *159:10 *446:14 0
28 *159:16 *439:6 7.89622e-06
29 *159:16 *451:129 0
30 *159:18 *266:18 0
31 *159:18 *299:8 3.32579e-06
32 *159:18 *299:23 1.63973e-05
33 *159:33 *163:14 2.88806e-06
34 *159:33 *164:8 5.0551e-07
35 *159:33 *299:23 2.27181e-05
36 *159:33 *375:8 8.06799e-07
37 *159:44 *270:10 8.46363e-06
38 *159:44 *353:18 2.98814e-06
39 *159:50 *361:10 1.96231e-05
40 *159:56 *398:8 1.0541e-06
41 *159:56 *442:19 3.73518e-07
42 *159:68 *177:23 3.08683e-05
43 *159:68 *178:10 1.67815e-06
44 *159:68 *178:25 6.62106e-06
45 *482:A *159:33 8.2174e-07
46 *487:B *159:60 1.56089e-05
47 *487:C *159:56 6.35558e-06
48 *487:C *159:60 1.11189e-05
49 *4:151 *159:8 1.35684e-06
50 *39:28 *583:A1 1.35684e-06
51 *41:29 *583:A1 1.63547e-05
52 *41:29 *159:68 8.45637e-06
53 *42:28 *159:68 0
54 *46:21 *159:18 2.25787e-06
55 *46:21 *159:33 1.09842e-06
56 *47:14 *159:50 1.2903e-05
57 *47:14 *159:56 2.03526e-06
58 *48:8 *159:44 3.76935e-06
59 *54:23 *159:33 5.0551e-07
60 *87:8 *159:44 2.22736e-06
61 *113:37 *159:10 0
62 *116:12 *159:18 7.84037e-07
63 *116:12 *159:33 1.45123e-05
64 *116:27 *159:33 1.12894e-06
65 *117:13 *159:44 3.87434e-05
66 *117:19 *159:56 6.41585e-07
67 *120:22 *159:56 6.33206e-07
68 *145:106 *535:B 2.03526e-06
69 *158:21 *159:10 1.81413e-05
70 *158:21 *159:44 2.473e-05
*RES
1 *534:Y *159:8 42.4224 
2 *159:8 *159:10 37.169 
3 *159:10 *159:16 45.6313 
4 *159:16 *159:18 10.137 
5 *159:18 *535:B 36.0045 
6 *159:18 *159:33 42.6805 
7 *159:33 *541:A2 17.2 
8 *159:10 *159:44 48.1421 
9 *159:44 *159:50 41.158 
10 *159:50 *159:56 34.6262 
11 *159:56 *159:60 46.6154 
12 *159:60 *159:62 17.2 
13 *159:62 *159:68 35.5294 
14 *159:68 *558:A1 17.2 
15 *159:62 *583:A1 41.1013 
*END

*D_NET *160 0.00022467
*CONN
*I *561:A I *D OR2x2_ASAP7_75t_L
*I *538:A2 I *D OA21x2_ASAP7_75t_L
*I *536:Y O *D OR2x2_ASAP7_75t_L
*CAP
1 *561:A 2.95892e-05
2 *538:A2 0
3 *536:Y 0
4 *160:23 3.80427e-05
5 *160:10 3.18847e-05
6 *160:4 4.03382e-05
7 *561:A *180:33 5.41446e-06
8 *160:10 *536:A 1.23408e-05
9 *160:10 *167:14 1.44438e-05
10 *160:10 *414:24 3.80337e-05
11 *160:10 *414:43 1.45827e-05
12 *160:23 *375:8 0
*RES
1 *536:Y *160:4 17.2 
2 *160:4 *160:10 43.8069 
3 *160:10 *538:A2 34.4 
4 *160:4 *160:23 40.0317 
5 *160:23 *561:A 35.9189 
*END

*D_NET *161 0.000422392
*CONN
*I *538:B I *D OA21x2_ASAP7_75t_L
*I *564:A1 I *D OA211x2_ASAP7_75t_L
*I *552:C I *D OR3x1_ASAP7_75t_L
*I *537:Y O *D OA21x2_ASAP7_75t_L
*CAP
1 *538:B 4.88367e-06
2 *564:A1 4.29025e-06
3 *552:C 2.63832e-06
4 *537:Y 8.93496e-06
5 *161:35 3.12795e-05
6 *161:18 1.79422e-05
7 *161:14 7.29393e-05
8 *161:10 4.44648e-05
9 *538:B *539:A 2.50197e-06
10 *538:B *409:42 0
11 *538:B *414:24 1.65278e-05
12 *564:A1 *442:42 1.36155e-06
13 *161:10 *167:14 8.89257e-06
14 *161:10 *414:16 6.10236e-08
15 *161:10 *414:24 3.49456e-06
16 *161:14 *180:18 1.50733e-06
17 *161:14 *352:12 1.08274e-05
18 *161:14 *410:14 0
19 *161:14 *430:46 7.50479e-06
20 *161:18 *180:33 6.05548e-05
21 *161:18 *416:61 4.21453e-05
22 *161:18 *420:33 1.10561e-06
23 *161:35 *563:A 3.47607e-06
24 *161:35 *171:31 5.13509e-06
25 *161:35 *180:18 1.46528e-05
26 *161:35 *422:72 6.33206e-07
27 *161:35 *442:50 8.33296e-06
28 *158:33 *161:14 2.94684e-05
29 *158:33 *161:35 1.43513e-05
30 *158:41 *538:B 2.48464e-06
*RES
1 *537:Y *161:10 40.547 
2 *161:10 *161:14 31.2685 
3 *161:14 *161:18 37.9433 
4 *161:18 *552:C 35.4697 
5 *161:14 *161:35 48.6948 
6 *161:35 *564:A1 19.3393 
7 *161:10 *538:B 40.501 
*END

*D_NET *162 4.50236e-05
*CONN
*I *539:B I *D XNOR2x2_ASAP7_75t_L
*I *538:Y O *D OA21x2_ASAP7_75t_L
*CAP
1 *539:B 0
2 *538:Y 8.4141e-06
3 *162:10 8.4141e-06
4 *162:10 *549:B 1.47625e-05
5 *162:10 *416:12 1.34329e-05
*RES
1 *538:Y *162:10 41.5795 
2 *162:10 *539:B 34.4 
*END

*D_NET *163 0.000241834
*CONN
*I *541:B I *D OA21x2_ASAP7_75t_L
*I *540:Y O *D AND3x1_ASAP7_75t_L
*CAP
1 *541:B 0
2 *540:Y 2.7784e-05
3 *163:14 3.80526e-05
4 *163:8 6.58367e-05
5 *163:8 *537:B 8.1884e-06
6 *163:8 *428:14 9.24068e-06
7 *163:14 *541:A1 3.52795e-05
8 *163:14 *410:32 0
9 *163:14 *414:16 0
10 *163:14 *428:20 0
11 *163:14 *430:25 1.44105e-06
12 *163:14 *436:21 2.43468e-05
13 *163:14 *436:36 1.56516e-05
14 *51:21 *163:14 0
15 *54:23 *163:14 7.90093e-06
16 *124:10 *163:14 5.22376e-06
17 *159:33 *163:14 2.88806e-06
*RES
1 *540:Y *163:8 45.6313 
2 *163:8 *163:14 49.7466 
3 *163:14 *541:B 17.2 
*END

*D_NET *164 9.63855e-05
*CONN
*I *548:B I *D OR3x1_ASAP7_75t_L
*I *541:Y O *D OA21x2_ASAP7_75t_L
*CAP
1 *548:B 1.23626e-05
2 *541:Y 8.87667e-06
3 *164:8 2.12393e-05
4 *548:B *165:18 2.69121e-05
5 *548:B *168:10 2.84533e-06
6 *548:B *170:14 8.49543e-06
7 *548:B *375:8 1.3989e-05
8 *548:B *430:61 1.15945e-06
9 *159:33 *164:8 5.0551e-07
*RES
1 *541:Y *164:8 38.1438 
2 *164:8 *548:B 49.6055 
*END

*D_NET *165 0.000145295
*CONN
*I *548:A I *D OR3x1_ASAP7_75t_L
*I *542:Y O *D AND4x1_ASAP7_75t_L
*CAP
1 *548:A 2.58211e-06
2 *542:Y 1.64931e-05
3 *165:18 1.82169e-05
4 *165:10 3.21279e-05
5 *165:10 *542:D 1.35684e-06
6 *165:10 *375:8 1.2926e-05
7 *165:10 *418:72 1.27953e-05
8 *165:18 *168:10 2.00677e-05
9 *165:18 *169:6 5.0551e-07
10 *165:18 *409:25 0
11 *165:18 *430:61 6.33206e-07
12 *487:C *165:10 6.7842e-07
13 *548:B *165:18 2.69121e-05
*RES
1 *542:Y *165:10 43.7188 
2 *165:10 *165:18 48.2241 
3 *165:18 *548:A 35.4697 
*END

*D_NET *166 6.21112e-05
*CONN
*I *546:B I *D OA211x2_ASAP7_75t_L
*I *543:Y O *D OR3x1_ASAP7_75t_L
*CAP
1 *546:B 7.29431e-06
2 *543:Y 7.29431e-06
3 *546:B *410:22 5.41446e-06
4 *546:B *410:24 2.07929e-05
5 *546:B *416:18 2.07929e-05
6 *546:B *430:61 5.22376e-07
*RES
1 *543:Y *546:B 41.8876 
*END

*D_NET *167 0.000174532
*CONN
*I *545:B I *D OR3x1_ASAP7_75t_L
*I *544:Y O *D INVx1_ASAP7_75t_L
*CAP
1 *545:B 0
2 *544:Y 8.8726e-06
3 *167:14 3.20431e-05
4 *167:8 4.09157e-05
5 *167:14 *351:18 0
6 *167:14 *414:22 1.62312e-05
7 *167:14 *414:24 3.3563e-06
8 *167:14 *418:26 5.22376e-07
9 *167:14 *430:10 0
10 *167:14 *436:36 4.92541e-05
11 *160:10 *167:14 1.44438e-05
12 *161:10 *167:14 8.89257e-06
*RES
1 *544:Y *167:8 38.1438 
2 *167:8 *167:14 47.6923 
3 *167:14 *545:B 17.2 
*END

*D_NET *168 6.98687e-05
*CONN
*I *546:C I *D OA211x2_ASAP7_75t_L
*I *545:Y O *D OR3x1_ASAP7_75t_L
*CAP
1 *546:C 2.98686e-06
2 *545:Y 1.9333e-05
3 *168:10 2.23199e-05
4 *546:C *430:61 6.7842e-07
5 *168:10 *410:22 3.05118e-08
6 *168:10 *416:18 5.52807e-07
7 *168:10 *418:26 1.0541e-06
8 *548:B *168:10 2.84533e-06
9 *165:18 *168:10 2.00677e-05
*RES
1 *545:Y *168:10 48.2808 
2 *168:10 *546:C 36.0045 
*END

*D_NET *169 0.000152224
*CONN
*I *547:A I *D INVx1_ASAP7_75t_L
*I *546:Y O *D OA211x2_ASAP7_75t_L
*CAP
1 *547:A 0
2 *546:Y 3.57486e-05
3 *169:14 1.08178e-05
4 *169:6 4.65663e-05
5 *169:6 *418:64 5.85387e-06
6 *169:6 *418:91 3.48408e-05
7 *169:14 *353:10 3.79923e-06
8 *169:14 *361:10 9.67723e-06
9 *489:A *169:6 4.41457e-06
10 *165:18 *169:6 5.0551e-07
*RES
1 *546:Y *169:6 33.7796 
2 *169:6 *169:14 40.4531 
3 *169:14 *547:A 17.2 
*END

*D_NET *170 0.000164689
*CONN
*I *548:C I *D OR3x1_ASAP7_75t_L
*I *547:Y O *D INVx1_ASAP7_75t_L
*CAP
1 *548:C 0
2 *547:Y 5.71404e-05
3 *170:14 6.01021e-06
4 *170:6 6.31506e-05
5 *170:6 *560:A 9.41801e-06
6 *170:6 *180:8 5.85387e-06
7 *170:14 *375:8 1.46204e-05
8 *170:14 *418:26 0
9 *548:B *170:14 8.49543e-06
*RES
1 *547:Y *170:6 39.1278 
2 *170:6 *170:14 40.5381 
3 *170:14 *548:C 17.2 
*END

*D_NET *171 0.000370365
*CONN
*I *556:B I *D OR2x4_ASAP7_75t_L
*I *550:B I *D OR2x2_ASAP7_75t_L
*I *549:Y O *D OR3x1_ASAP7_75t_L
*CAP
1 *556:B 5.09114e-06
2 *550:B 9.41389e-06
3 *549:Y 0
4 *171:37 1.94865e-05
5 *171:31 5.90135e-05
6 *171:25 5.49602e-05
7 *171:8 2.763e-05
8 *171:4 2.85581e-05
9 *550:B *550:A 5.34278e-06
10 *556:B *565:B 8.51183e-06
11 *556:B *420:57 8.66267e-06
12 *171:8 *536:A 0
13 *171:8 *351:10 1.49407e-08
14 *171:8 *375:8 2.98532e-06
15 *171:8 *414:43 0
16 *171:8 *416:12 0
17 *171:8 *418:12 8.33296e-06
18 *171:8 *418:20 0
19 *171:8 *418:46 3.69423e-05
20 *171:25 *375:8 1.79408e-06
21 *171:25 *418:20 2.03526e-06
22 *171:31 *563:C 1.45047e-06
23 *171:37 *420:6 9.75735e-06
24 *171:37 *420:57 5.68657e-06
25 *171:37 *442:34 3.56648e-06
26 *48:34 *171:25 1.12561e-05
27 *115:31 *171:25 2.54626e-07
28 *120:33 *171:31 0
29 *158:33 *171:31 5.4483e-05
30 *161:35 *171:31 5.13509e-06
*RES
1 *549:Y *171:4 17.2 
2 *171:4 *171:8 34.6581 
3 *171:8 *550:B 41.3527 
4 *171:4 *171:25 40.8091 
5 *171:25 *171:31 34.812 
6 *171:31 *171:37 45.6313 
7 *171:37 *556:B 41.158 
*END

*D_NET *172 0.000161547
*CONN
*I *554:A1 I *D OAI21x1_ASAP7_75t_L
*I *579:A2 I *D OA211x2_ASAP7_75t_L
*I *550:Y O *D OR2x2_ASAP7_75t_L
*CAP
1 *554:A1 5.22086e-06
2 *579:A2 0
3 *550:Y 2.51612e-05
4 *172:20 4.55891e-06
5 *172:14 2.12458e-05
6 *172:10 3.66272e-05
7 *554:A1 *176:6 5.01287e-06
8 *172:10 *174:8 2.70479e-05
9 *172:10 *180:33 2.19685e-06
10 *172:10 *420:33 4.74248e-06
11 *172:14 *174:8 6.7842e-07
12 *172:14 *176:6 6.7842e-07
13 *172:20 *353:10 2.00151e-05
14 *172:20 *361:10 8.361e-06
*RES
1 *550:Y *172:10 48.5038 
2 *172:10 *172:14 23.0831 
3 *172:14 *172:20 41.158 
4 *172:20 *579:A2 17.2 
5 *172:14 *554:A1 20.9438 
*END

*D_NET *173 0.00035226
*CONN
*I *553:A I *D AND2x2_ASAP7_75t_L
*I *563:C I *D OR3x1_ASAP7_75t_L
*I *551:Y O *D OA21x2_ASAP7_75t_L
*CAP
1 *553:A 0
2 *563:C 6.71844e-06
3 *551:Y 0
4 *173:39 2.19474e-05
5 *173:22 3.31723e-05
6 *173:14 4.84013e-05
7 *173:12 2.97554e-05
8 *173:6 2.97554e-05
9 *563:C *563:A 1.19526e-07
10 *563:C *183:8 6.33206e-07
11 *563:C *420:6 1.44167e-06
12 *563:C *442:42 2.83874e-07
13 *173:12 *563:A 9.15354e-08
14 *173:12 *398:8 0
15 *173:12 *420:16 4.74894e-06
16 *173:12 *420:46 8.24045e-06
17 *173:12 *422:72 4.85735e-06
18 *173:12 *442:58 5.97629e-08
19 *173:22 *353:10 4.25928e-06
20 *173:22 *361:10 1.11221e-05
21 *173:22 *420:6 0
22 *173:22 *420:16 0
23 *173:22 *420:46 1.60115e-05
24 *173:39 *175:6 4.23705e-06
25 *173:39 *353:10 4.88493e-06
26 *173:39 *361:10 2.32945e-05
27 *173:39 *416:44 1.73158e-06
28 *173:39 *416:61 1.1488e-05
29 *173:39 *420:16 1.46006e-05
30 *120:33 *563:C 0
31 *158:29 *173:12 6.02329e-05
32 *158:48 *173:12 8.72051e-06
33 *171:31 *563:C 1.45047e-06
*RES
1 *551:Y *173:6 34.4 
2 *173:6 *173:12 44.5967 
3 *173:12 *173:14 17.2 
4 *173:14 *173:22 49.5735 
5 *173:22 *563:C 39.4118 
6 *173:14 *173:39 36.3156 
7 *173:39 *553:A 17.2 
*END

*D_NET *174 8.87844e-05
*CONN
*I *553:B I *D AND2x2_ASAP7_75t_L
*I *552:Y O *D OR3x1_ASAP7_75t_L
*CAP
1 *553:B 6.54463e-06
2 *552:Y 9.8149e-06
3 *174:8 1.63595e-05
4 *553:B *180:33 2.68933e-07
5 *553:B *375:8 2.36401e-05
6 *553:B *416:50 3.3563e-06
7 *174:8 *418:46 1.07377e-06
8 *172:10 *174:8 2.70479e-05
9 *172:14 *174:8 6.7842e-07
*RES
1 *552:Y *174:8 42.4224 
2 *174:8 *553:B 42.2843 
*END

*D_NET *175 0.000120309
*CONN
*I *554:B I *D OAI21x1_ASAP7_75t_L
*I *579:B I *D OA211x2_ASAP7_75t_L
*I *553:Y O *D AND2x2_ASAP7_75t_L
*CAP
1 *554:B 0
2 *579:B 0
3 *553:Y 2.2906e-05
4 *175:27 1.94759e-05
5 *175:14 5.64331e-06
6 *175:6 4.80252e-05
7 *175:14 *361:10 8.45637e-06
8 *175:27 *181:12 2.68933e-07
9 *175:27 *181:20 0
10 *175:27 *196:22 1.04475e-06
11 *554:A2 *175:27 5.52652e-06
12 *565:A1 *175:27 3.65131e-06
13 *158:56 *175:14 1.07377e-06
14 *158:56 *175:27 0
15 *173:39 *175:6 4.23705e-06
*RES
1 *553:Y *175:6 26.292 
2 *175:6 *175:14 39.3551 
3 *175:14 *579:B 17.2 
4 *175:6 *175:27 45.8581 
5 *175:27 *554:B 17.2 
*END

*D_NET *176 7.19558e-05
*CONN
*I *580:A1 I *D AO211x2_ASAP7_75t_L
*I *555:B I *D XNOR2x2_ASAP7_75t_L
*I *554:Y O *D OAI21x1_ASAP7_75t_L
*CAP
1 *580:A1 6.526e-06
2 *555:B 0
3 *554:Y 1.60003e-05
4 *176:12 7.91856e-06
5 *176:6 3.04448e-05
6 *176:12 *181:12 1.64348e-06
7 *176:12 *361:10 0
8 *554:A1 *176:6 5.01287e-06
9 *554:A2 *176:6 3.73144e-06
10 *172:14 *176:6 6.7842e-07
*RES
1 *554:Y *176:6 27.3617 
2 *176:6 *176:12 40.0317 
3 *176:12 *555:B 17.2 
4 *176:6 *580:A1 20.9438 
*END

*D_NET *177 0.000131413
*CONN
*I *558:A2 I *D OA21x2_ASAP7_75t_L
*I *583:A2 I *D OA211x2_ASAP7_75t_L
*I *556:Y O *D OR2x4_ASAP7_75t_L
*CAP
1 *558:A2 0
2 *583:A2 0
3 *556:Y 6.82159e-06
4 *177:23 1.89547e-05
5 *177:12 2.50784e-05
6 *177:8 1.29453e-05
7 *177:8 *182:10 0
8 *177:23 *198:12 9.00919e-07
9 *480:A *177:12 7.63254e-06
10 *480:A *177:23 6.7842e-07
11 *583:A1 *177:23 1.48867e-05
12 *39:28 *177:23 8.29033e-06
13 *41:29 *177:23 5.60551e-07
14 *42:28 *177:23 3.79494e-06
15 *123:22 *177:8 0
16 *159:68 *177:23 3.08683e-05
*RES
1 *556:Y *177:8 38.9053 
2 *177:8 *177:12 22.5483 
3 *177:12 *583:A2 17.2 
4 *177:12 *177:23 36.7974 
5 *177:23 *558:A2 34.4 
*END

*D_NET *178 0.000192101
*CONN
*I *583:C I *D OA211x2_ASAP7_75t_L
*I *558:B I *D OA21x2_ASAP7_75t_L
*I *557:Y O *D OA21x2_ASAP7_75t_L
*CAP
1 *583:C 0
2 *558:B 4.84254e-06
3 *557:Y 2.46252e-05
4 *178:25 1.15581e-05
5 *178:10 2.27329e-05
6 *178:8 3.09574e-05
7 *178:10 *433:31 2.01457e-05
8 *178:25 *198:12 1.6528e-05
9 *178:25 *433:31 2.04143e-05
10 *178:25 *433:44 2.79488e-05
11 *39:28 *178:25 1.35684e-06
12 *41:29 *178:25 2.69203e-06
13 *42:28 *178:10 0
14 *159:68 *178:10 1.67815e-06
15 *159:68 *178:25 6.62106e-06
*RES
1 *557:Y *178:8 44.5617 
2 *178:8 *178:10 6.75799 
3 *178:10 *558:B 37.0741 
4 *178:10 *178:25 34.6015 
5 *178:25 *583:C 17.2 
*END

*D_NET *179 3.12353e-05
*CONN
*I *559:B I *D XOR2x2_ASAP7_75t_L
*I *558:Y O *D OA21x2_ASAP7_75t_L
*CAP
1 *559:B 0
2 *558:Y 2.18474e-06
3 *179:8 2.18474e-06
4 *179:8 *433:31 1.34329e-05
5 *39:20 *179:8 1.34329e-05
*RES
1 *558:Y *179:8 38.9053 
2 *179:8 *559:B 34.4 
*END

*D_NET *180 0.000287651
*CONN
*I *561:B I *D OR2x2_ASAP7_75t_L
*I *564:A2 I *D OA211x2_ASAP7_75t_L
*I *560:Y O *D OR4x2_ASAP7_75t_L
*CAP
1 *561:B 0
2 *564:A2 2.45359e-06
3 *560:Y 2.47294e-06
4 *180:33 2.96734e-05
5 *180:18 2.95319e-05
6 *180:8 5.92247e-05
7 *180:18 *410:14 3.02352e-06
8 *180:18 *416:61 3.43908e-06
9 *180:18 *422:72 3.71576e-06
10 *180:18 *442:50 6.41585e-07
11 *180:33 *375:8 0
12 *180:33 *416:50 2.69965e-05
13 *180:33 *416:61 1.908e-06
14 *180:33 *420:33 0
15 *553:B *180:33 2.68933e-07
16 *561:A *180:33 5.41446e-06
17 *48:34 *180:18 3.55626e-07
18 *115:12 *180:18 0
19 *115:31 *180:18 9.90932e-06
20 *115:31 *180:33 2.38563e-05
21 *161:14 *180:18 1.50733e-06
22 *161:18 *180:33 6.05548e-05
23 *161:35 *180:18 1.46528e-05
24 *170:6 *180:8 5.85387e-06
25 *172:10 *180:33 2.19685e-06
*RES
1 *560:Y *180:8 36.0045 
2 *180:8 *180:18 49.7272 
3 *180:18 *564:A2 35.4697 
4 *180:8 *180:33 49.7786 
5 *180:33 *561:B 17.2 
*END

*D_NET *181 0.000190767
*CONN
*I *565:A2 I *D OAI21x1_ASAP7_75t_L
*I *561:Y O *D OR2x2_ASAP7_75t_L
*CAP
1 *565:A2 0
2 *561:Y 2.96999e-05
3 *181:20 1.82146e-05
4 *181:12 3.5946e-05
5 *181:6 4.74313e-05
6 *181:6 *353:6 5.12901e-05
7 *181:6 *420:33 5.0551e-07
8 *181:12 *426:77 0
9 *181:20 *580:A2 2.0895e-06
10 *554:A2 *181:12 0
11 *571:B *181:12 0
12 *120:33 *181:12 0
13 *120:33 *181:20 3.6777e-06
14 *175:27 *181:12 2.68933e-07
15 *175:27 *181:20 0
16 *176:12 *181:12 1.64348e-06
*RES
1 *561:Y *181:6 33.7796 
2 *181:6 *181:12 47.916 
3 *181:12 *181:20 45.9714 
4 *181:20 *565:A2 17.2 
*END

*D_NET *182 0.000195851
*CONN
*I *573:A I *D NAND2x1_ASAP7_75t_L
*I *564:B I *D OA211x2_ASAP7_75t_L
*I *562:Y O *D OA21x2_ASAP7_75t_L
*CAP
1 *573:A 1.39878e-05
2 *564:B 1.09735e-05
3 *562:Y 1.52919e-05
4 *182:10 4.02532e-05
5 *564:B *564:C 1.52651e-06
6 *564:B *438:6 1.35684e-06
7 *564:B *442:23 3.39742e-05
8 *564:B *442:42 1.26378e-06
9 *573:A *420:57 1.67966e-05
10 *562:B *182:10 5.25794e-06
11 *123:16 *564:B 4.52303e-05
12 *123:22 *182:10 9.93857e-06
13 *177:8 *182:10 0
*RES
1 *562:Y *182:10 43.7188 
2 *182:10 *564:B 49.9099 
3 *182:10 *573:A 44.4803 
*END

*D_NET *183 2.76377e-05
*CONN
*I *564:C I *D OA211x2_ASAP7_75t_L
*I *563:Y O *D OR3x1_ASAP7_75t_L
*CAP
1 *564:C 1.00836e-06
2 *563:Y 9.07065e-06
3 *183:8 1.0079e-05
4 *564:C *442:42 1.36155e-06
5 *183:8 *563:A 0
6 *183:8 *442:42 3.95845e-06
7 *563:C *183:8 6.33206e-07
8 *564:B *564:C 1.52651e-06
*RES
1 *563:Y *183:8 40.0317 
2 *183:8 *564:C 35.4697 
*END

*D_NET *184 9.59065e-05
*CONN
*I *565:B I *D OAI21x1_ASAP7_75t_L
*I *564:Y O *D OA211x2_ASAP7_75t_L
*CAP
1 *565:B 1.20057e-05
2 *564:Y 7.7248e-06
3 *184:8 1.97305e-05
4 *565:B *197:12 5.52807e-07
5 *565:B *420:57 5.52807e-07
6 *184:8 *438:6 5.17782e-06
7 *556:B *565:B 8.51183e-06
8 *120:33 *565:B 4.16503e-05
*RES
1 *564:Y *184:8 38.1438 
2 *184:8 *565:B 48.4791 
*END

*D_NET *185 0.000412581
*CONN
*I *590:A1 I *D AO21x1_ASAP7_75t_L
*I *566:B I *D XNOR2x2_ASAP7_75t_L
*I *565:Y O *D OAI21x1_ASAP7_75t_L
*CAP
1 *590:A1 0
2 *566:B 0
3 *565:Y 1.65069e-05
4 *185:35 3.65203e-06
5 *185:29 8.13075e-05
6 *185:27 8.72814e-05
7 *185:14 4.8071e-05
8 *185:8 5.49519e-05
9 *185:8 *197:6 0
10 *185:14 *573:B 1.22121e-05
11 *185:14 *191:8 0
12 *185:14 *196:14 9.70123e-06
13 *185:14 *197:12 3.00603e-06
14 *185:14 *420:57 3.29527e-06
15 *185:27 *190:16 7.18147e-06
16 *185:27 *340:35 4.74248e-06
17 *185:27 *423:10 0
18 *185:29 *190:16 6.03768e-05
19 *185:29 *435:12 7.63254e-07
20 *185:35 *202:10 5.07403e-06
21 *185:35 *342:25 1.34329e-05
22 *942:A *185:29 1.02506e-06
*RES
1 *565:Y *185:8 41.3527 
2 *185:8 *185:14 46.7041 
3 *185:14 *566:B 17.2 
4 *185:14 *185:27 42.6208 
5 *185:27 *185:29 33.694 
6 *185:29 *185:35 38.9053 
7 *185:35 *590:A1 17.2 
*END

*D_NET *186 0.000848868
*CONN
*I *631:C I *D NOR3x1_ASAP7_75t_L
*I *568:B I *D XNOR2x2_ASAP7_75t_L
*I *629:B I *D AND2x2_ASAP7_75t_L
*I *567:Y O *D AO21x2_ASAP7_75t_L
*CAP
1 *631:C 2.42653e-06
2 *568:B 5.1516e-06
3 *629:B 0
4 *567:Y 1.34924e-05
5 *186:42 1.54362e-05
6 *186:34 5.90852e-05
7 *186:28 8.1639e-05
8 *186:22 5.29804e-05
9 *186:18 3.07748e-05
10 *186:10 2.16986e-05
11 *186:10 *208:51 5.53562e-06
12 *186:22 *208:51 0
13 *186:22 *211:31 1.72934e-06
14 *186:22 *400:27 2.3189e-06
15 *186:28 *612:A 2.03526e-06
16 *186:28 *211:35 5.68148e-06
17 *186:28 *275:137 6.41909e-05
18 *186:28 *425:70 2.03526e-06
19 *186:28 *453:36 7.80074e-06
20 *186:34 *209:102 7.66024e-07
21 *186:34 *209:106 8.09626e-05
22 *186:34 *274:12 0.000127104
23 *186:34 *341:12 1.84739e-06
24 *186:34 *417:14 7.00289e-06
25 *186:34 *453:36 1.11551e-05
26 *186:42 *620:C 2.09547e-05
27 *498:C *631:C 5.62196e-06
28 *498:C *186:18 3.3547e-05
29 *612:B *186:28 9.425e-07
30 *974:A2 *186:18 6.76763e-07
31 *974:A2 *186:22 5.60929e-06
32 *42:10 *186:28 6.22786e-06
33 *42:10 *186:34 1.13781e-05
34 *43:12 *186:10 2.28512e-05
35 *73:8 *186:42 4.43846e-06
36 *113:54 *186:18 3.39742e-05
37 *127:12 *186:10 0
38 *127:12 *186:18 4.83862e-06
39 *127:38 *186:10 1.62434e-05
40 *132:10 *186:22 6.86204e-06
41 *145:40 *186:34 7.18513e-05
*RES
1 *567:Y *186:10 47.0977 
2 *186:10 *186:18 47.3775 
3 *186:18 *186:22 32.4055 
4 *186:22 *186:28 43.0133 
5 *186:28 *186:34 49.5894 
6 *186:34 *186:42 44.1597 
7 *186:42 *629:B 17.2 
8 *186:28 *568:B 38.1438 
9 *186:18 *631:C 36.0045 
*END

*D_NET *187 0.000125424
*CONN
*I *586:A2 I *D AO21x1_ASAP7_75t_L
*I *570:B I *D NAND2x1_ASAP7_75t_L
*I *569:Y O *D AO21x1_ASAP7_75t_L
*CAP
1 *586:A2 0
2 *570:B 5.18985e-06
3 *569:Y 2.39943e-05
4 *187:14 8.03197e-06
5 *187:10 2.68364e-05
6 *570:B *570:A 5.25794e-06
7 *570:B *188:10 2.28976e-06
8 *570:B *342:21 4.20803e-06
9 *570:B *432:6 4.4994e-06
10 *187:10 *569:A1 2.52755e-07
11 *187:10 *569:A2 7.79295e-06
12 *187:10 *426:12 4.83862e-06
13 *187:10 *426:18 1.65043e-05
14 *187:14 *586:B 3.90258e-06
15 *187:14 *342:21 5.22376e-07
16 *187:14 *432:6 3.56177e-06
17 *33:42 *187:10 7.741e-06
18 *137:8 *187:10 0
*RES
1 *569:Y *187:10 48.6455 
2 *187:10 *187:14 19.8741 
3 *187:14 *570:B 24.1527 
4 *187:14 *586:A2 17.2 
*END

*D_NET *188 0.000314271
*CONN
*I *574:A I *D AND2x2_ASAP7_75t_L
*I *571:C I *D AND3x1_ASAP7_75t_L
*I *576:A2 I *D OAI22x1_ASAP7_75t_L
*I *570:Y O *D NAND2x1_ASAP7_75t_L
*CAP
1 *574:A 0
2 *571:C 1.0659e-05
3 *576:A2 9.78323e-06
4 *570:Y 1.04242e-05
5 *188:39 3.57093e-05
6 *188:31 4.68152e-05
7 *188:16 4.44284e-05
8 *188:10 2.33045e-05
9 *576:A2 *576:A1 5.49212e-07
10 *576:A2 *190:10 0
11 *576:A2 *191:8 5.49212e-07
12 *576:A2 *426:48 3.05118e-08
13 *576:A2 *426:67 1.10213e-05
14 *188:10 *570:A 2.54159e-06
15 *188:10 *193:10 3.2842e-06
16 *188:10 *194:8 3.17029e-06
17 *188:10 *342:21 4.11203e-05
18 *188:10 *426:44 5.00816e-06
19 *188:31 *577:A1 1.34329e-05
20 *188:31 *192:8 1.34329e-05
21 *188:31 *194:8 0
22 *188:31 *195:10 1.69273e-05
23 *188:31 *342:10 3.24214e-06
24 *188:31 *426:48 9.41947e-07
25 *188:31 *426:67 1.53219e-05
26 *188:39 *574:B 2.83874e-07
27 *188:39 *342:10 0
28 *188:39 *426:77 0
29 *570:B *188:10 2.28976e-06
*RES
1 *570:Y *188:10 47.9212 
2 *188:10 *188:16 38.0794 
3 *188:16 *576:A2 41.6273 
4 *188:16 *188:31 40.1853 
5 *188:31 *188:39 49.1804 
6 *188:39 *571:C 23.0831 
7 *188:31 *574:A 17.2 
*END

*D_NET *189 7.19036e-05
*CONN
*I *580:A2 I *D AO211x2_ASAP7_75t_L
*I *571:Y O *D AND3x1_ASAP7_75t_L
*CAP
1 *580:A2 7.47815e-06
2 *571:Y 6.7155e-06
3 *189:8 1.41936e-05
4 *580:A2 *195:14 1.94746e-05
5 *580:A2 *426:77 1.96943e-05
6 *189:8 *426:90 1.12894e-06
7 *571:B *189:8 1.12894e-06
8 *181:20 *580:A2 2.0895e-06
*RES
1 *571:Y *189:8 38.9053 
2 *189:8 *580:A2 43.492 
*END

*D_NET *190 0.000274454
*CONN
*I *573:B I *D NAND2x1_ASAP7_75t_L
*I *588:A2 I *D OA21x2_ASAP7_75t_L
*I *572:Y O *D OA21x2_ASAP7_75t_L
*CAP
1 *573:B 9.25274e-06
2 *588:A2 0
3 *572:Y 2.05291e-05
4 *190:29 3.21601e-05
5 *190:16 2.54961e-05
6 *190:10 5.4793e-05
7 *190:8 2.69187e-05
8 *190:8 *569:A1 2.61188e-06
9 *190:8 *572:A1 1.54461e-06
10 *190:8 *572:B 2.20493e-06
11 *190:10 *194:8 2.68933e-07
12 *190:10 *340:35 2.22736e-06
13 *190:16 *582:A 5.62196e-06
14 *190:16 *199:8 5.19552e-07
15 *190:16 *340:35 5.49212e-07
16 *190:16 *423:10 0
17 *190:16 *426:18 9.08513e-06
18 *190:29 *576:B2 2.66797e-07
19 *190:29 *191:8 0
20 *190:29 *423:10 6.33206e-07
21 *576:A2 *190:10 0
22 *185:14 *573:B 1.22121e-05
23 *185:27 *190:16 7.18147e-06
24 *185:29 *190:16 6.03768e-05
*RES
1 *572:Y *190:8 46.701 
2 *190:8 *190:10 5.06849 
3 *190:10 *190:16 40.4242 
4 *190:16 *588:A2 17.2 
5 *190:10 *190:29 46.9277 
6 *190:29 *573:B 42.9572 
*END

*D_NET *191 0.000162536
*CONN
*I *576:B1 I *D OAI22x1_ASAP7_75t_L
*I *574:B I *D AND2x2_ASAP7_75t_L
*I *578:B I *D NOR2x1_ASAP7_75t_L
*I *573:Y O *D NAND2x1_ASAP7_75t_L
*CAP
1 *576:B1 0
2 *574:B 5.79087e-06
3 *578:B 5.4365e-06
4 *573:Y 8.59726e-06
5 *191:16 3.23273e-05
6 *191:10 2.11e-05
7 *191:8 8.59726e-06
8 *574:B *342:10 5.22486e-06
9 *191:16 *576:B2 1.2768e-05
10 *191:16 *196:14 4.51309e-05
11 *191:16 *342:10 1.67304e-05
12 *191:16 *426:67 0
13 *576:A2 *191:8 5.49212e-07
14 *185:14 *191:8 0
15 *188:39 *574:B 2.83874e-07
16 *190:29 *191:8 0
*RES
1 *573:Y *191:8 41.158 
2 *191:8 *191:10 17.2 
3 *191:10 *191:16 39.5283 
4 *191:16 *578:B 37.0741 
5 *191:16 *574:B 38.9053 
6 *191:10 *576:B1 17.2 
*END

*D_NET *192 2.90864e-05
*CONN
*I *577:A2 I *D AO21x1_ASAP7_75t_L
*I *574:Y O *D AND2x2_ASAP7_75t_L
*CAP
1 *577:A2 2.69376e-06
2 *574:Y 5.12598e-06
3 *192:8 7.81974e-06
4 *577:A2 *195:10 1.40419e-08
5 *188:31 *192:8 1.34329e-05
*RES
1 *574:Y *192:8 38.9053 
2 *192:8 *577:A2 35.4697 
*END

*D_NET *193 0.000141928
*CONN
*I *576:B2 I *D OAI22x1_ASAP7_75t_L
*I *575:Y O *D OR2x2_ASAP7_75t_L
*CAP
1 *576:B2 1.43576e-05
2 *575:Y 1.67815e-05
3 *193:10 3.11391e-05
4 *576:B2 *576:A1 5.41446e-06
5 *576:B2 *426:67 1.62312e-05
6 *193:10 *576:A1 4.83862e-06
7 *193:10 *194:8 1.06602e-05
8 *193:10 *195:10 1.67815e-06
9 *193:10 *426:44 5.01287e-06
10 *193:10 *426:48 1.94948e-05
11 *188:10 *193:10 3.2842e-06
12 *190:29 *576:B2 2.66797e-07
13 *191:16 *576:B2 1.2768e-05
*RES
1 *575:Y *193:10 48.2808 
2 *193:10 *576:B2 45.6313 
*END

*D_NET *194 7.16242e-05
*CONN
*I *577:B I *D AO21x1_ASAP7_75t_L
*I *576:Y O *D OAI22x1_ASAP7_75t_L
*CAP
1 *577:B 4.03593e-06
2 *576:Y 1.91156e-05
3 *194:8 2.31516e-05
4 *577:B *195:10 4.57952e-06
5 *194:8 *195:10 0
6 *194:8 *340:35 0
7 *194:8 *426:44 6.6421e-06
8 *188:10 *194:8 3.17029e-06
9 *188:31 *194:8 0
10 *190:10 *194:8 2.68933e-07
11 *193:10 *194:8 1.06602e-05
*RES
1 *576:Y *194:8 49.6055 
2 *194:8 *577:B 38.1438 
*END

*D_NET *195 0.000184588
*CONN
*I *580:B I *D AO211x2_ASAP7_75t_L
*I *577:Y O *D AO21x1_ASAP7_75t_L
*CAP
1 *580:B 0
2 *577:Y 1.57723e-05
3 *195:14 1.59644e-05
4 *195:10 3.17367e-05
5 *195:10 *426:48 6.33206e-07
6 *195:14 *342:21 5.51397e-07
7 *195:14 *426:71 1.31542e-05
8 *195:14 *426:77 4.57952e-06
9 *577:A2 *195:10 1.40419e-08
10 *577:B *195:10 4.57952e-06
11 *580:A2 *195:14 1.94746e-05
12 *120:37 *195:14 5.95224e-05
13 *188:31 *195:10 1.69273e-05
14 *193:10 *195:10 1.67815e-06
15 *194:8 *195:10 0
*RES
1 *577:Y *195:10 45.3799 
2 *195:10 *195:14 38.0582 
3 *195:14 *580:B 17.2 
*END

*D_NET *196 0.00021689
*CONN
*I *579:C I *D OA211x2_ASAP7_75t_L
*I *578:Y O *D NOR2x1_ASAP7_75t_L
*CAP
1 *579:C 0
2 *578:Y 6.05184e-06
3 *196:22 8.18567e-06
4 *196:14 5.18247e-05
5 *196:8 4.96909e-05
6 *196:14 *197:12 8.2174e-07
7 *196:14 *426:90 2.22736e-06
8 *196:22 *197:6 9.9223e-06
9 *565:A1 *196:22 3.00838e-05
10 *120:33 *196:14 0
11 *120:33 *196:22 0
12 *158:56 *196:22 2.20493e-06
13 *175:27 *196:22 1.04475e-06
14 *185:14 *196:14 9.70123e-06
15 *191:16 *196:14 4.51309e-05
*RES
1 *578:Y *196:8 37.0741 
2 *196:8 *196:14 42.3981 
3 *196:14 *196:22 45.7819 
4 *196:22 *579:C 17.2 
*END

*D_NET *197 0.000115387
*CONN
*I *580:C I *D AO211x2_ASAP7_75t_L
*I *579:Y O *D OA211x2_ASAP7_75t_L
*CAP
1 *580:C 0
2 *579:Y 3.63537e-05
3 *197:12 1.41883e-05
4 *197:6 5.05421e-05
5 *565:B *197:12 5.52807e-07
6 *120:33 *197:12 0
7 *185:8 *197:6 0
8 *185:14 *197:12 3.00603e-06
9 *196:14 *197:12 8.2174e-07
10 *196:22 *197:6 9.9223e-06
*RES
1 *579:Y *197:6 34.8492 
2 *197:6 *197:12 44.537 
3 *197:12 *580:C 17.2 
*END

*D_NET *198 0.000167243
*CONN
*I *584:B1 I *D AO221x1_ASAP7_75t_L
*I *583:B I *D OA211x2_ASAP7_75t_L
*I *581:Y O *D OA211x2_ASAP7_75t_L
*CAP
1 *584:B1 0
2 *583:B 0
3 *581:Y 3.13792e-06
4 *198:27 8.27754e-06
5 *198:12 3.4786e-05
6 *198:6 4.62015e-05
7 *198:12 *431:38 2.52755e-07
8 *198:12 *433:44 2.95052e-06
9 *198:27 *584:C 5.62196e-06
10 *198:27 *422:46 1.65352e-05
11 *581:C *198:6 1.52651e-06
12 *581:C *198:12 3.48165e-06
13 *41:29 *198:12 2.70426e-05
14 *129:20 *198:27 0
15 *177:23 *198:12 9.00919e-07
16 *178:25 *198:12 1.6528e-05
*RES
1 *581:Y *198:6 18.8045 
2 *198:6 *198:12 37.3853 
3 *198:12 *583:B 34.4 
4 *198:6 *198:27 41.6361 
5 *198:27 *584:B1 17.2 
*END

*D_NET *199 6.26525e-05
*CONN
*I *584:B2 I *D AO221x1_ASAP7_75t_L
*I *582:Y O *D OR2x2_ASAP7_75t_L
*CAP
1 *584:B2 1.9489e-05
2 *582:Y 6.19086e-06
3 *199:8 2.56799e-05
4 *584:B2 *582:B 3.25708e-06
5 *584:B2 *584:C 1.52651e-06
6 *584:B2 *422:46 3.58577e-07
7 *584:B2 *423:23 4.57263e-07
8 *199:8 *426:18 5.22376e-07
9 *33:42 *584:B2 0
10 *35:31 *584:B2 2.9732e-06
11 *129:20 *584:B2 1.67815e-06
12 *190:16 *199:8 5.19552e-07
*RES
1 *582:Y *199:8 37.0741 
2 *199:8 *584:B2 49.5488 
*END

*D_NET *200 4.1528e-05
*CONN
*I *584:C I *D AO221x1_ASAP7_75t_L
*I *583:Y O *D OA211x2_ASAP7_75t_L
*CAP
1 *584:C 1.71898e-05
2 *583:Y 1.71898e-05
3 *584:B2 *584:C 1.52651e-06
4 *198:27 *584:C 5.62196e-06
*RES
1 *583:Y *584:C 44.5617 
*END

*D_NET *201 0.000153376
*CONN
*I *585:A I *D XOR2x2_ASAP7_75t_L
*I *584:Y O *D AO221x1_ASAP7_75t_L
*CAP
1 *585:A 0
2 *584:Y 6.16383e-05
3 *201:12 3.79913e-06
4 *201:6 6.54374e-05
5 *201:12 *585:B 0
6 *201:12 *429:35 1.07573e-06
7 *932:A *201:6 1.78333e-06
8 *29:40 *201:6 4.92332e-06
9 *30:22 *201:6 0
10 *32:10 *201:12 0
11 *129:35 *201:6 1.47193e-05
*RES
1 *584:Y *201:6 43.4064 
2 *201:6 *201:12 37.2158 
3 *201:12 *585:A 17.2 
*END

*D_NET *202 0.000133033
*CONN
*I *587:A2 I *D AOI21x1_ASAP7_75t_L
*I *586:Y O *D AO21x1_ASAP7_75t_L
*CAP
1 *587:A2 0
2 *586:Y 1.81986e-05
3 *202:10 1.79692e-05
4 *202:6 3.61678e-05
5 *202:6 *342:21 1.36398e-05
6 *202:6 *432:6 9.75735e-06
7 *202:10 *342:25 6.59055e-06
8 *202:10 *429:58 2.31029e-05
9 *503:A2 *202:10 2.53282e-06
10 *185:35 *202:10 5.07403e-06
*RES
1 *586:Y *202:6 33.7796 
2 *202:6 *202:10 34.6581 
3 *202:10 *587:A2 34.4 
*END

*D_NET *203 3.54141e-05
*CONN
*I *590:A2 I *D AO21x1_ASAP7_75t_L
*I *587:Y O *D AOI21x1_ASAP7_75t_L
*CAP
1 *590:A2 0
2 *587:Y 6.99348e-06
3 *203:8 6.99348e-06
4 *203:8 *205:14 1.692e-05
5 *203:8 *206:8 8.2174e-07
6 *203:8 *342:25 3.13615e-06
7 *203:8 *427:10 5.49212e-07
*RES
1 *587:Y *203:8 42.2843 
2 *203:8 *590:A2 34.4 
*END

*D_NET *204 6.12749e-05
*CONN
*I *589:A2 I *D OAI21x1_ASAP7_75t_L
*I *588:Y O *D OA21x2_ASAP7_75t_L
*CAP
1 *589:A2 5.82148e-06
2 *588:Y 1.01367e-05
3 *204:10 1.59582e-05
4 *589:A2 *427:25 3.56648e-06
5 *204:10 *587:B 1.69693e-06
6 *204:10 *589:A1 3.47607e-06
7 *29:46 *589:A2 4.17901e-06
8 *29:50 *204:10 1.64401e-05
*RES
1 *588:Y *204:10 41.6361 
2 *204:10 *589:A2 39.2134 
*END

*D_NET *205 0.000135082
*CONN
*I *590:B I *D AO21x1_ASAP7_75t_L
*I *589:Y O *D OAI21x1_ASAP7_75t_L
*CAP
1 *590:B 0
2 *589:Y 4.54056e-06
3 *205:14 2.39305e-05
4 *205:8 2.84711e-05
5 *205:14 *585:B 1.62854e-06
6 *205:14 *342:25 5.84553e-05
7 *205:14 *427:10 1.13549e-06
8 *203:8 *205:14 1.692e-05
*RES
1 *589:Y *205:8 36.0045 
2 *205:8 *205:14 40.1198 
3 *205:14 *590:B 17.2 
*END

*D_NET *206 8.8618e-05
*CONN
*I *591:B I *D XNOR2x2_ASAP7_75t_L
*I *590:Y O *D AO21x1_ASAP7_75t_L
*CAP
1 *591:B 1.02764e-05
2 *590:Y 1.64101e-05
3 *206:8 2.66865e-05
4 *206:8 *585:B 8.45637e-06
5 *206:8 *427:10 2.59669e-05
6 *206:8 *429:50 0
7 *206:8 *435:8 0
8 *203:8 *206:8 8.2174e-07
*RES
1 *590:Y *206:8 48.4791 
2 *206:8 *591:B 40.2831 
*END

*D_NET *207 9.73282e-05
*CONN
*I *696:B2 I *D OA222x2_ASAP7_75t_L
*I *617:A1 I *D OA21x2_ASAP7_75t_L
*I *607:Y O *D INVx1_ASAP7_75t_L
*CAP
1 *696:B2 2.29365e-05
2 *617:A1 3.28099e-06
3 *607:Y 1.87182e-05
4 *207:10 4.49357e-05
5 *696:B2 *696:B1 3.89037e-06
6 *696:B2 *443:8 1.36155e-06
7 *696:B2 *443:14 0
8 *207:10 *617:B 0
9 *607:A *207:10 0
10 *617:A2 *617:A1 2.20493e-06
11 *70:10 *696:B2 0
12 *70:10 *207:10 0
13 *145:60 *696:B2 0
*RES
1 *607:Y *207:10 45.0151 
2 *207:10 *617:A1 36.0045 
3 *207:10 *696:B2 49.5488 
*END

*D_NET *208 0.000787369
*CONN
*I *691:B I *D AO21x2_ASAP7_75t_L
*I *913:B I *D AO21x1_ASAP7_75t_L
*I *635:B I *D OR2x4_ASAP7_75t_L
*I *609:B I *D AOI21x1_ASAP7_75t_L
*I *916:B I *D AOI21x1_ASAP7_75t_L
*I *611:A I *D INVx1_ASAP7_75t_L
*I *608:Y O *D NAND2x1_ASAP7_75t_L
*CAP
1 *691:B 1.68604e-06
2 *913:B 0
3 *635:B 0
4 *609:B 0
5 *916:B 1.6848e-05
6 *611:A 0
7 *608:Y 3.47565e-06
8 *208:76 1.75817e-05
9 *208:68 4.4184e-05
10 *208:62 5.91696e-05
11 *208:51 4.35124e-05
12 *208:33 2.19479e-05
13 *208:29 6.65784e-05
14 *208:25 7.36249e-05
15 *208:14 3.6974e-05
16 *208:8 6.52272e-05
17 *691:B *400:33 1.44167e-06
18 *916:B *916:A2 1.95129e-06
19 *916:B *211:18 3.37545e-05
20 *208:8 *403:18 5.85387e-06
21 *208:14 *211:8 2.11853e-06
22 *208:14 *247:14 0
23 *208:14 *403:18 1.49175e-05
24 *208:29 *278:8 1.1264e-05
25 *208:29 *407:40 9.10065e-06
26 *208:33 *211:18 2.40363e-05
27 *208:51 *278:8 1.92124e-05
28 *208:51 *278:144 1.2493e-05
29 *208:62 *275:10 5.67747e-07
30 *208:62 *400:33 6.10236e-08
31 *208:76 *335:59 1.15587e-05
32 *208:76 *401:12 7.58265e-07
33 *608:A *208:14 7.58545e-06
34 *609:A1 *916:B 1.35684e-06
35 *921:A *208:25 2.68282e-05
36 *913:A2 *208:68 3.0511e-05
37 *913:A2 *208:76 9.84664e-06
38 *4:35 *208:68 1.62461e-05
39 *4:113 *916:B 3.53338e-06
40 *4:117 *916:B 1.95129e-06
41 *4:117 *208:33 2.4108e-05
42 *20:141 *208:62 2.03526e-06
43 *43:12 *208:51 4.65366e-06
44 *75:8 *208:68 0
45 *127:12 *208:51 0
46 *127:38 *208:51 1.04475e-06
47 *132:10 *208:51 2.55486e-06
48 *132:16 *208:62 2.77307e-06
49 *132:16 *208:68 6.75856e-06
50 *132:33 *208:29 1.83109e-06
51 *132:48 *208:29 6.10236e-08
52 *132:48 *208:51 1.94975e-06
53 *140:33 *208:62 5.0551e-07
54 *140:41 *208:25 7.58265e-07
55 *140:41 *208:29 3.91524e-06
56 *140:41 *208:62 1.40419e-08
57 *141:26 *208:14 1.15611e-05
58 *145:36 *208:14 2.68933e-07
59 *145:36 *208:25 2.98814e-08
60 *145:80 *208:51 0
61 *146:86 *208:14 6.7842e-07
62 *146:94 *208:14 3.59088e-06
63 *146:94 *208:25 6.42451e-07
64 *148:6 *208:68 3.68287e-06
65 *148:10 *208:68 5.62196e-06
66 *148:12 *208:76 5.03576e-06
67 *148:107 *208:68 0
68 *186:10 *208:51 5.53562e-06
69 *186:22 *208:51 0
*RES
1 *608:Y *208:8 36.0045 
2 *208:8 *208:14 37.8351 
3 *208:14 *611:A 17.2 
4 *208:8 *208:25 30.7407 
5 *208:25 *208:29 30.716 
6 *208:29 *208:33 24.1527 
7 *208:33 *916:B 30.5706 
8 *208:33 *609:B 17.2 
9 *208:29 *208:51 48.6523 
10 *208:51 *635:B 17.2 
11 *208:25 *208:62 33.1067 
12 *208:62 *208:68 40.3712 
13 *208:68 *208:76 47.4342 
14 *208:76 *913:B 17.2 
15 *208:62 *691:B 35.4697 
*END

*D_NET *209 0.00282934
*CONN
*I *645:A2 I *D AO22x1_ASAP7_75t_L
*I *650:A2 I *D AO22x1_ASAP7_75t_L
*I *628:A I *D AND2x2_ASAP7_75t_L
*I *678:A2 I *D AO221x2_ASAP7_75t_L
*I *666:A2 I *D AO221x2_ASAP7_75t_L
*I *662:A2 I *D AO221x2_ASAP7_75t_L
*I *609:Y O *D AOI21x1_ASAP7_75t_L
*CAP
1 *645:A2 0
2 *650:A2 0
3 *628:A 0
4 *678:A2 1.58859e-06
5 *666:A2 8.60464e-06
6 *662:A2 1.20549e-05
7 *609:Y 5.21563e-06
8 *209:145 1.14275e-05
9 *209:137 3.37379e-05
10 *209:122 2.58048e-05
11 *209:118 6.38066e-05
12 *209:116 8.57294e-05
13 *209:112 4.33917e-05
14 *209:106 4.68279e-05
15 *209:102 5.77577e-05
16 *209:91 2.57828e-05
17 *209:85 3.23534e-05
18 *209:79 5.01546e-05
19 *209:77 4.35839e-05
20 *209:75 0.000102834
21 *209:73 8.93584e-05
22 *209:60 2.70246e-05
23 *209:56 9.58637e-05
24 *209:43 1.27315e-05
25 *209:33 9.34063e-05
26 *209:20 5.17749e-05
27 *209:18 4.17829e-05
28 *209:14 0.000136241
29 *209:12 0.000130164
30 *209:8 3.54807e-05
31 *662:A2 *253:8 1.56713e-06
32 *662:A2 *347:28 1.4007e-05
33 *666:A2 *666:A1 6.17507e-06
34 *666:A2 *666:C 1.35684e-06
35 *666:A2 *212:47 2.90209e-08
36 *678:A2 *212:112 1.36155e-06
37 *678:A2 *263:6 1.36155e-06
38 *209:12 *211:12 0
39 *209:12 *406:42 2.03686e-06
40 *209:14 *254:35 2.77388e-07
41 *209:14 *275:14 3.52688e-05
42 *209:14 *275:22 1.35269e-05
43 *209:14 *348:14 0
44 *209:14 *458:29 1.53894e-07
45 *209:18 *254:35 2.77387e-08
46 *209:20 *255:18 0.000147839
47 *209:20 *292:10 0
48 *209:20 *345:38 4.19834e-06
49 *209:20 *402:120 3.66963e-05
50 *209:33 *458:29 0
51 *209:43 *212:57 1.74634e-06
52 *209:43 *254:35 9.89307e-06
53 *209:43 *255:18 4.4115e-06
54 *209:43 *348:14 9.71112e-06
55 *209:56 *278:20 3.07124e-07
56 *209:56 *360:32 0
57 *209:56 *374:20 2.10204e-05
58 *209:56 *441:146 0
59 *209:56 *458:21 0
60 *209:56 *458:29 0
61 *209:60 *212:112 1.94229e-07
62 *209:60 *260:22 1.12894e-06
63 *209:60 *260:35 1.04058e-05
64 *209:60 *263:12 2.64165e-05
65 *209:60 *360:32 9.81726e-06
66 *209:60 *421:14 1.04709e-06
67 *209:60 *459:22 3.59323e-06
68 *209:73 *211:12 0
69 *209:73 *406:42 1.52808e-06
70 *209:75 *275:141 3.15497e-05
71 *209:75 *278:12 3.13435e-05
72 *209:75 *278:146 3.36642e-05
73 *209:79 *288:29 2.97708e-05
74 *209:79 *288:46 8.00464e-06
75 *209:79 *417:12 6.80143e-06
76 *209:79 *452:30 0
77 *209:79 *458:91 0
78 *209:85 *448:25 5.19552e-07
79 *209:91 *224:14 1.66587e-05
80 *209:91 *224:27 6.6421e-06
81 *209:91 *225:8 1.08167e-05
82 *209:91 *288:10 2.74606e-06
83 *209:91 *288:29 2.80709e-06
84 *209:91 *401:52 3.47607e-06
85 *209:91 *453:12 8.06436e-06
86 *209:102 *275:141 6.22023e-05
87 *209:102 *287:14 0
88 *209:106 *234:14 3.06445e-06
89 *209:106 *274:12 6.95373e-06
90 *209:106 *455:12 4.28451e-05
91 *209:112 *340:26 3.66864e-06
92 *209:112 *417:153 0
93 *209:112 *429:12 2.54087e-05
94 *209:116 *463:16 6.4633e-06
95 *209:118 *213:18 0
96 *209:118 *213:26 2.36642e-05
97 *209:118 *233:16 0
98 *209:118 *241:19 1.86598e-05
99 *209:118 *244:8 0
100 *209:118 *281:14 0
101 *209:122 *397:6 2.12276e-06
102 *209:137 *397:6 6.17507e-06
103 *209:137 *402:64 4.11415e-05
104 *209:145 *243:10 8.36385e-06
105 *209:145 *402:75 2.7159e-05
106 *470:A *209:91 2.18409e-05
107 *609:A1 *209:8 1.3659e-05
108 *4:113 *209:8 5.85387e-06
109 *4:113 *209:12 4.44176e-06
110 *4:113 *209:73 7.74745e-06
111 *4:143 *209:73 0
112 *12:12 *209:20 1.12894e-06
113 *14:23 *209:145 4.68418e-06
114 *16:25 *209:118 0
115 *18:18 *209:118 4.26019e-06
116 *31:14 *209:112 1.369e-05
117 *31:21 *209:118 0
118 *34:25 *209:79 4.08383e-06
119 *34:25 *209:91 3.51915e-05
120 *35:8 *209:79 1.93392e-05
121 *36:10 *209:79 1.76889e-05
122 *40:31 *209:79 3.55626e-07
123 *71:18 *209:91 0
124 *90:8 *209:102 1.49407e-08
125 *94:8 *209:118 0
126 *101:8 *209:60 9.5132e-06
127 *133:12 *209:102 1.5076e-05
128 *133:20 *209:79 4.33802e-06
129 *136:12 *209:14 0.000261327
130 *136:18 *209:79 7.11159e-06
131 *145:36 *209:12 5.12908e-06
132 *145:36 *209:73 4.54371e-06
133 *145:40 *209:75 1.34122e-05
134 *145:40 *209:102 5.11322e-06
135 *145:48 *209:102 2.13376e-07
136 *145:80 *209:73 3.01974e-06
137 *145:120 *209:60 2.0051e-05
138 *148:158 *209:137 4.08984e-05
139 *149:14 *209:137 1.53347e-06
140 *186:34 *209:102 7.66024e-07
141 *186:34 *209:106 8.09626e-05
*RES
1 *609:Y *209:8 38.1438 
2 *209:8 *209:12 26.3045 
3 *209:12 *209:14 56.8691 
4 *209:14 *209:18 17.687 
5 *209:18 *209:20 50.0279 
6 *209:20 *662:A2 44.5617 
7 *209:14 *209:33 16.8143 
8 *209:33 *209:43 49.5812 
9 *209:43 *666:A2 21.4786 
10 *209:33 *209:56 36.0464 
11 *209:56 *209:60 46.0153 
12 *209:60 *678:A2 35.4697 
13 *209:8 *209:73 28.7449 
14 *209:73 *209:75 27.0548 
15 *209:75 *209:77 17.2 
16 *209:77 *209:79 38.0137 
17 *209:79 *209:85 37.0741 
18 *209:85 *209:91 46.1445 
19 *209:91 *628:A 17.2 
20 *209:75 *209:102 33.0904 
21 *209:102 *209:106 33.8657 
22 *209:106 *209:112 49.8871 
23 *209:112 *209:116 26.292 
24 *209:116 *209:118 41.6743 
25 *209:118 *209:122 18.8045 
26 *209:122 *650:A2 17.2 
27 *209:122 *209:137 48.7113 
28 *209:137 *209:145 46.423 
29 *209:145 *645:A2 17.2 
*END

*D_NET *210 0.000391204
*CONN
*I *703:A2 I *D OA222x2_ASAP7_75t_L
*I *610:Y O *D BUFx2_ASAP7_75t_L
*CAP
1 *703:A2 0
2 *610:Y 3.72857e-06
3 *210:20 3.74575e-06
4 *210:12 8.10745e-05
5 *210:10 7.73287e-05
6 *210:8 3.72857e-06
7 *210:12 *233:12 1.73127e-05
8 *210:12 *237:16 0
9 *210:12 *237:34 2.40026e-05
10 *210:12 *339:41 0
11 *210:20 *290:38 7.47402e-07
12 *210:20 *401:92 7.58265e-07
13 *18:18 *210:12 6.29179e-05
14 *18:22 *210:12 8.67148e-05
15 *28:18 *210:12 1.19831e-05
16 *28:22 *210:12 1.33834e-05
17 *37:12 *210:20 3.77767e-06
*RES
1 *610:Y *210:8 36.7465 
2 *210:8 *210:10 17.2 
3 *210:10 *210:12 41.3397 
4 *210:12 *210:20 37.2247 
5 *210:20 *703:A2 17.2 
*END

*D_NET *211 0.000799702
*CONN
*I *914:A I *D AND3x4_ASAP7_75t_L
*I *632:B I *D OA211x2_ASAP7_75t_L
*I *612:A I *D AND3x4_ASAP7_75t_L
*I *611:Y O *D INVx1_ASAP7_75t_L
*CAP
1 *914:A 0
2 *632:B 0
3 *612:A 3.15963e-06
4 *611:Y 6.25583e-06
5 *211:50 2.26391e-05
6 *211:37 3.15744e-05
7 *211:35 8.06916e-05
8 *211:31 7.78647e-05
9 *211:18 7.61127e-05
10 *211:12 8.91736e-05
11 *211:8 2.85848e-05
12 *211:8 *247:14 3.73144e-06
13 *211:12 *248:10 1.6226e-05
14 *211:12 *406:42 0
15 *211:18 *919:A 8.65792e-06
16 *211:18 *277:12 5.62196e-06
17 *211:18 *400:27 1.26139e-05
18 *211:31 *400:27 1.38885e-05
19 *211:35 *275:137 6.39869e-05
20 *211:37 *226:18 4.30517e-07
21 *211:50 *287:33 9.50284e-06
22 *211:50 *444:20 3.33087e-05
23 *211:50 *453:40 2.40241e-05
24 *608:A *211:8 2.79851e-06
25 *916:B *211:18 3.37545e-05
26 *4:105 *211:12 3.95972e-05
27 *4:117 *211:18 2.71368e-06
28 *4:128 *211:18 6.47319e-06
29 *4:143 *211:12 1.78237e-05
30 *35:8 *211:37 2.69452e-06
31 *35:8 *211:50 4.64066e-07
32 *36:10 *211:37 2.25003e-05
33 *36:10 *211:50 2.58291e-05
34 *36:18 *211:50 9.72458e-07
35 *132:12 *211:18 0
36 *146:94 *211:12 4.30517e-07
37 *186:22 *211:31 1.72934e-06
38 *186:28 *612:A 2.03526e-06
39 *186:28 *211:35 5.68148e-06
40 *208:14 *211:8 2.11853e-06
41 *208:33 *211:18 2.40363e-05
42 *209:12 *211:12 0
43 *209:73 *211:12 0
*RES
1 *611:Y *211:8 39.2134 
2 *211:8 *211:12 36.9108 
3 *211:12 *211:18 47.9118 
4 *211:18 *612:A 36.0045 
5 *211:18 *211:31 22.2685 
6 *211:31 *211:35 45.5457 
7 *211:35 *211:37 7.88432 
8 *211:37 *632:B 34.4 
9 *211:37 *211:50 40.4845 
10 *211:50 *914:A 17.2 
*END

*D_NET *212 0.00281699
*CONN
*I *616:B1 I *D AO221x1_ASAP7_75t_L
*I *620:B1 I *D AO221x1_ASAP7_75t_L
*I *678:B2 I *D AO221x2_ASAP7_75t_L
*I *683:B2 I *D AO221x2_ASAP7_75t_L
*I *666:B2 I *D AO221x2_ASAP7_75t_L
*I *662:B2 I *D AO221x2_ASAP7_75t_L
*I *658:B2 I *D AO221x2_ASAP7_75t_L
*I *612:Y O *D AND3x4_ASAP7_75t_L
*CAP
1 *616:B1 0
2 *620:B1 0
3 *678:B2 0
4 *683:B2 0
5 *666:B2 2.25076e-06
6 *662:B2 0
7 *658:B2 2.91535e-06
8 *612:Y 9.72873e-06
9 *212:144 3.97741e-05
10 *212:142 6.14495e-05
11 *212:133 8.78606e-06
12 *212:127 0.000108559
13 *212:120 1.06563e-05
14 *212:112 5.3905e-05
15 *212:101 3.15299e-05
16 *212:97 9.9425e-05
17 *212:95 4.3118e-05
18 *212:73 2.57349e-05
19 *212:67 3.31565e-05
20 *212:61 2.68751e-05
21 *212:57 5.46828e-05
22 *212:51 3.99572e-05
23 *212:49 2.09489e-05
24 *212:47 9.26669e-06
25 *212:39 6.40678e-05
26 *212:35 8.30159e-05
27 *212:16 4.40863e-05
28 *212:14 0.000123375
29 *212:10 0.000132087
30 *212:8 9.72873e-06
31 *658:B2 *441:89 2.03526e-06
32 *212:14 *412:12 7.34629e-07
33 *212:14 *412:89 8.22573e-05
34 *212:14 *449:26 2.39614e-05
35 *212:16 *707:B1 0
36 *212:16 *293:29 0
37 *212:16 *366:18 2.18135e-06
38 *212:16 *366:26 3.77787e-06
39 *212:16 *401:29 0
40 *212:16 *405:10 3.0552e-05
41 *212:16 *441:81 8.33296e-06
42 *212:16 *441:89 3.47607e-06
43 *212:16 *441:98 0.000122807
44 *212:16 *449:12 0
45 *212:35 *405:10 9.93399e-06
46 *212:35 *412:12 5.76864e-05
47 *212:35 *449:26 4.60604e-05
48 *212:35 *465:14 1.49407e-08
49 *212:39 *278:12 8.23841e-06
50 *212:39 *348:14 1.05377e-05
51 *212:39 *412:12 0.000115623
52 *212:47 *666:A1 2.4974e-06
53 *212:47 *666:C 4.06202e-06
54 *212:47 *402:120 1.70708e-06
55 *212:51 *255:18 5.73724e-07
56 *212:51 *402:120 0
57 *212:57 *255:18 5.54318e-06
58 *212:57 *275:41 1.24805e-05
59 *212:57 *348:37 3.88042e-07
60 *212:61 *708:C2 7.8048e-06
61 *212:61 *251:17 2.85464e-06
62 *212:61 *278:36 9.63579e-06
63 *212:61 *292:18 8.75422e-06
64 *212:61 *294:30 3.88115e-06
65 *212:67 *708:C2 6.7842e-07
66 *212:73 *652:A 1.67815e-06
67 *212:73 *251:17 3.52601e-06
68 *212:73 *294:30 2.63813e-05
69 *212:73 *347:28 5.0551e-07
70 *212:95 *256:12 1.88951e-06
71 *212:95 *256:20 1.49407e-08
72 *212:95 *402:120 0
73 *212:97 *260:12 6.53077e-05
74 *212:97 *412:55 6.42364e-05
75 *212:101 *683:B1 7.79295e-06
76 *212:101 *352:32 9.52454e-06
77 *212:101 *441:142 5.56076e-05
78 *212:112 *678:C 8.49451e-06
79 *212:112 *263:6 1.51653e-06
80 *212:112 *412:55 5.47771e-06
81 *212:112 *421:14 1.18879e-05
82 *212:112 *459:22 4.74168e-07
83 *212:112 *460:30 0
84 *212:120 *678:B1 3.46317e-06
85 *212:120 *678:C 1.68781e-05
86 *212:120 *421:31 0
87 *212:120 *451:72 1.12901e-05
88 *212:127 *276:12 2.49941e-06
89 *212:127 *412:89 0.000241399
90 *212:133 *339:32 8.29207e-06
91 *212:142 *276:12 5.16183e-06
92 *212:142 *412:89 1.67215e-05
93 *212:142 *412:106 2.88077e-05
94 *212:144 *279:20 8.36476e-06
95 *212:144 *412:108 3.26312e-05
96 *212:144 *412:116 8.2174e-07
97 *212:144 *417:130 0
98 *212:144 *417:138 1.49407e-08
99 *212:144 *443:27 1.14735e-05
100 *212:144 *448:112 5.67747e-07
101 *212:144 *448:127 5.52807e-07
102 *666:A2 *212:47 2.90209e-08
103 *678:A2 *212:112 1.36155e-06
104 *731:B *212:16 0
105 *747:D *212:57 2.66992e-06
106 *964:A *212:16 0
107 *20:40 *212:73 2.25196e-06
108 *20:48 *212:61 1.49407e-08
109 *20:48 *212:73 4.27505e-06
110 *49:6 *212:101 5.19552e-07
111 *49:25 *212:101 7.58265e-07
112 *52:12 *212:97 1.55069e-05
113 *55:16 *212:39 2.49764e-05
114 *63:22 *212:39 9.03467e-06
115 *63:39 *212:39 3.43044e-06
116 *65:10 *212:16 2.98814e-07
117 *73:14 *212:144 3.00758e-05
118 *88:8 *212:144 9.93857e-06
119 *97:8 *212:61 9.77304e-06
120 *132:33 *212:8 1.14625e-05
121 *132:48 *212:8 1.71435e-05
122 *133:12 *212:127 6.93339e-05
123 *136:12 *212:14 1.50508e-05
124 *136:12 *212:127 1.39369e-05
125 *140:29 *212:127 5.44803e-05
126 *145:36 *212:8 2.61137e-05
127 *145:80 *212:8 3.97187e-06
128 *145:114 *212:112 1.98844e-05
129 *145:120 *212:95 1.82173e-05
130 *145:120 *212:97 1.61002e-05
131 *145:120 *212:112 2.7748e-06
132 *145:124 *212:47 5.62196e-06
133 *145:143 *212:51 2.13283e-06
134 *145:143 *212:57 6.98194e-06
135 *145:143 *212:95 5.43212e-07
136 *146:48 *212:127 0
137 *146:111 *212:14 2.8506e-05
138 *148:62 *212:61 6.47448e-06
139 *148:62 *212:95 0
140 *209:43 *212:57 1.74634e-06
141 *209:60 *212:112 1.94229e-07
*RES
1 *612:Y *212:8 44.8186 
2 *212:8 *212:10 17.2 
3 *212:10 *212:14 40.3589 
4 *212:14 *212:16 46.4612 
5 *212:16 *658:B2 36.0045 
6 *212:14 *212:35 44.9644 
7 *212:35 *212:39 37.6102 
8 *212:39 *212:47 40.9401 
9 *212:47 *212:49 17.2 
10 *212:49 *212:51 2.81583 
11 *212:51 *212:57 43.7502 
12 *212:57 *212:61 36.9108 
13 *212:61 *212:67 37.0741 
14 *212:67 *212:73 39.67 
15 *212:73 *662:B2 17.2 
16 *212:51 *666:B2 36.0045 
17 *212:49 *212:95 46.0281 
18 *212:95 *212:97 35.4795 
19 *212:97 *212:101 41.2671 
20 *212:101 *683:B2 17.2 
21 *212:97 *212:112 43.5234 
22 *212:112 *212:120 43.1556 
23 *212:120 *678:B2 17.2 
24 *212:10 *212:127 43.2876 
25 *212:127 *212:133 39.7501 
26 *212:133 *620:B1 17.2 
27 *212:127 *212:142 25.4246 
28 *212:142 *212:144 36.8874 
29 *212:144 *616:B1 34.4 
*END

*D_NET *213 0.000555832
*CONN
*I *702:A2 I *D OA222x2_ASAP7_75t_L
*I *613:Y O *D BUFx2_ASAP7_75t_L
*CAP
1 *702:A2 2.036e-06
2 *613:Y 3.03798e-05
3 *213:42 2.45786e-05
4 *213:32 5.26232e-05
5 *213:26 5.571e-05
6 *213:18 7.16485e-05
7 *213:12 5.17381e-05
8 *213:8 3.60989e-05
9 *702:A2 *453:70 5.22376e-07
10 *213:8 *309:13 1.20147e-05
11 *213:12 *335:139 0
12 *213:18 *237:10 1.43369e-05
13 *213:18 *281:14 2.43869e-07
14 *213:18 *291:10 1.59615e-06
15 *213:26 *702:C1 4.32473e-06
16 *213:32 *402:64 1.65436e-06
17 *213:32 *454:16 8.09049e-05
18 *213:42 *235:12 1.10064e-06
19 *213:42 *290:38 2.19448e-07
20 *213:42 *429:24 1.04046e-07
21 *18:22 *213:42 5.28868e-07
22 *25:10 *213:18 1.61594e-05
23 *25:21 *213:26 0
24 *25:25 *213:32 1.57176e-05
25 *28:18 *213:42 8.91413e-07
26 *28:64 *213:12 2.68933e-07
27 *149:14 *213:32 5.67668e-05
28 *209:118 *213:18 0
29 *209:118 *213:26 2.36642e-05
*RES
1 *613:Y *213:8 49.9099 
2 *213:8 *213:12 21.1422 
3 *213:12 *213:18 49.4312 
4 *213:18 *213:26 48.6367 
5 *213:26 *213:32 46.2609 
6 *213:32 *213:42 38.081 
7 *213:42 *702:A2 35.4697 
*END

*D_NET *214 0.000822721
*CONN
*I *700:A2 I *D OA222x2_ASAP7_75t_L
*I *614:Y O *D BUFx2_ASAP7_75t_L
*CAP
1 *700:A2 0
2 *614:Y 1.60291e-05
3 *214:28 1.01006e-05
4 *214:20 0.000110754
5 *214:18 0.000109972
6 *214:12 0.000147109
7 *214:10 0.000137791
8 *214:8 1.60291e-05
9 *214:12 *279:6 0
10 *214:12 *279:14 1.51779e-05
11 *214:12 *453:144 4.17117e-05
12 *214:18 *412:108 2.67694e-05
13 *214:20 *448:23 2.66207e-05
14 *214:20 *448:25 2.05732e-05
15 *214:20 *448:108 9.58629e-05
16 *214:28 *700:B2 2.12481e-06
17 *214:28 *288:29 2.9708e-05
18 *214:28 *401:52 7.35354e-06
19 *214:28 *453:25 3.3563e-06
20 *5:14 *214:18 0
21 *17:12 *214:28 5.67735e-06
*RES
1 *614:Y *214:8 46.2265 
2 *214:8 *214:10 17.2 
3 *214:10 *214:12 66.8531 
4 *214:12 *214:18 43.4107 
5 *214:18 *214:20 48.6691 
6 *214:20 *214:28 46.6763 
7 *214:28 *700:A2 17.2 
*END

*D_NET *215 0.000188896
*CONN
*I *616:C I *D AO221x1_ASAP7_75t_L
*I *615:Y O *D AO21x1_ASAP7_75t_L
*CAP
1 *616:C 0
2 *615:Y 1.92298e-05
3 *215:22 2.48959e-05
4 *215:16 3.53416e-05
5 *215:10 2.96756e-05
6 *215:10 *615:A1 1.7743e-05
7 *215:10 *335:90 0
8 *215:16 *335:88 2.41315e-05
9 *215:16 *380:6 2.0392e-05
10 *215:22 *616:A1 3.89037e-06
11 *215:22 *616:A2 4.32473e-06
12 *215:22 *216:8 1.05018e-06
13 *215:22 *338:12 4.64191e-07
14 *215:22 *338:22 0
15 *215:22 *443:33 7.75665e-06
*RES
1 *615:Y *215:10 45.3799 
2 *215:10 *215:16 49.9099 
3 *215:16 *215:22 33.2201 
4 *215:22 *616:C 17.2 
*END

*D_NET *216 0.000122105
*CONN
*I *617:B I *D OA21x2_ASAP7_75t_L
*I *616:Y O *D AO221x1_ASAP7_75t_L
*CAP
1 *617:B 1.52156e-05
2 *616:Y 3.46415e-05
3 *216:8 4.9857e-05
4 *617:B *338:6 6.79089e-06
5 *617:B *338:12 0
6 *617:B *338:22 2.19685e-06
7 *216:8 *616:A1 1.17301e-06
8 *216:8 *616:A2 5.92153e-06
9 *216:8 *338:22 1.44167e-06
10 *72:10 *617:B 3.81627e-06
11 *207:10 *617:B 0
12 *215:22 *216:8 1.05018e-06
*RES
1 *616:Y *216:8 48.8403 
2 *216:8 *617:B 46.9844 
*END

*D_NET *217 0.00019426
*CONN
*I *620:A2 I *D AO221x1_ASAP7_75t_L
*I *697:C1 I *D OA222x2_ASAP7_75t_L
*I *618:Y O *D INVx1_ASAP7_75t_L
*CAP
1 *620:A2 1.30461e-06
2 *697:C1 0
3 *618:Y 0
4 *217:25 3.15989e-05
5 *217:14 2.17781e-05
6 *217:4 5.20724e-05
7 *620:A2 *620:C 6.19506e-06
8 *217:14 *417:107 7.13384e-06
9 *217:14 *417:122 1.46684e-05
10 *217:14 *417:130 5.06804e-06
11 *217:14 *452:24 3.73144e-06
12 *217:25 *448:127 2.22296e-05
13 *217:25 *452:22 1.22828e-05
14 *217:25 *452:24 4.2449e-06
15 *754:D *217:14 6.7842e-07
16 *40:10 *217:14 2.07088e-06
17 *73:8 *620:A2 2.55346e-06
18 *73:14 *217:25 1.49407e-08
19 *148:113 *217:25 6.6339e-06
*RES
1 *618:Y *217:4 17.2 
2 *217:4 *217:14 49.1237 
3 *217:14 *697:C1 17.2 
4 *217:4 *217:25 36.0926 
5 *217:25 *620:A2 36.0045 
*END

*D_NET *218 0.00033704
*CONN
*I *620:C I *D AO221x1_ASAP7_75t_L
*I *619:Y O *D AO21x1_ASAP7_75t_L
*CAP
1 *620:C 4.00771e-05
2 *619:Y 1.28595e-05
3 *218:20 5.13998e-05
4 *218:16 3.90885e-05
5 *218:10 4.06253e-05
6 *620:C *219:6 8.89159e-06
7 *620:C *412:97 1.35684e-06
8 *620:C *417:151 1.84236e-05
9 *620:C *425:94 3.89037e-06
10 *218:10 *619:A2 1.91973e-05
11 *218:16 *276:12 2.53426e-05
12 *218:16 *341:12 1.17092e-05
13 *218:20 *450:10 0
14 *218:20 *452:10 0
15 *620:A2 *620:C 6.19506e-06
16 *31:14 *620:C 3.573e-05
17 *73:8 *620:C 1.29837e-06
18 *186:42 *620:C 2.09547e-05
*RES
1 *619:Y *218:10 39.8705 
2 *218:10 *218:16 45.8712 
3 *218:16 *218:20 24.0519 
4 *218:20 *620:C 44.4761 
*END

*D_NET *219 0.000149021
*CONN
*I *621:B I *D OA21x2_ASAP7_75t_L
*I *620:Y O *D AO221x1_ASAP7_75t_L
*CAP
1 *621:B 0
2 *620:Y 5.41852e-05
3 *219:12 3.39709e-06
4 *219:6 5.75823e-05
5 *219:6 *339:32 1.40419e-08
6 *219:6 *417:151 1.66584e-05
7 *219:12 *401:88 8.29207e-06
8 *620:C *219:6 8.89159e-06
9 *73:8 *219:6 0
10 *145:56 *219:6 0
*RES
1 *620:Y *219:6 38.0582 
2 *219:6 *219:12 37.2158 
3 *219:12 *621:B 17.2 
*END

*D_NET *220 0.000260561
*CONN
*I *626:B1 I *D AOI22x1_ASAP7_75t_L
*I *622:Y O *D NAND2x1_ASAP7_75t_L
*CAP
1 *626:B1 0
2 *622:Y 1.40948e-05
3 *220:20 2.32129e-05
4 *220:14 3.96477e-05
5 *220:8 3.05296e-05
6 *220:8 *622:B 1.9334e-05
7 *220:8 *226:12 0
8 *220:14 *463:16 4.92772e-05
9 *220:20 *417:153 1.34532e-06
10 *220:20 *429:12 8.29794e-07
11 *220:20 *446:41 4.65486e-05
12 *220:20 *463:10 7.53304e-06
13 *220:20 *463:16 2.03526e-06
14 *739:D *220:14 2.03052e-05
15 *739:D *220:20 1.40419e-08
16 *37:39 *220:8 0
17 *148:117 *220:20 5.85387e-06
*RES
1 *622:Y *220:8 44.537 
2 *220:8 *220:14 47.7706 
3 *220:14 *220:20 34.5128 
4 *220:20 *626:B1 17.2 
*END

*D_NET *221 0.000130175
*CONN
*I *625:A I *D OR3x1_ASAP7_75t_L
*I *623:Y O *D NOR2x1_ASAP7_75t_L
*CAP
1 *625:A 5.76967e-06
2 *623:Y 5.13369e-06
3 *221:14 4.58107e-05
4 *221:8 4.51747e-05
5 *625:A *450:10 4.76577e-06
6 *221:8 *362:8 0
7 *221:8 *455:8 1.15207e-05
8 *221:14 *335:118 0
9 *221:14 *450:8 2.47522e-06
10 *970:A *221:14 9.52454e-06
11 *37:39 *625:A 0
*RES
1 *623:Y *221:8 38.9053 
2 *221:8 *221:14 48.8403 
3 *221:14 *625:A 38.9053 
*END

*D_NET *222 7.45494e-05
*CONN
*I *625:C I *D OR3x1_ASAP7_75t_L
*I *624:Y O *D AND3x1_ASAP7_75t_L
*CAP
1 *625:C 3.82584e-06
2 *624:Y 1.67449e-05
3 *222:8 2.05707e-05
4 *222:8 *450:10 1.95278e-06
5 *222:8 *452:10 0
6 *222:8 *453:169 1.27917e-05
7 *18:39 *222:8 1.86635e-05
*RES
1 *624:Y *222:8 48.4791 
2 *222:8 *625:C 36.0045 
*END

*D_NET *223 0.00030751
*CONN
*I *626:B2 I *D AOI22x1_ASAP7_75t_L
*I *625:Y O *D OR3x1_ASAP7_75t_L
*CAP
1 *626:B2 0
2 *625:Y 4.75751e-06
3 *223:18 2.99929e-07
4 *223:12 7.85121e-05
5 *223:8 8.29697e-05
6 *223:8 *232:10 1.33367e-05
7 *223:8 *335:139 7.99156e-07
8 *223:12 *226:18 8.49704e-05
9 *223:12 *232:18 6.87338e-06
10 *223:12 *234:14 3.2528e-06
11 *223:12 *278:146 1.49157e-05
12 *223:12 *339:41 0
13 *223:12 *450:22 1.28539e-05
14 *27:10 *223:18 2.03413e-06
15 *37:12 *223:18 1.93482e-06
*RES
1 *625:Y *223:8 38.9992 
2 *223:8 *223:12 48.1506 
3 *223:12 *223:18 35.057 
4 *223:18 *626:B2 17.2 
*END

*D_NET *224 0.000178269
*CONN
*I *700:C1 I *D OA222x2_ASAP7_75t_L
*I *628:B I *D AND2x2_ASAP7_75t_L
*I *627:Y O *D INVx1_ASAP7_75t_L
*CAP
1 *700:C1 0
2 *628:B 1.65789e-05
3 *627:Y 3.15209e-06
4 *224:27 1.42199e-05
5 *224:14 3.44049e-05
6 *224:6 3.51979e-05
7 *224:6 *453:102 5.51397e-07
8 *224:14 *288:10 1.10614e-05
9 *224:14 *453:102 1.07377e-06
10 *224:27 *448:14 0
11 *224:27 *453:102 2.86811e-06
12 *470:A *628:B 1.17973e-05
13 *34:25 *224:27 2.35094e-05
14 *71:18 *224:27 5.52807e-07
15 *209:91 *224:14 1.66587e-05
16 *209:91 *224:27 6.6421e-06
*RES
1 *627:Y *224:6 18.8045 
2 *224:6 *224:14 47.1544 
3 *224:14 *628:B 25.7572 
4 *224:6 *224:27 47.916 
5 *224:27 *700:C1 17.2 
*END

*D_NET *225 0.000209231
*CONN
*I *634:B1 I *D OA33x2_ASAP7_75t_L
*I *628:Y O *D AND2x2_ASAP7_75t_L
*CAP
1 *634:B1 7.14778e-06
2 *628:Y 7.95316e-06
3 *225:12 3.8041e-05
4 *225:8 3.88464e-05
5 *225:12 *230:10 0
6 *225:12 *453:16 1.67893e-05
7 *225:12 *453:25 5.00235e-05
8 *470:A *225:8 3.73144e-06
9 *4:12 *225:12 2.38942e-05
10 *17:12 *225:12 1.19879e-05
11 *209:91 *225:8 1.08167e-05
*RES
1 *628:Y *225:8 40.2831 
2 *225:8 *225:12 49.3005 
3 *225:12 *634:B1 21.4786 
*END

*D_NET *226 0.000454101
*CONN
*I *632:A1 I *D OA211x2_ASAP7_75t_L
*I *629:Y O *D AND2x2_ASAP7_75t_L
*CAP
1 *632:A1 1.53051e-06
2 *629:Y 9.18557e-06
3 *226:18 6.80128e-05
4 *226:12 8.51841e-05
5 *226:8 2.78874e-05
6 *632:A1 *229:6 2.90209e-08
7 *226:18 *278:146 1.01087e-05
8 *226:18 *402:14 0
9 *226:18 *407:96 1.72047e-05
10 *226:18 *444:20 3.05832e-06
11 *226:18 *450:22 8.49704e-05
12 *226:18 *458:87 6.93469e-07
13 *31:14 *226:8 1.48593e-05
14 *31:14 *226:12 4.12527e-05
15 *35:8 *226:18 3.19649e-06
16 *131:14 *632:A1 1.52651e-06
17 *146:67 *226:18 0
18 *211:37 *226:18 4.30517e-07
19 *220:8 *226:12 0
20 *223:12 *226:18 8.49704e-05
*RES
1 *629:Y *226:8 38.1438 
2 *226:8 *226:12 31.7485 
3 *226:12 *226:18 47.8845 
4 *226:18 *632:A1 35.4697 
*END

*D_NET *227 7.46012e-05
*CONN
*I *631:B I *D NOR3x1_ASAP7_75t_L
*I *630:Y O *D INVx1_ASAP7_75t_L
*CAP
1 *631:B 7.2063e-06
2 *630:Y 2.40886e-05
3 *227:8 3.12949e-05
4 *974:A1 *227:8 2.0895e-06
5 *974:C *227:8 5.00816e-06
6 *127:27 *631:B 1.9076e-06
7 *131:16 *227:8 0
8 *140:10 *631:B 3.00603e-06
*RES
1 *630:Y *227:8 44.5617 
2 *227:8 *631:B 40.0317 
*END

*D_NET *228 8.43031e-05
*CONN
*I *632:A2 I *D OA211x2_ASAP7_75t_L
*I *631:Y O *D NOR3x1_ASAP7_75t_L
*CAP
1 *632:A2 7.98677e-06
2 *631:Y 3.89478e-06
3 *228:8 1.18815e-05
4 *632:A2 *229:6 2.59632e-05
5 *632:A2 *400:8 9.50756e-06
6 *228:8 *229:10 4.97654e-06
7 *228:8 *231:69 2.0613e-06
8 *228:8 *400:14 1.69591e-05
9 *42:10 *228:8 5.52807e-07
10 *131:14 *632:A2 5.19552e-07
*RES
1 *631:Y *228:8 40.0317 
2 *228:8 *632:A2 42.9572 
*END

*D_NET *229 0.000252678
*CONN
*I *634:B2 I *D OA33x2_ASAP7_75t_L
*I *632:Y O *D OA211x2_ASAP7_75t_L
*CAP
1 *634:B2 2.96843e-06
2 *632:Y 4.09514e-05
3 *229:10 5.62777e-05
4 *229:8 5.33093e-05
5 *229:6 4.09514e-05
6 *229:10 *275:137 7.0121e-07
7 *229:10 *400:14 2.84286e-06
8 *229:10 *425:70 1.25098e-06
9 *229:10 *425:76 5.99998e-06
10 *229:10 *453:25 0
11 *632:A1 *229:6 2.90209e-08
12 *632:A2 *229:6 2.59632e-05
13 *4:128 *229:10 7.77087e-06
14 *41:10 *229:10 1.49407e-08
15 *42:10 *229:10 8.66977e-06
16 *131:14 *229:6 0
17 *140:12 *229:10 0
18 *228:8 *229:10 4.97654e-06
*RES
1 *632:Y *229:6 33.7796 
2 *229:6 *229:8 17.2 
3 *229:8 *229:10 35.4795 
4 *229:10 *634:B2 36.0045 
*END

*D_NET *230 0.000183659
*CONN
*I *634:B3 I *D OA33x2_ASAP7_75t_L
*I *633:Y O *D AO21x1_ASAP7_75t_L
*CAP
1 *634:B3 2.12891e-06
2 *633:Y 8.93219e-06
3 *230:10 7.5206e-05
4 *230:8 8.20093e-05
5 *230:10 *335:59 0
6 *230:10 *401:12 2.48762e-06
7 *230:10 *407:10 2.25787e-06
8 *230:10 *407:25 5.40656e-06
9 *230:10 *453:25 0
10 *4:12 *230:10 0
11 *17:12 *230:10 0
12 *140:12 *230:10 5.67747e-07
13 *146:33 *634:B3 1.35684e-06
14 *146:33 *230:10 3.30589e-06
15 *148:12 *230:10 0
16 *225:12 *230:10 0
*RES
1 *633:Y *230:8 38.1438 
2 *230:8 *230:10 48.9954 
3 *230:10 *634:B3 35.4697 
*END

*D_NET *231 0.000894154
*CONN
*I *639:A2 I *D OA21x2_ASAP7_75t_L
*I *685:B I *D NOR2x1_ASAP7_75t_L
*I *680:B I *D NOR2x1_ASAP7_75t_L
*I *655:B I *D NOR2x1_ASAP7_75t_L
*I *635:Y O *D OR2x4_ASAP7_75t_L
*CAP
1 *639:A2 2.19765e-05
2 *685:B 2.95434e-06
3 *680:B 2.17715e-06
4 *655:B 0
5 *635:Y 0
6 *231:79 2.55888e-05
7 *231:73 4.50183e-05
8 *231:69 6.31486e-05
9 *231:63 3.15832e-05
10 *231:30 1.73195e-05
11 *231:20 4.06574e-05
12 *231:18 9.1245e-05
13 *231:12 8.14515e-05
14 *231:4 2.41623e-05
15 *639:A2 *450:45 1.44167e-06
16 *639:A2 *450:51 7.42543e-06
17 *680:B *266:10 5.85387e-06
18 *685:B *444:67 5.85387e-06
19 *231:12 *635:A 8.06588e-06
20 *231:18 *285:42 8.18938e-06
21 *231:18 *402:94 0
22 *231:18 *405:18 6.2621e-05
23 *231:18 *407:72 1.13222e-05
24 *231:18 *417:37 1.09711e-06
25 *231:18 *444:39 0
26 *231:18 *458:17 0
27 *231:18 *458:63 7.74213e-06
28 *231:20 *401:29 0
29 *231:20 *440:24 4.7643e-07
30 *231:30 *266:10 3.51063e-06
31 *231:30 *275:122 1.90593e-05
32 *231:30 *282:6 3.09538e-06
33 *231:30 *401:29 1.90593e-05
34 *231:30 *449:60 5.27185e-06
35 *231:63 *635:A 2.20493e-06
36 *231:63 *400:16 1.35684e-06
37 *231:63 *400:27 1.30336e-05
38 *231:63 *402:10 1.37195e-06
39 *231:69 *631:A 1.35684e-06
40 *231:69 *400:14 1.09842e-06
41 *231:69 *425:64 1.66706e-05
42 *231:69 *446:8 5.21445e-05
43 *231:73 *425:64 2.69894e-06
44 *231:73 *446:6 0
45 *231:79 *287:14 7.6881e-06
46 *231:79 *458:67 1.61163e-06
47 *4:151 *231:20 9.17327e-06
48 *28:45 *639:A2 9.08513e-06
49 *36:10 *231:79 1.49407e-08
50 *36:16 *231:73 5.19552e-07
51 *42:10 *231:69 4.3639e-06
52 *127:27 *231:69 6.7842e-07
53 *158:10 *231:20 4.45583e-05
54 *158:10 *231:30 4.77005e-06
55 *158:21 *231:18 9.12467e-06
56 *158:21 *231:20 3.29574e-05
57 *159:10 *231:18 1.04777e-05
58 *159:10 *231:20 4.77651e-05
59 *228:8 *231:69 2.0613e-06
*RES
1 *635:Y *231:4 17.2 
2 *231:4 *231:12 41.5033 
3 *231:12 *231:18 47.4537 
4 *231:18 *231:20 27.032 
5 *231:20 *231:30 49.8002 
6 *231:30 *655:B 34.4 
7 *231:20 *680:B 36.0045 
8 *231:18 *685:B 36.0045 
9 *231:4 *231:63 41.5795 
10 *231:63 *231:69 37.7784 
11 *231:69 *231:73 33.7796 
12 *231:73 *231:79 37.2158 
13 *231:79 *639:A2 30.0358 
*END

*D_NET *232 0.000300841
*CONN
*I *638:A2 I *D AO21x1_ASAP7_75t_L
*I *636:Y O *D INVx1_ASAP7_75t_L
*CAP
1 *638:A2 7.58804e-07
2 *636:Y 5.68136e-05
3 *232:18 2.34455e-05
4 *232:10 4.58279e-05
5 *232:6 7.99549e-05
6 *638:A2 *638:A1 1.885e-06
7 *638:A2 *638:B 4.06202e-06
8 *232:6 *308:13 1.67916e-05
9 *232:10 *701:A 4.10928e-06
10 *232:10 *335:139 0
11 *232:10 *402:75 4.65366e-06
12 *232:10 *450:10 5.26936e-06
13 *232:18 *233:16 3.05118e-08
14 *232:18 *234:14 1.33941e-05
15 *232:18 *335:128 8.08364e-06
16 *232:18 *455:12 1.30404e-06
17 *18:39 *232:10 1.42471e-05
18 *28:6 *232:6 0
19 *28:64 *232:6 0
20 *223:8 *232:10 1.33367e-05
21 *223:12 *232:18 6.87338e-06
*RES
1 *636:Y *232:6 45.5457 
2 *232:6 *232:10 37.9433 
3 *232:10 *232:18 44.3219 
4 *232:18 *638:A2 35.4697 
*END

*D_NET *233 0.000418844
*CONN
*I *638:B I *D AO21x1_ASAP7_75t_L
*I *637:Y O *D OA211x2_ASAP7_75t_L
*CAP
1 *638:B 8.6135e-06
2 *637:Y 8.09965e-07
3 *233:16 4.32048e-05
4 *233:12 8.34769e-05
5 *233:8 4.96956e-05
6 *638:B *638:A1 3.66711e-06
7 *233:12 *237:34 2.49413e-05
8 *233:12 *339:41 3.74016e-07
9 *233:12 *402:14 5.50423e-05
10 *233:12 *429:12 3.189e-05
11 *233:12 *450:22 0
12 *233:16 *622:B 9.73205e-07
13 *233:16 *281:14 4.1887e-06
14 *233:16 *450:18 5.86714e-06
15 *638:A2 *638:B 4.06202e-06
16 *18:10 *233:16 0
17 *18:18 *233:12 2.73563e-05
18 *28:22 *233:12 4.54724e-05
19 *28:26 *233:12 1.00837e-05
20 *28:45 *233:8 6.72662e-07
21 *131:12 *233:8 1.10902e-06
22 *209:118 *233:16 0
23 *210:12 *233:12 1.73127e-05
24 *232:18 *233:16 3.05118e-08
*RES
1 *637:Y *233:8 35.2447 
2 *233:8 *233:12 44.2547 
3 *233:12 *233:16 39.4451 
4 *233:16 *638:B 39.2134 
*END

*D_NET *234 0.000341032
*CONN
*I *639:B I *D OA21x2_ASAP7_75t_L
*I *638:Y O *D AO21x1_ASAP7_75t_L
*CAP
1 *639:B 1.19328e-05
2 *638:Y 3.45524e-06
3 *234:18 3.28673e-05
4 *234:14 7.04095e-05
5 *234:10 5.29301e-05
6 *639:B *235:8 1.04475e-06
7 *234:10 *638:A1 1.885e-06
8 *234:10 *450:10 0
9 *234:14 *275:141 1.37331e-05
10 *234:14 *278:146 7.87216e-06
11 *234:14 *340:26 4.52575e-06
12 *234:14 *455:12 8.21294e-06
13 *234:18 *275:145 5.95412e-06
14 *37:12 *234:18 1.58526e-05
15 *37:39 *234:14 9.06457e-05
16 *209:106 *234:14 3.06445e-06
17 *223:12 *234:14 3.2528e-06
18 *232:18 *234:14 1.33941e-05
*RES
1 *638:Y *234:10 36.3144 
2 *234:10 *234:14 40.3589 
3 *234:14 *234:18 33.2502 
4 *234:18 *639:B 40.2831 
*END

*D_NET *235 0.000210948
*CONN
*I *641:B1 I *D AOI22x1_ASAP7_75t_L
*I *639:Y O *D OA21x2_ASAP7_75t_L
*CAP
1 *641:B1 6.28442e-06
2 *639:Y 4.28364e-06
3 *235:12 3.22944e-05
4 *235:8 3.02936e-05
5 *235:12 *290:30 3.77678e-05
6 *235:12 *290:38 6.42451e-07
7 *235:12 *342:25 0
8 *235:12 *453:70 1.26641e-06
9 *639:B *235:8 1.04475e-06
10 *27:10 *235:12 6.73854e-05
11 *37:12 *235:12 2.85842e-05
12 *130:8 *235:12 0
13 *213:42 *235:12 1.10064e-06
*RES
1 *639:Y *235:8 36.0045 
2 *235:8 *235:12 47.0478 
3 *235:12 *641:B1 20.9438 
*END

*D_NET *236 5.28897e-05
*CONN
*I *641:B2 I *D AOI22x1_ASAP7_75t_L
*I *640:Y O *D NAND2x1_ASAP7_75t_L
*CAP
1 *641:B2 0
2 *640:Y 1.23789e-05
3 *236:10 1.23789e-05
4 *236:10 *640:A 3.89037e-06
5 *236:10 *342:25 1.32106e-05
6 *27:8 *236:10 5.34278e-06
7 *130:8 *236:10 5.6882e-06
*RES
1 *640:Y *236:10 43.7188 
2 *236:10 *641:B2 34.4 
*END

*D_NET *237 0.000385601
*CONN
*I *645:A1 I *D AO22x1_ASAP7_75t_L
*I *703:C1 I *D OA222x2_ASAP7_75t_L
*I *642:Y O *D INVx1_ASAP7_75t_L
*CAP
1 *645:A1 3.75342e-06
2 *703:C1 1.32499e-05
3 *642:Y 2.0264e-05
4 *237:34 2.07868e-05
5 *237:26 5.28733e-05
6 *237:20 6.01353e-05
7 *237:16 2.92275e-05
8 *237:10 3.09391e-05
9 *645:A1 *402:75 8.65015e-06
10 *237:10 *335:139 2.19448e-07
11 *237:16 *291:14 1.77268e-05
12 *237:20 *281:14 0
13 *237:20 *402:75 4.03483e-05
14 *758:D *703:C1 6.7842e-07
15 *758:D *237:26 8.31044e-07
16 *14:23 *237:10 6.72417e-07
17 *18:10 *237:20 5.16782e-06
18 *18:18 *237:26 4.26751e-07
19 *25:10 *645:A1 0
20 *25:10 *237:20 0
21 *25:21 *645:A1 0
22 *28:18 *237:16 7.05157e-07
23 *31:21 *237:26 5.25164e-06
24 *92:14 *237:34 4.4115e-06
25 *148:129 *237:34 1.86792e-06
26 *149:14 *237:16 4.13307e-06
27 *210:12 *237:16 0
28 *210:12 *237:34 2.40026e-05
29 *213:18 *237:10 1.43369e-05
30 *233:12 *237:34 2.49413e-05
*RES
1 *642:Y *237:10 45.4064 
2 *237:10 *237:16 39.3781 
3 *237:16 *237:20 30.9976 
4 *237:20 *237:26 40.9112 
5 *237:26 *237:34 40.3244 
6 *237:34 *703:C1 40.8179 
7 *237:16 *645:A1 37.4974 
*END

*D_NET *238 8.28925e-05
*CONN
*I *645:B1 I *D AO22x1_ASAP7_75t_L
*I *643:Y O *D NAND2x1_ASAP7_75t_L
*CAP
1 *645:B1 0
2 *643:Y 0
3 *238:10 2.04397e-05
4 *238:6 2.04397e-05
5 *238:10 *240:10 0
6 *238:10 *335:139 1.59825e-05
7 *14:10 *238:10 2.77657e-06
8 *14:23 *238:10 2.10266e-05
9 *148:182 *238:10 2.22736e-06
*RES
1 *643:Y *238:6 34.4 
2 *238:6 *238:10 39.1635 
3 *238:10 *645:B1 17.2 
*END

*D_NET *239 0.000102995
*CONN
*I *645:B2 I *D AO22x1_ASAP7_75t_L
*I *644:Y O *D AO21x1_ASAP7_75t_L
*CAP
1 *645:B2 2.18347e-05
2 *644:Y 2.49129e-05
3 *239:10 4.67476e-05
4 *239:10 *240:10 1.09842e-06
5 *239:10 *335:139 0
6 *239:10 *367:10 1.09842e-06
7 *239:10 *368:6 0
8 *644:B *239:10 7.30263e-06
*RES
1 *644:Y *239:10 48.054 
2 *239:10 *645:B2 46.1661 
*END

*D_NET *240 0.000211998
*CONN
*I *646:B I *D AO21x1_ASAP7_75t_L
*I *645:Y O *D AO22x1_ASAP7_75t_L
*CAP
1 *646:B 4.4173e-05
2 *645:Y 0
3 *240:10 8.74537e-05
4 *240:6 4.32807e-05
5 *646:B *397:32 6.17507e-06
6 *646:B *466:14 1.4252e-05
7 *240:10 *335:139 1.67815e-06
8 *644:B *240:10 1.89962e-06
9 *14:10 *240:10 0
10 *77:10 *646:B 2.51047e-06
11 *148:182 *240:10 9.47659e-06
12 *238:10 *240:10 0
13 *239:10 *240:10 1.09842e-06
*RES
1 *645:Y *240:6 34.4 
2 *240:6 *240:10 48.1741 
3 *240:10 *646:B 46.6154 
*END

*D_NET *241 0.000150393
*CONN
*I *650:A1 I *D AO22x1_ASAP7_75t_L
*I *704:C1 I *D OA222x2_ASAP7_75t_L
*I *647:Y O *D INVx1_ASAP7_75t_L
*CAP
1 *650:A1 0
2 *704:C1 1.6161e-05
3 *647:Y 2.35273e-05
4 *241:19 9.3384e-06
5 *241:6 4.90268e-05
6 *704:C1 *704:C2 7.85338e-06
7 *241:6 *454:10 4.31048e-06
8 *969:A *704:C1 1.89116e-05
9 *969:A *241:6 1.95129e-06
10 *16:25 *241:19 6.53224e-07
11 *209:118 *241:19 1.86598e-05
*RES
1 *647:Y *241:6 30.0358 
2 *241:6 *704:C1 26.292 
3 *241:6 *241:19 41.158 
4 *241:19 *650:A1 17.2 
*END

*D_NET *242 7.11309e-05
*CONN
*I *650:B1 I *D AO22x1_ASAP7_75t_L
*I *648:Y O *D NAND2x1_ASAP7_75t_L
*CAP
1 *650:B1 1.75316e-06
2 *648:Y 1.22061e-05
3 *242:8 1.39593e-05
4 *650:B1 *243:14 6.14781e-06
5 *650:B1 *397:6 1.4181e-05
6 *242:8 *244:8 2.28835e-05
7 *14:10 *242:8 0
8 *15:12 *242:8 0
*RES
1 *648:Y *242:8 44.537 
2 *242:8 *650:B1 38.6786 
*END

*D_NET *243 0.000147022
*CONN
*I *650:B2 I *D AO22x1_ASAP7_75t_L
*I *649:Y O *D AO21x1_ASAP7_75t_L
*CAP
1 *650:B2 0
2 *649:Y 2.79725e-05
3 *243:14 2.13731e-05
4 *243:10 4.93456e-05
5 *243:10 *649:A1 0
6 *243:10 *368:22 1.40419e-08
7 *243:14 *397:6 9.23007e-06
8 *243:14 *402:73 1.62312e-05
9 *644:B *243:10 5.17782e-06
10 *650:B1 *243:14 6.14781e-06
11 *14:23 *243:10 3.16603e-06
12 *209:145 *243:10 8.36385e-06
*RES
1 *649:Y *243:10 48.4472 
2 *243:10 *243:14 33.7796 
3 *243:14 *650:B2 17.2 
*END

*D_NET *244 0.000100786
*CONN
*I *651:B I *D AO21x1_ASAP7_75t_L
*I *650:Y O *D AO22x1_ASAP7_75t_L
*CAP
1 *651:B 1.57702e-05
2 *650:Y 1.40035e-05
3 *244:8 2.97737e-05
4 *244:8 *402:64 7.47402e-07
5 *244:8 *402:75 0
6 *648:A *651:B 6.61478e-06
7 *14:10 *244:8 0
8 *78:8 *651:B 2.741e-06
9 *148:164 *244:8 8.25178e-06
10 *209:118 *244:8 0
11 *242:8 *244:8 2.28835e-05
*RES
1 *650:Y *244:8 46.7897 
2 *244:8 *651:B 44.0269 
*END

*D_NET *245 0.000356745
*CONN
*I *653:B I *D AO21x1_ASAP7_75t_L
*I *652:Y O *D AND3x1_ASAP7_75t_L
*CAP
1 *653:B 5.26411e-06
2 *652:Y 5.46087e-05
3 *245:10 2.20814e-05
4 *245:6 7.1426e-05
5 *245:6 *652:B 3.56648e-06
6 *245:6 *654:B2 7.80667e-06
7 *245:6 *294:22 0
8 *245:6 *294:30 0
9 *245:10 *705:C1 1.27881e-05
10 *245:10 *744:CLK 1.63973e-05
11 *245:10 *292:10 2.05883e-06
12 *245:10 *302:10 2.87273e-06
13 *245:10 *302:25 7.45175e-05
14 *245:10 *345:26 3.36915e-05
15 *245:10 *457:12 3.62059e-05
16 *653:A2 *653:B 2.71368e-06
17 *663:A2 *245:6 1.44167e-06
18 *81:10 *245:6 0
19 *107:18 *245:6 9.30483e-06
*RES
1 *652:Y *245:6 39.1278 
2 *245:6 *245:10 47.611 
3 *245:10 *653:B 37.0741 
*END

*D_NET *246 0.00015862
*CONN
*I *654:C I *D AO221x2_ASAP7_75t_L
*I *653:Y O *D AO21x1_ASAP7_75t_L
*CAP
1 *654:C 0
2 *653:Y 5.84085e-06
3 *246:14 2.67334e-05
4 *246:8 3.25742e-05
5 *246:14 *654:A1 3.90258e-06
6 *246:14 *654:A2 2.20493e-06
7 *246:14 *412:24 4.6335e-06
8 *246:14 *412:32 4.40246e-06
9 *744:D *246:14 3.55835e-05
10 *60:18 *246:14 1.26975e-05
11 *67:18 *246:14 3.00471e-05
*RES
1 *653:Y *246:8 36.5393 
2 *246:8 *246:14 46.7927 
3 *246:14 *654:C 17.2 
*END

*D_NET *247 0.00026896
*CONN
*I *659:B1 I *D OA22x2_ASAP7_75t_L
*I *655:Y O *D NOR2x1_ASAP7_75t_L
*CAP
1 *659:B1 4.63048e-06
2 *655:Y 3.02887e-06
3 *247:16 4.73034e-05
4 *247:14 6.54244e-05
5 *247:8 2.57803e-05
6 *247:8 *282:10 1.31409e-05
7 *247:8 *417:54 1.29359e-05
8 *247:16 *248:10 1.18035e-05
9 *247:16 *293:18 2.22736e-06
10 *247:16 *417:54 0
11 *247:16 *448:54 7.6881e-06
12 *659:A2 *659:B1 1.12561e-05
13 *4:94 *247:16 1.66032e-05
14 *4:105 *247:16 1.34402e-05
15 *13:8 *247:16 2.33787e-05
16 *20:93 *247:16 3.17029e-06
17 *64:12 *247:16 1.09067e-06
18 *66:10 *247:14 0
19 *71:28 *247:16 2.32626e-06
20 *96:8 *247:16 0
21 *208:14 *247:14 0
22 *211:8 *247:14 3.73144e-06
*RES
1 *655:Y *247:8 38.9053 
2 *247:8 *247:14 44.5617 
3 *247:14 *247:16 38.8585 
4 *247:16 *659:B1 37.609 
*END

*D_NET *248 0.000351182
*CONN
*I *657:B I *D NOR2x1_ASAP7_75t_L
*I *656:Y O *D OA21x2_ASAP7_75t_L
*CAP
1 *657:B 0
2 *656:Y 3.9114e-06
3 *248:14 2.56319e-05
4 *248:10 8.97374e-05
5 *248:8 6.80169e-05
6 *248:10 *659:B2 8.33296e-06
7 *248:10 *377:25 0
8 *248:14 *956:A 1.77608e-05
9 *248:14 *249:8 5.08828e-06
10 *248:14 *441:6 1.87467e-05
11 *4:94 *248:10 4.89814e-06
12 *4:105 *248:10 2.84286e-06
13 *13:8 *248:10 1.07514e-05
14 *20:104 *248:10 3.66223e-05
15 *71:28 *248:10 2.19448e-07
16 *106:17 *248:10 0
17 *145:23 *248:10 0
18 *145:36 *248:10 0
19 *146:10 *248:10 1.70866e-06
20 *146:21 *248:10 5.75209e-06
21 *146:86 *248:10 1.12894e-06
22 *146:94 *248:10 1.99672e-05
23 *146:96 *248:8 2.03526e-06
24 *211:12 *248:10 1.6226e-05
25 *247:16 *248:10 1.18035e-05
*RES
1 *656:Y *248:8 36.0045 
2 *248:8 *248:10 57.4429 
3 *248:10 *248:14 42.3368 
4 *248:14 *657:B 17.2 
*END

*D_NET *249 7.57367e-05
*CONN
*I *658:C I *D AO221x2_ASAP7_75t_L
*I *657:Y O *D NOR2x1_ASAP7_75t_L
*CAP
1 *658:C 1.32758e-05
2 *657:Y 7.48146e-06
3 *249:8 2.07572e-05
4 *658:C *366:18 8.87893e-06
5 *658:C *441:72 7.84037e-07
6 *658:C *441:81 1.87127e-05
7 *658:C *441:89 2.52755e-07
8 *249:8 *441:6 5.0551e-07
9 *248:14 *249:8 5.08828e-06
*RES
1 *657:Y *249:8 39.2134 
2 *249:8 *658:C 49.5488 
*END

*D_NET *250 0.000107215
*CONN
*I *659:B2 I *D OA22x2_ASAP7_75t_L
*I *658:Y O *D AO221x2_ASAP7_75t_L
*CAP
1 *659:B2 2.65519e-06
2 *658:Y 3.22464e-05
3 *250:8 3.49016e-05
4 *250:8 *659:A1 5.62196e-06
5 *250:8 *293:18 2.27479e-06
6 *659:A2 *659:B2 5.62196e-06
7 *659:A2 *250:8 5.22376e-07
8 *13:8 *659:B2 8.33296e-06
9 *80:10 *250:8 6.70433e-06
10 *248:10 *659:B2 8.33296e-06
*RES
1 *658:Y *250:8 49.9099 
2 *250:8 *659:B2 38.8203 
*END

*D_NET *251 0.000205035
*CONN
*I *662:A1 I *D AO221x2_ASAP7_75t_L
*I *708:C1 I *D OA222x2_ASAP7_75t_L
*I *660:Y O *D INVx1_ASAP7_75t_L
*CAP
1 *662:A1 1.63242e-06
2 *708:C1 1.573e-05
3 *660:Y 9.48944e-06
4 *251:17 2.17887e-05
5 *251:6 4.53757e-05
6 *662:A1 *347:28 5.0551e-07
7 *708:C1 *708:C2 2.20493e-06
8 *251:17 *292:18 2.30558e-05
9 *251:17 *294:30 1.12894e-06
10 *61:12 *251:6 7.86349e-07
11 *148:62 *251:17 7.69564e-05
12 *212:61 *251:17 2.85464e-06
13 *212:73 *251:17 3.52601e-06
*RES
1 *660:Y *251:6 22.0134 
2 *251:6 *708:C1 24.6875 
3 *251:6 *251:17 43.1056 
4 *251:17 *662:A1 35.4697 
*END

*D_NET *252 0.00027532
*CONN
*I *662:C I *D AO221x2_ASAP7_75t_L
*I *661:Y O *D AO21x1_ASAP7_75t_L
*CAP
1 *662:C 1.67625e-06
2 *661:Y 7.08557e-06
3 *252:18 5.52753e-05
4 *252:12 6.89564e-05
5 *252:8 2.2443e-05
6 *662:C *347:28 2.28976e-06
7 *252:12 *413:8 7.77896e-06
8 *252:18 *294:18 0
9 *60:18 *252:12 6.65177e-06
10 *105:8 *252:12 3.54383e-05
11 *118:12 *252:8 4.41457e-06
12 *148:45 *252:12 3.50003e-05
13 *148:56 *252:12 1.29984e-05
14 *148:56 *252:18 9.18153e-06
15 *148:60 *252:18 6.13026e-06
*RES
1 *661:Y *252:8 37.609 
2 *252:8 *252:12 39.6328 
3 *252:12 *252:18 37.12 
4 *252:18 *662:C 36.0045 
*END

*D_NET *253 6.59008e-05
*CONN
*I *663:B I *D OA21x2_ASAP7_75t_L
*I *662:Y O *D AO221x2_ASAP7_75t_L
*CAP
1 *663:B 1.3858e-05
2 *662:Y 3.51661e-06
3 *253:8 1.73747e-05
4 *663:B *294:18 2.25196e-06
5 *662:A2 *253:8 1.56713e-06
6 *81:10 *663:B 1.01504e-05
7 *107:10 *663:B 1.36411e-05
8 *148:62 *663:B 3.54095e-06
*RES
1 *662:Y *253:8 36.0045 
2 *253:8 *663:B 48.4791 
*END

*D_NET *254 0.000345813
*CONN
*I *666:A1 I *D AO221x2_ASAP7_75t_L
*I *709:C1 I *D OA222x2_ASAP7_75t_L
*I *664:Y O *D INVx1_ASAP7_75t_L
*CAP
1 *666:A1 7.56325e-06
2 *709:C1 7.62177e-06
3 *664:Y 9.59032e-06
4 *254:35 4.97056e-05
5 *254:18 5.5468e-05
6 *254:16 2.76236e-05
7 *254:10 3.151e-05
8 *666:A1 *255:18 1.98062e-06
9 *666:A1 *402:120 1.11911e-05
10 *709:C1 *275:73 1.87285e-05
11 *709:C1 *456:57 8.27207e-06
12 *254:10 *296:12 1.26387e-05
13 *254:10 *371:12 6.7842e-07
14 *254:16 *348:20 2.06545e-05
15 *254:16 *371:20 1.84515e-06
16 *254:18 *710:A1 5.20363e-06
17 *254:18 *275:73 1.87236e-05
18 *254:18 *456:57 1.40926e-06
19 *254:35 *348:14 5.12628e-06
20 *254:35 *348:20 1.62635e-05
21 *666:A2 *666:A1 6.17507e-06
22 *52:16 *254:16 9.98595e-07
23 *55:16 *254:16 1.41463e-05
24 *209:14 *254:35 2.77388e-07
25 *209:18 *254:35 2.77387e-08
26 *209:43 *254:35 9.89307e-06
27 *212:47 *666:A1 2.4974e-06
*RES
1 *664:Y *254:10 40.4159 
2 *254:10 *254:16 44.5726 
3 *254:16 *254:18 6.57027 
4 *254:18 *709:C1 42.4809 
5 *254:18 *254:35 47.8192 
6 *254:35 *666:A1 40.2282 
*END

*D_NET *255 0.000387519
*CONN
*I *666:C I *D AO221x2_ASAP7_75t_L
*I *665:Y O *D AO21x1_ASAP7_75t_L
*CAP
1 *666:C 1.22274e-06
2 *665:Y 5.30113e-06
3 *255:18 6.96721e-05
4 *255:16 7.86879e-05
5 *255:10 1.55397e-05
6 *255:10 *292:10 1.98924e-06
7 *255:10 *347:22 1.17275e-05
8 *255:18 *292:10 0
9 *255:18 *347:22 3.42066e-06
10 *255:18 *402:120 2.59454e-06
11 *255:18 *456:183 3.88115e-06
12 *666:A1 *255:18 1.98062e-06
13 *666:A2 *666:C 1.35684e-06
14 *107:10 *255:18 2.71478e-05
15 *107:18 *255:18 5.67747e-07
16 *145:143 *255:18 0
17 *209:20 *255:18 0.000147839
18 *209:43 *255:18 4.4115e-06
19 *212:47 *666:C 4.06202e-06
20 *212:51 *255:18 5.73724e-07
21 *212:57 *255:18 5.54318e-06
*RES
1 *665:Y *255:10 39.4118 
2 *255:10 *255:16 38.1438 
3 *255:16 *255:18 65.8904 
4 *255:18 *666:C 35.4697 
*END

*D_NET *256 0.000189011
*CONN
*I *667:B I *D OA21x2_ASAP7_75t_L
*I *666:Y O *D AO221x2_ASAP7_75t_L
*CAP
1 *667:B 0
2 *666:Y 4.95573e-06
3 *256:20 1.20381e-05
4 *256:12 5.45766e-05
5 *256:8 4.74942e-05
6 *256:8 *412:45 1.26044e-05
7 *256:12 *476:B 1.23489e-06
8 *476:C *256:12 1.62742e-05
9 *55:16 *256:8 7.86793e-06
10 *57:30 *256:12 3.04311e-07
11 *145:134 *256:20 5.7953e-06
12 *145:143 *256:20 8.16553e-06
13 *148:62 *256:20 1.57954e-05
14 *212:95 *256:12 1.88951e-06
15 *212:95 *256:20 1.49407e-08
*RES
1 *666:Y *256:8 38.9053 
2 *256:8 *256:12 34.8492 
3 *256:12 *256:20 43.7754 
4 *256:20 *667:B 17.2 
*END

*D_NET *257 0.000219913
*CONN
*I *671:A1 I *D AO221x2_ASAP7_75t_L
*I *710:C1 I *D OA222x2_ASAP7_75t_L
*I *668:Y O *D INVx1_ASAP7_75t_L
*CAP
1 *671:A1 0
2 *710:C1 5.53857e-06
3 *668:Y 2.5525e-05
4 *257:25 2.66216e-05
5 *257:10 5.76852e-05
6 *710:C1 *278:34 1.88951e-06
7 *710:C1 *447:8 1.02895e-05
8 *257:10 *278:34 1.28127e-05
9 *257:10 *278:92 0
10 *257:10 *295:38 1.23489e-06
11 *257:25 *671:A2 3.89037e-06
12 *257:25 *764:CLK 3.59606e-06
13 *257:25 *275:84 7.82377e-07
14 *257:25 *278:92 0
15 *257:25 *278:100 6.35292e-07
16 *257:25 *447:14 5.99614e-06
17 *20:48 *257:10 2.2154e-05
18 *20:48 *257:25 4.12478e-05
19 *83:10 *257:25 1.40419e-08
*RES
1 *668:Y *257:10 48.1674 
2 *257:10 *710:C1 38.1438 
3 *257:10 *257:25 38.4019 
4 *257:25 *671:A1 17.2 
*END

*D_NET *258 0.000219758
*CONN
*I *670:B I *D AO21x1_ASAP7_75t_L
*I *669:Y O *D AND3x1_ASAP7_75t_L
*CAP
1 *670:B 0
2 *669:Y 1.76672e-05
3 *258:12 2.8381e-05
4 *258:8 4.60482e-05
5 *258:8 *677:A2 1.94746e-05
6 *258:8 *349:28 4.32502e-06
7 *258:12 *456:69 2.15628e-05
8 *258:12 *456:88 2.88655e-05
9 *258:12 *456:109 7.55992e-06
10 *677:B *258:12 2.48389e-05
11 *10:14 *258:12 1.83109e-06
12 *58:20 *258:12 3.17029e-06
13 *104:16 *258:12 1.60335e-05
*RES
1 *669:Y *258:8 43.492 
2 *258:8 *258:12 47.611 
3 *258:12 *670:B 17.2 
*END

*D_NET *259 0.000149225
*CONN
*I *671:C I *D AO221x2_ASAP7_75t_L
*I *670:Y O *D AO21x1_ASAP7_75t_L
*CAP
1 *671:C 0
2 *670:Y 3.45964e-06
3 *259:14 3.44719e-05
4 *259:8 3.79315e-05
5 *259:14 *710:A1 9.97906e-07
6 *259:14 *264:10 5.47448e-06
7 *259:14 *275:84 0
8 *259:14 *349:28 7.80516e-06
9 *259:14 *371:28 6.70946e-07
10 *259:14 *421:22 2.28976e-06
11 *259:14 *456:69 4.04838e-05
12 *677:B *259:14 6.42287e-06
13 *20:75 *259:14 2.68255e-06
14 *52:24 *259:14 4.45647e-06
15 *55:22 *259:14 7.0121e-07
16 *83:10 *259:14 1.37649e-06
*RES
1 *670:Y *259:8 35.4697 
2 *259:8 *259:14 45.0749 
3 *259:14 *671:C 17.2 
*END

*D_NET *260 0.000516348
*CONN
*I *675:A1 I *D AO221x2_ASAP7_75t_L
*I *711:C1 I *D OA222x2_ASAP7_75t_L
*I *672:Y O *D INVx1_ASAP7_75t_L
*CAP
1 *675:A1 8.31062e-06
2 *711:C1 0
3 *672:Y 0
4 *260:35 5.71812e-05
5 *260:28 1.8812e-05
6 *260:22 3.70142e-05
7 *260:14 6.70728e-05
8 *260:12 2.73125e-05
9 *260:6 2.73125e-05
10 *675:A1 *675:A2 1.44167e-06
11 *260:12 *360:36 1.04475e-06
12 *260:22 *765:CLK 1.35684e-06
13 *260:22 *278:100 9.52454e-06
14 *260:22 *451:83 3.6269e-06
15 *260:28 *711:B1 7.35354e-06
16 *260:28 *711:C2 5.00816e-06
17 *260:28 *275:103 1.14969e-05
18 *260:28 *278:100 4.97654e-06
19 *260:28 *412:61 6.14482e-06
20 *260:28 *451:21 1.41724e-06
21 *260:28 *451:32 3.70348e-06
22 *260:28 *451:72 1.74049e-06
23 *260:35 *263:12 1.32997e-05
24 *260:35 *278:104 3.77892e-06
25 *260:35 *351:34 0
26 *260:35 *412:74 3.17412e-05
27 *260:35 *451:83 9.60838e-06
28 *84:8 *260:35 8.84014e-07
29 *100:10 *260:28 1.02592e-05
30 *101:8 *260:35 2.7748e-06
31 *145:120 *260:12 6.53077e-05
32 *209:60 *260:22 1.12894e-06
33 *209:60 *260:35 1.04058e-05
34 *212:97 *260:12 6.53077e-05
*RES
1 *672:Y *260:6 34.4 
2 *260:6 *260:12 46.6794 
3 *260:12 *260:14 17.2 
4 *260:14 *260:22 44.1686 
5 *260:22 *260:28 34.8812 
6 *260:28 *711:C1 17.2 
7 *260:14 *260:35 45.0533 
8 *260:35 *675:A1 39.2134 
*END

*D_NET *261 0.000102548
*CONN
*I *674:B I *D AO21x1_ASAP7_75t_L
*I *673:Y O *D AND3x1_ASAP7_75t_L
*CAP
1 *674:B 1.83832e-06
2 *673:Y 1.00976e-05
3 *261:16 2.03829e-05
4 *261:8 2.86422e-05
5 *674:B *712:A2 3.90258e-06
6 *261:8 *712:A1 7.31606e-07
7 *261:8 *264:22 1.09408e-05
8 *261:8 *421:22 1.09408e-05
9 *261:16 *711:B1 5.19552e-07
10 *261:16 *711:B2 1.44167e-06
11 *261:16 *437:10 1.27953e-05
12 *261:16 *441:178 2.83874e-07
13 *261:16 *456:132 3.05118e-08
*RES
1 *673:Y *261:8 44.537 
2 *261:8 *261:16 43.7188 
3 *261:16 *674:B 35.4697 
*END

*D_NET *262 0.00018746
*CONN
*I *675:C I *D AO221x2_ASAP7_75t_L
*I *674:Y O *D AO21x1_ASAP7_75t_L
*CAP
1 *675:C 0
2 *674:Y 0
3 *262:20 3.05885e-05
4 *262:10 5.22242e-05
5 *262:6 2.16358e-05
6 *262:10 *712:A1 5.05266e-06
7 *262:10 *297:10 5.37866e-07
8 *262:10 *350:30 0
9 *262:10 *421:31 2.25787e-06
10 *262:10 *437:10 2.01897e-05
11 *262:20 *350:22 6.7842e-07
12 *262:20 *350:26 1.03556e-05
13 *262:20 *412:74 3.05118e-08
14 *84:18 *262:10 4.39092e-05
*RES
1 *674:Y *262:6 34.4 
2 *262:6 *262:10 41.9793 
3 *262:10 *262:20 49.5168 
4 *262:20 *675:C 17.2 
*END

*D_NET *263 0.000153835
*CONN
*I *678:A1 I *D AO221x2_ASAP7_75t_L
*I *712:C1 I *D OA222x2_ASAP7_75t_L
*I *676:Y O *D INVx1_ASAP7_75t_L
*CAP
1 *678:A1 0
2 *712:C1 9.9692e-06
3 *676:Y 2.05244e-05
4 *263:12 1.94145e-05
5 *263:6 2.99696e-05
6 *712:C1 *712:C2 2.80323e-06
7 *678:A2 *263:6 1.36155e-06
8 *145:110 *263:6 2.85598e-05
9 *145:114 *263:12 0
10 *209:60 *263:12 2.64165e-05
11 *212:112 *263:6 1.51653e-06
12 *260:35 *263:12 1.32997e-05
*RES
1 *676:Y *263:6 32.1751 
2 *263:6 *263:12 45.6633 
3 *263:12 *712:C1 22.5483 
4 *263:6 *678:A1 17.2 
*END

*D_NET *264 0.000337224
*CONN
*I *678:C I *D AO221x2_ASAP7_75t_L
*I *677:Y O *D AO21x1_ASAP7_75t_L
*CAP
1 *678:C 1.614e-05
2 *677:Y 2.38065e-05
3 *264:28 2.85e-05
4 *264:22 3.99566e-05
5 *264:16 3.17406e-05
6 *264:10 2.79506e-05
7 *678:C *297:10 3.68565e-06
8 *264:10 *275:84 1.49407e-08
9 *264:10 *349:28 1.07377e-06
10 *264:10 *421:22 1.30795e-06
11 *264:16 *374:20 9.85012e-06
12 *264:16 *451:40 5.08164e-08
13 *264:22 *673:B 2.27719e-05
14 *264:22 *712:A1 9.25042e-07
15 *264:22 *421:14 2.08769e-06
16 *264:22 *421:22 1.09067e-06
17 *264:22 *437:10 1.71095e-05
18 *264:22 *441:146 1.02633e-06
19 *264:22 *456:109 5.52807e-07
20 *264:22 *456:115 0
21 *264:22 *456:132 5.14601e-06
22 *264:28 *275:103 7.11252e-08
23 *264:28 *275:111 0
24 *264:28 *421:22 1.04809e-05
25 *264:28 *421:31 2.27558e-05
26 *264:28 *451:72 0
27 *264:28 *459:30 0
28 *595:A *678:C 2.12481e-06
29 *677:B *264:10 6.7842e-07
30 *20:75 *264:10 1.72878e-05
31 *20:75 *264:22 6.61697e-06
32 *83:10 *264:10 6.33206e-07
33 *212:112 *678:C 8.49451e-06
34 *212:120 *678:C 1.68781e-05
35 *259:14 *264:10 5.47448e-06
36 *261:8 *264:22 1.09408e-05
*RES
1 *677:Y *264:10 47.5671 
2 *264:10 *264:16 36.1315 
3 *264:16 *264:22 39.4639 
4 *264:22 *264:28 45.194 
5 *264:28 *678:C 30.0358 
*END

*D_NET *265 2.0395e-05
*CONN
*I *679:B I *D OA21x2_ASAP7_75t_L
*I *678:Y O *D AO221x2_ASAP7_75t_L
*CAP
1 *679:B 0
2 *678:Y 4.91189e-06
3 *265:8 4.91189e-06
4 *265:8 *460:30 3.32579e-06
5 *145:114 *265:8 7.24542e-06
*RES
1 *678:Y *265:8 40.0317 
2 *265:8 *679:B 34.4 
*END

*D_NET *266 0.000432864
*CONN
*I *684:B1 I *D OA22x2_ASAP7_75t_L
*I *680:Y O *D NOR2x1_ASAP7_75t_L
*CAP
1 *684:B1 1.11821e-05
2 *680:Y 9.88589e-06
3 *266:18 7.76012e-05
4 *266:16 7.75554e-05
5 *266:10 2.10223e-05
6 *684:B1 *298:8 9.13615e-06
7 *266:10 *282:6 2.81464e-05
8 *266:10 *445:55 1.70708e-06
9 *266:16 *278:12 4.16081e-07
10 *266:16 *412:12 3.95768e-05
11 *266:18 *533:B 8.02373e-06
12 *266:18 *299:8 3.32579e-06
13 *266:18 *349:8 0
14 *266:18 *414:16 4.71343e-05
15 *266:18 *441:106 0
16 *680:B *266:10 5.85387e-06
17 *7:8 *266:18 1.00202e-05
18 *56:47 *266:18 0
19 *110:19 *266:18 8.55119e-06
20 *112:19 *266:10 7.84772e-07
21 *113:12 *266:18 1.45295e-06
22 *113:25 *266:16 1.46349e-05
23 *113:25 *266:18 1.00713e-05
24 *116:12 *266:18 2.68933e-07
25 *145:106 *684:B1 4.30016e-05
26 *159:18 *266:18 0
27 *231:30 *266:10 3.51063e-06
*RES
1 *680:Y *266:10 43.0794 
2 *266:10 *266:16 41.326 
3 *266:16 *266:18 57.3491 
4 *266:18 *684:B1 47.2358 
*END

*D_NET *267 0.000190404
*CONN
*I *682:B I *D NOR2x1_ASAP7_75t_L
*I *681:Y O *D OA21x2_ASAP7_75t_L
*CAP
1 *682:B 0
2 *681:Y 6.70312e-05
3 *267:12 1.16617e-05
4 *267:6 7.86929e-05
5 *267:6 *681:A2 2.66797e-07
6 *267:6 *271:6 0
7 *267:6 *445:44 2.20728e-05
8 *267:12 *414:16 3.79494e-06
9 *267:12 *451:120 0
10 *681:B *267:6 3.65663e-06
11 *49:25 *267:12 3.2272e-06
*RES
1 *681:Y *267:6 46.6154 
2 *267:6 *267:12 44.537 
3 *267:12 *682:B 17.2 
*END

*D_NET *268 0.000135852
*CONN
*I *683:C I *D AO221x2_ASAP7_75t_L
*I *682:Y O *D NOR2x1_ASAP7_75t_L
*CAP
1 *683:C 0
2 *682:Y 2.44083e-05
3 *268:6 2.44083e-05
4 *268:6 *360:44 4.05232e-06
5 *268:6 *441:110 2.81325e-05
6 *268:6 *441:120 4.31459e-05
7 *268:6 *441:130 6.36827e-06
8 *49:25 *268:6 5.3366e-06
*RES
1 *682:Y *268:6 38.593 
2 *268:6 *683:C 17.2 
*END

*D_NET *269 7.34751e-05
*CONN
*I *684:B2 I *D OA22x2_ASAP7_75t_L
*I *683:Y O *D AO221x2_ASAP7_75t_L
*CAP
1 *684:B2 0
2 *683:Y 0
3 *269:12 3.15272e-05
4 *269:6 3.15272e-05
5 *269:12 *684:A1 0
6 *269:12 *414:16 0
7 *269:12 *451:120 0
8 *145:106 *269:12 1.04206e-05
*RES
1 *683:Y *269:6 34.4 
2 *269:6 *269:12 36.2059 
3 *269:12 *684:B2 17.2 
*END

*D_NET *270 0.00019275
*CONN
*I *689:B1 I *D OA22x2_ASAP7_75t_L
*I *685:Y O *D NOR2x1_ASAP7_75t_L
*CAP
1 *689:B1 0
2 *685:Y 0
3 *270:16 3.19637e-05
4 *270:10 5.59255e-05
5 *270:6 2.39618e-05
6 *270:10 *353:18 3.3563e-06
7 *270:10 *402:94 1.49407e-08
8 *270:10 *402:106 6.35292e-07
9 *270:10 *440:16 0
10 *270:10 *446:14 0
11 *270:16 *273:12 8.82188e-06
12 *145:92 *270:16 1.09067e-06
13 *159:10 *270:10 5.85165e-05
14 *159:44 *270:10 8.46363e-06
*RES
1 *685:Y *270:6 34.4 
2 *270:6 *270:10 39.7266 
3 *270:10 *270:16 37.3286 
4 *270:16 *689:B1 34.4 
*END

*D_NET *271 0.000189608
*CONN
*I *687:B I *D NOR2x1_ASAP7_75t_L
*I *686:Y O *D OA21x2_ASAP7_75t_L
*CAP
1 *687:B 0
2 *686:Y 4.87553e-05
3 *271:12 2.80826e-06
4 *271:6 5.15636e-05
5 *271:6 *681:A2 4.50228e-05
6 *271:6 *407:50 2.12062e-05
7 *271:6 *445:44 1.01102e-06
8 *271:12 *375:8 1.36375e-05
9 *271:12 *405:29 5.6031e-06
10 *267:6 *271:6 0
*RES
1 *686:Y *271:6 41.2671 
2 *271:6 *271:12 38.9053 
3 *271:12 *687:B 17.2 
*END

*D_NET *272 6.37557e-05
*CONN
*I *688:C I *D AO221x2_ASAP7_75t_L
*I *687:Y O *D NOR2x1_ASAP7_75t_L
*CAP
1 *688:C 1.26925e-05
2 *687:Y 1.91123e-06
3 *272:8 1.46037e-05
4 *688:C *688:B1 7.35354e-06
5 *688:C *402:98 5.41446e-06
6 *688:C *402:106 5.62196e-06
7 *158:21 *272:8 8.32045e-06
8 *159:10 *272:8 7.83791e-06
*RES
1 *687:Y *272:8 37.2158 
2 *272:8 *688:C 41.8876 
*END

*D_NET *273 7.79709e-05
*CONN
*I *689:B2 I *D OA22x2_ASAP7_75t_L
*I *688:Y O *D AO221x2_ASAP7_75t_L
*CAP
1 *689:B2 0
2 *688:Y 8.3214e-06
3 *273:12 1.62336e-05
4 *273:8 2.4555e-05
5 *273:8 *444:53 0
6 *273:12 *284:10 0
7 *273:12 *361:10 2.00389e-05
8 *270:16 *273:12 8.82188e-06
*RES
1 *688:Y *273:8 38.1438 
2 *273:8 *273:12 33.5318 
3 *273:12 *689:B2 17.2 
*END

*D_NET *274 0.000629003
*CONN
*I *699:A2 I *D OA222x2_ASAP7_75t_L
*I *690:Y O *D BUFx2_ASAP7_75t_L
*CAP
1 *699:A2 0
2 *690:Y 6.49481e-06
3 *274:20 9.46375e-06
4 *274:12 0.000108541
5 *274:10 9.9077e-05
6 *274:8 6.49481e-06
7 *274:12 *341:12 7.82501e-05
8 *274:12 *425:86 0.000140079
9 *274:12 *455:12 3.37384e-05
10 *274:20 *699:B1 1.885e-06
11 *274:20 *287:22 9.68684e-06
12 *274:20 *417:65 1.23489e-06
13 *186:34 *274:12 0.000127104
14 *209:106 *274:12 6.95373e-06
*RES
1 *690:Y *274:8 38.8115 
2 *274:8 *274:10 17.2 
3 *274:10 *274:12 58.8711 
4 *274:12 *274:20 39.8705 
5 *274:20 *699:A2 17.2 
*END

*D_NET *275 0.0021788
*CONN
*I *702:B1 I *D OA222x2_ASAP7_75t_L
*I *716:B1 I *D OA222x2_ASAP7_75t_L
*I *712:B1 I *D OA222x2_ASAP7_75t_L
*I *711:B1 I *D OA222x2_ASAP7_75t_L
*I *710:B1 I *D OA222x2_ASAP7_75t_L
*I *708:B1 I *D OA222x2_ASAP7_75t_L
*I *709:B1 I *D OA222x2_ASAP7_75t_L
*I *705:B1 I *D OA222x2_ASAP7_75t_L
*I *691:Y O *D AO21x2_ASAP7_75t_L
*CAP
1 *702:B1 4.24421e-06
2 *716:B1 0
3 *712:B1 0
4 *711:B1 1.26321e-05
5 *710:B1 3.41678e-06
6 *708:B1 0
7 *709:B1 0
8 *705:B1 0
9 *691:Y 9.47564e-06
10 *275:145 3.8214e-05
11 *275:141 6.88883e-05
12 *275:137 4.8223e-05
13 *275:131 4.08103e-05
14 *275:122 2.45873e-05
15 *275:111 3.83112e-06
16 *275:103 2.46612e-05
17 *275:86 3.34621e-05
18 *275:84 3.91724e-05
19 *275:73 6.47584e-05
20 *275:64 1.69599e-05
21 *275:53 1.48808e-05
22 *275:43 4.00178e-05
23 *275:41 8.47115e-05
24 *275:32 1.25331e-05
25 *275:26 6.8367e-05
26 *275:22 0.000124354
27 *275:20 0.000126874
28 *275:16 2.85758e-05
29 *275:14 6.76765e-05
30 *275:10 0.000104658
31 *702:B1 *702:B2 1.5968e-06
32 *710:B1 *296:35 6.02341e-06
33 *710:B1 *447:8 2.90269e-07
34 *275:10 *400:33 1.10796e-05
35 *275:10 *403:8 7.09058e-06
36 *275:10 *403:12 5.22376e-07
37 *275:20 *282:10 3.66611e-06
38 *275:20 *401:29 6.11372e-06
39 *275:22 *401:14 0
40 *275:22 *434:29 0
41 *275:22 *456:14 0
42 *275:22 *458:29 1.074e-06
43 *275:26 *457:10 3.10495e-06
44 *275:32 *705:B2 1.06083e-05
45 *275:32 *457:10 4.7341e-06
46 *275:32 *457:12 1.00828e-05
47 *275:41 *457:55 0
48 *275:43 *457:55 0
49 *275:53 *456:57 1.63973e-05
50 *275:53 *457:76 1.87869e-05
51 *275:64 *294:40 2.20128e-06
52 *275:64 *456:20 1.49407e-07
53 *275:64 *456:49 0
54 *275:64 *457:76 3.32524e-06
55 *275:73 *710:A1 3.26877e-06
56 *275:73 *295:28 8.16765e-06
57 *275:73 *456:57 1.67815e-06
58 *275:73 *457:51 2.3131e-05
59 *275:84 *296:35 3.59918e-05
60 *275:84 *412:61 4.34967e-05
61 *275:84 *421:22 1.31365e-05
62 *275:103 *278:112 6.10236e-08
63 *275:103 *278:120 1.88168e-06
64 *275:103 *412:61 1.47444e-05
65 *275:103 *421:22 1.94229e-07
66 *275:103 *451:72 1.49407e-08
67 *275:103 *459:30 1.40419e-08
68 *275:111 *278:112 2.95693e-06
69 *275:111 *451:72 2.31519e-06
70 *275:111 *459:30 2.20493e-06
71 *275:122 *282:10 1.37562e-05
72 *275:122 *401:29 1.42322e-05
73 *275:122 *417:54 4.9137e-07
74 *275:122 *440:24 5.96787e-07
75 *275:122 *449:60 1.26585e-05
76 *275:131 *400:27 4.84386e-05
77 *275:131 *400:33 1.90617e-05
78 *275:131 *403:8 7.16068e-06
79 *275:141 *278:146 0.000135992
80 *275:145 *981:A 1.1246e-05
81 *275:145 *290:38 3.6722e-06
82 *275:145 *339:18 3.75295e-06
83 *275:145 *339:24 4.15517e-06
84 *275:145 *339:32 2.68255e-06
85 *275:145 *401:100 7.98637e-06
86 *275:145 *401:111 7.0671e-06
87 *275:145 *402:29 2.21875e-05
88 *275:145 *455:18 4.06013e-06
89 *709:C1 *275:73 1.87285e-05
90 *747:D *275:41 0
91 *4:83 *275:14 0
92 *20:48 *275:64 0
93 *20:48 *275:73 1.67032e-05
94 *20:48 *275:84 5.68873e-06
95 *37:12 *275:145 0
96 *42:10 *275:137 3.17029e-06
97 *52:24 *275:84 0
98 *61:12 *275:32 3.31479e-05
99 *61:21 *275:26 5.97898e-06
100 *61:21 *275:32 9.8079e-06
101 *66:10 *275:20 5.76364e-06
102 *83:10 *275:84 2.15424e-06
103 *136:12 *275:14 1.83984e-05
104 *140:10 *275:131 0
105 *140:12 *275:10 0
106 *140:12 *275:131 0
107 *146:25 *275:14 1.1789e-05
108 *186:28 *275:137 6.41909e-05
109 *208:62 *275:10 5.67747e-07
110 *209:14 *275:14 3.52688e-05
111 *209:14 *275:22 1.35269e-05
112 *209:75 *275:141 3.15497e-05
113 *209:102 *275:141 6.22023e-05
114 *211:35 *275:137 6.39869e-05
115 *212:57 *275:41 1.24805e-05
116 *229:10 *275:137 7.0121e-07
117 *231:30 *275:122 1.90593e-05
118 *234:14 *275:141 1.37331e-05
119 *234:18 *275:145 5.95412e-06
120 *254:18 *275:73 1.87236e-05
121 *257:25 *275:84 7.82377e-07
122 *259:14 *275:84 0
123 *260:28 *711:B1 7.35354e-06
124 *260:28 *275:103 1.14969e-05
125 *261:16 *711:B1 5.19552e-07
126 *264:10 *275:84 1.49407e-08
127 *264:28 *275:103 7.11252e-08
128 *264:28 *275:111 0
*RES
1 *691:Y *275:10 41.9177 
2 *275:10 *275:14 43.6054 
3 *275:14 *275:16 17.2 
4 *275:16 *275:20 22.2685 
5 *275:20 *275:22 40.041 
6 *275:22 *275:26 19.7342 
7 *275:26 *275:32 32.8836 
8 *275:32 *705:B1 17.2 
9 *275:26 *275:41 41.2671 
10 *275:41 *275:43 3.74377 
11 *275:43 *275:53 47.2111 
12 *275:53 *709:B1 17.2 
13 *275:43 *275:64 48.4791 
14 *275:64 *708:B1 17.2 
15 *275:41 *275:73 44.232 
16 *275:73 *710:B1 36.5393 
17 *275:73 *275:84 34.3531 
18 *275:84 *275:86 17.2 
19 *275:86 *711:B1 24.1527 
20 *275:86 *275:103 47.6326 
21 *275:103 *275:111 38.8203 
22 *275:111 *712:B1 17.2 
23 *275:16 *275:122 40.4297 
24 *275:122 *716:B1 17.2 
25 *275:10 *275:131 41.1346 
26 *275:131 *275:137 34.9998 
27 *275:137 *275:141 41.0082 
28 *275:141 *275:145 47.5171 
29 *275:145 *702:B1 36.5393 
*END

*D_NET *276 0.000535504
*CONN
*I *697:A2 I *D OA222x2_ASAP7_75t_L
*I *692:Y O *D BUFx2_ASAP7_75t_L
*CAP
1 *697:A2 0
2 *692:Y 3.73405e-06
3 *276:20 9.09822e-06
4 *276:12 0.000176412
5 *276:10 0.000167314
6 *276:8 3.73405e-06
7 *276:12 *341:12 2.49344e-08
8 *276:12 *412:106 3.88563e-07
9 *276:12 *452:16 0.000108681
10 *276:20 *286:54 8.3281e-06
11 *276:20 *401:88 3.90974e-06
12 *276:20 *417:84 9.04185e-06
13 *145:60 *276:20 3.67907e-06
14 *146:48 *276:12 8.15519e-06
15 *148:213 *276:12 0
16 *212:127 *276:12 2.49941e-06
17 *212:142 *276:12 5.16183e-06
18 *218:16 *276:12 2.53426e-05
*RES
1 *692:Y *276:8 37.4974 
2 *276:8 *276:10 17.2 
3 *276:10 *276:12 66.0136 
4 *276:12 *276:20 41.691 
5 *276:20 *697:A2 17.2 
*END

*D_NET *277 0.000174877
*CONN
*I *919:A I *D NAND2x2_ASAP7_75t_L
*I *694:A I *D NAND2x2_ASAP7_75t_L
*I *693:Y O *D AO21x2_ASAP7_75t_L
*CAP
1 *919:A 2.41424e-05
2 *694:A 0
3 *693:Y 1.51499e-05
4 *277:12 2.54303e-05
5 *277:8 1.64378e-05
6 *277:8 *400:27 8.49275e-07
7 *277:8 *400:33 2.45021e-07
8 *4:128 *919:A 6.61321e-05
9 *4:128 *277:12 6.02341e-06
10 *132:12 *277:8 5.07717e-06
11 *132:16 *277:8 1.10964e-06
12 *211:18 *919:A 8.65792e-06
13 *211:18 *277:12 5.62196e-06
*RES
1 *693:Y *277:8 43.4107 
2 *277:8 *277:12 18.8045 
3 *277:12 *694:A 17.2 
4 *277:12 *919:A 35.9189 
*END

*D_NET *278 0.00230176
*CONN
*I *702:C2 I *D OA222x2_ASAP7_75t_L
*I *703:C2 I *D OA222x2_ASAP7_75t_L
*I *712:C2 I *D OA222x2_ASAP7_75t_L
*I *711:C2 I *D OA222x2_ASAP7_75t_L
*I *710:C2 I *D OA222x2_ASAP7_75t_L
*I *709:C2 I *D OA222x2_ASAP7_75t_L
*I *705:C2 I *D OA222x2_ASAP7_75t_L
*I *708:C2 I *D OA222x2_ASAP7_75t_L
*I *694:Y O *D NAND2x2_ASAP7_75t_L
*CAP
1 *702:C2 9.93476e-06
2 *703:C2 0
3 *712:C2 7.49765e-06
4 *711:C2 6.40349e-06
5 *710:C2 0
6 *709:C2 5.49087e-06
7 *705:C2 0
8 *708:C2 1.04257e-05
9 *694:Y 6.82747e-06
10 *278:150 2.75249e-05
11 *278:146 0.000142971
12 *278:144 0.000130822
13 *278:120 8.77009e-06
14 *278:112 1.2079e-05
15 *278:104 2.69239e-05
16 *278:100 2.1797e-05
17 *278:92 4.0151e-05
18 *278:67 1.19836e-05
19 *278:59 5.30094e-05
20 *278:55 5.73929e-05
21 *278:36 4.29527e-05
22 *278:34 4.62203e-05
23 *278:28 2.61945e-05
24 *278:24 3.15558e-05
25 *278:20 3.04078e-05
26 *278:12 0.000195313
27 *278:10 0.000166768
28 *278:8 1.22689e-05
29 *702:C2 *702:C1 6.83133e-07
30 *702:C2 *291:22 5.41446e-06
31 *702:C2 *417:153 2.57157e-05
32 *702:C2 *429:16 9.31361e-06
33 *709:C2 *457:51 1.17077e-05
34 *712:C2 *412:74 1.34881e-05
35 *712:C2 *451:72 1.2117e-05
36 *278:8 *407:40 2.90256e-05
37 *278:12 *401:33 4.98688e-08
38 *278:12 *412:12 1.24672e-08
39 *278:34 *295:22 1.38885e-05
40 *278:36 *295:22 1.1345e-05
41 *278:67 *705:C1 9.59819e-06
42 *278:67 *294:56 1.95129e-06
43 *278:67 *412:24 0
44 *278:67 *457:12 2.34423e-05
45 *278:92 *764:CLK 8.30365e-06
46 *278:92 *296:48 1.93482e-06
47 *278:92 *447:14 2.3189e-06
48 *278:92 *447:31 0
49 *278:92 *451:10 3.56648e-06
50 *278:92 *458:49 2.25904e-06
51 *278:100 *764:CLK 7.53304e-06
52 *278:100 *765:CLK 5.85387e-06
53 *278:100 *412:61 2.98814e-08
54 *278:100 *451:21 1.09066e-05
55 *278:104 *412:74 1.00092e-05
56 *278:104 *451:21 4.83862e-06
57 *278:104 *451:32 1.09796e-05
58 *278:104 *451:72 3.6985e-05
59 *278:104 *451:83 2.71662e-05
60 *278:112 *412:61 3.38515e-06
61 *278:112 *421:14 3.34031e-06
62 *278:112 *451:72 1.44317e-05
63 *278:120 *412:61 1.00435e-05
64 *278:120 *441:146 1.03381e-05
65 *278:144 *407:40 8.10151e-06
66 *278:150 *339:18 1.09842e-06
67 *278:150 *417:153 5.8049e-05
68 *278:150 *429:16 2.01799e-06
69 *708:C1 *708:C2 2.20493e-06
70 *710:C1 *278:34 1.88951e-06
71 *712:C1 *712:C2 2.80323e-06
72 *4:143 *278:12 7.26184e-05
73 *20:48 *708:C2 1.22841e-05
74 *20:48 *278:34 5.37634e-06
75 *20:48 *278:36 1.6843e-05
76 *52:16 *278:20 1.4099e-05
77 *55:16 *278:12 1.92889e-06
78 *55:16 *278:20 5.38162e-05
79 *57:30 *278:12 4.26193e-05
80 *58:14 *278:12 2.84121e-06
81 *58:20 *278:12 7.3783e-07
82 *58:20 *278:20 2.77387e-08
83 *63:22 *278:12 3.51639e-05
84 *63:39 *278:12 2.03439e-05
85 *83:10 *278:92 1.59615e-06
86 *95:8 *278:67 1.49407e-08
87 *97:8 *708:C2 9.77304e-06
88 *113:25 *278:12 1.25099e-05
89 *132:10 *278:144 3.05118e-08
90 *145:40 *278:12 7.72574e-06
91 *145:134 *278:34 8.66478e-06
92 *145:143 *278:55 1.15587e-05
93 *148:62 *278:24 7.11762e-06
94 *148:62 *278:34 0
95 *148:62 *278:36 0
96 *148:62 *278:55 1.19435e-05
97 *148:62 *278:92 3.06388e-05
98 *148:113 *278:150 1.62479e-05
99 *148:125 *278:150 9.83265e-06
100 *208:29 *278:8 1.1264e-05
101 *208:51 *278:8 1.92124e-05
102 *208:51 *278:144 1.2493e-05
103 *209:56 *278:20 3.07124e-07
104 *209:75 *278:12 3.13435e-05
105 *209:75 *278:146 3.36642e-05
106 *212:39 *278:12 8.23841e-06
107 *212:61 *708:C2 7.8048e-06
108 *212:61 *278:36 9.63579e-06
109 *212:67 *708:C2 6.7842e-07
110 *223:12 *278:146 1.49157e-05
111 *226:18 *278:146 1.01087e-05
112 *234:14 *278:146 7.87216e-06
113 *257:10 *278:34 1.28127e-05
114 *257:10 *278:92 0
115 *257:25 *278:92 0
116 *257:25 *278:100 6.35292e-07
117 *260:22 *278:100 9.52454e-06
118 *260:28 *711:C2 5.00816e-06
119 *260:28 *278:100 4.97654e-06
120 *260:35 *278:104 3.77892e-06
121 *266:16 *278:12 4.16081e-07
122 *275:103 *278:112 6.10236e-08
123 *275:103 *278:120 1.88168e-06
124 *275:111 *278:112 2.95693e-06
125 *275:141 *278:146 0.000135992
*RES
1 *694:Y *278:8 44.4431 
2 *278:8 *278:10 17.2 
3 *278:10 *278:12 59.4663 
4 *278:12 *278:20 35.4566 
5 *278:20 *278:24 19.7342 
6 *278:24 *278:28 18.2696 
7 *278:28 *278:34 36.6841 
8 *278:34 *278:36 17.4581 
9 *278:36 *708:C2 46.1415 
10 *278:36 *278:55 45.2949 
11 *278:55 *278:59 33.7796 
12 *278:59 *278:67 44.9585 
13 *278:67 *705:C2 17.2 
14 *278:34 *709:C2 37.609 
15 *278:28 *710:C2 17.2 
16 *278:24 *278:92 40.6546 
17 *278:92 *278:100 43.8321 
18 *278:100 *278:104 34.0011 
19 *278:104 *278:112 41.2 
20 *278:112 *278:120 36.7885 
21 *278:120 *711:C2 38.1438 
22 *278:104 *712:C2 41.6733 
23 *278:8 *278:144 22.2685 
24 *278:144 *278:146 43.9369 
25 *278:146 *278:150 37.5678 
26 *278:150 *703:C2 34.4 
27 *278:150 *702:C2 45.55 
*END

*D_NET *279 0.000485006
*CONN
*I *696:A2 I *D OA222x2_ASAP7_75t_L
*I *695:Y O *D BUFx2_ASAP7_75t_L
*CAP
1 *696:A2 1.98188e-05
2 *695:Y 6.50857e-05
3 *279:20 2.16352e-05
4 *279:14 5.93444e-05
5 *279:12 6.18751e-05
6 *279:6 6.94328e-05
7 *696:A2 *696:B1 1.21211e-05
8 *696:A2 *443:8 1.76928e-06
9 *696:A2 *443:14 3.90258e-06
10 *696:A2 *443:27 1.47193e-05
11 *696:A2 *443:33 1.40419e-08
12 *279:6 *303:13 6.86929e-06
13 *279:14 *412:116 9.30483e-06
14 *279:14 *443:33 1.0189e-05
15 *279:14 *453:144 9.74885e-05
16 *279:20 *412:108 7.89306e-06
17 *212:144 *279:20 8.36476e-06
18 *214:12 *279:6 0
19 *214:12 *279:14 1.51779e-05
*RES
1 *695:Y *279:6 48.7547 
2 *279:6 *279:12 37.2158 
3 *279:12 *279:14 46.5298 
4 *279:14 *279:20 37.2158 
5 *279:20 *696:A2 31.6403 
*END

*D_NET *280 5.59825e-05
*CONN
*I *699:C1 I *D OA222x2_ASAP7_75t_L
*I *698:Y O *D INVx1_ASAP7_75t_L
*CAP
1 *699:C1 4.90674e-06
2 *698:Y 1.01496e-05
3 *280:8 1.50563e-05
4 *699:C1 *699:B1 8.3281e-06
5 *699:C1 *417:78 1.35684e-06
6 *280:8 *401:73 1.49522e-05
7 *280:8 *417:78 1.23284e-06
*RES
1 *698:Y *280:8 41.158 
2 *280:8 *699:C1 37.609 
*END

*D_NET *281 0.00028185
*CONN
*I *702:C1 I *D OA222x2_ASAP7_75t_L
*I *701:Y O *D INVx1_ASAP7_75t_L
*CAP
1 *702:C1 4.08114e-05
2 *701:Y 3.2145e-05
3 *281:20 4.26852e-05
4 *281:14 2.81996e-05
5 *281:8 5.84707e-05
6 *702:C1 *291:22 1.711e-05
7 *702:C1 *417:161 5.68657e-06
8 *281:14 *291:14 1.70981e-05
9 *702:C2 *702:C1 6.83133e-07
10 *759:D *702:C1 2.741e-06
11 *18:10 *281:14 0
12 *28:18 *281:14 1.76223e-05
13 *31:6 *281:8 0
14 *92:8 *702:C1 5.22376e-07
15 *148:135 *702:C1 9.31704e-06
16 *209:118 *281:14 0
17 *213:18 *281:14 2.43869e-07
18 *213:26 *702:C1 4.32473e-06
19 *233:16 *281:14 4.1887e-06
20 *237:20 *281:14 0
*RES
1 *701:Y *281:8 47.7706 
2 *281:8 *281:14 34.9663 
3 *281:14 *281:20 35.4325 
4 *281:20 *702:C1 40.1975 
*END

*D_NET *282 0.000380472
*CONN
*I *707:C1 I *D OA222x2_ASAP7_75t_L
*I *706:Y O *D INVx1_ASAP7_75t_L
*CAP
1 *707:C1 3.79898e-06
2 *706:Y 8.03598e-05
3 *282:10 3.38954e-05
4 *282:8 3.00964e-05
5 *282:6 8.03598e-05
6 *282:6 *527:A2 4.88615e-06
7 *282:6 *465:14 0
8 *282:10 *731:A 2.22736e-06
9 *282:10 *761:CLK 1.65807e-05
10 *282:10 *412:10 1.11042e-05
11 *282:10 *417:54 3.12231e-05
12 *282:10 *449:60 1.23156e-05
13 *66:10 *282:10 1.182e-05
14 *231:30 *282:6 3.09538e-06
15 *247:8 *282:10 1.31409e-05
16 *266:10 *282:6 2.81464e-05
17 *275:20 *282:10 3.66611e-06
18 *275:122 *282:10 1.37562e-05
*RES
1 *706:Y *282:6 46.6154 
2 *282:6 *282:8 17.2 
3 *282:8 *282:10 35.4795 
4 *282:10 *707:C1 36.0045 
*END

*D_NET *283 0.00022225
*CONN
*I *714:C2 I *D OA222x2_ASAP7_75t_L
*I *713:Y O *D INVx1_ASAP7_75t_L
*CAP
1 *714:C2 0
2 *713:Y 3.02846e-05
3 *283:12 1.53303e-05
4 *283:6 4.56149e-05
5 *283:6 *533:A 5.62196e-06
6 *283:6 *414:12 4.59067e-05
7 *283:6 *464:8 3.29017e-05
8 *283:12 *349:18 2.99383e-06
9 *283:12 *374:28 0
10 *283:12 *401:39 0
11 *283:12 *417:45 0
12 *283:12 *439:14 0
13 *283:12 *460:18 1.49407e-08
14 *56:41 *283:12 0
15 *56:47 *283:6 4.3581e-05
*RES
1 *713:Y *283:6 45.0109 
2 *283:6 *283:12 43.4107 
3 *283:12 *714:C2 17.2 
*END

*D_NET *284 0.000206935
*CONN
*I *716:C1 I *D OA222x2_ASAP7_75t_L
*I *715:Y O *D INVx1_ASAP7_75t_L
*CAP
1 *716:C1 1.15533e-05
2 *715:Y 1.14965e-05
3 *284:10 6.69593e-05
4 *284:8 6.69024e-05
5 *716:C1 *417:22 2.25202e-05
6 *716:C1 *417:33 5.85387e-06
7 *284:8 *444:47 0
8 *284:8 *444:53 0
9 *284:10 *916:A2 7.95275e-06
10 *284:10 *405:18 2.20028e-06
11 *284:10 *440:16 0
12 *284:10 *441:211 0
13 *284:10 *458:11 1.07368e-06
14 *284:10 *458:15 3.43278e-06
15 *103:10 *716:C1 6.06409e-06
16 *113:43 *284:10 0
17 *121:18 *284:10 0
18 *121:24 *284:10 0
19 *121:39 *284:10 9.26325e-07
20 *131:22 *284:10 0
21 *145:84 *284:10 0
22 *146:115 *284:10 0
23 *273:12 *284:10 0
*RES
1 *715:Y *284:8 39.2134 
2 *284:8 *284:10 36.6058 
3 *284:10 *716:C1 42.9572 
*END

*D_NET *285 0.00100535
*CONN
*P clk I
*I *973:A I *D BUFx4_ASAP7_75t_L
*CAP
1 clk 3.79021e-05
2 *973:A 0
3 *285:42 3.12946e-05
4 *285:34 9.31486e-05
5 *285:30 0.000195915
6 *285:28 0.000140212
7 *285:22 0.000106127
8 *285:20 9.99759e-05
9 *285:18 2.3504e-05
10 *285:10 6.1406e-05
11 *285:10 resp_msg[8] 2.82935e-05
12 *285:10 *332:5 0
13 *285:18 *332:5 0
14 *285:22 *332:5 0
15 *285:22 *461:22 1.24672e-08
16 *285:22 *461:30 9.61757e-05
17 *285:30 *297:31 1.97082e-05
18 *285:30 *350:14 0
19 *285:30 *352:12 0
20 *285:30 *409:16 4.15428e-06
21 *285:30 *461:18 0
22 *285:30 *461:22 3.8512e-05
23 *285:42 *402:108 0
24 *285:42 *405:18 1.4556e-06
25 *285:42 *417:37 1.79408e-05
26 *285:42 *441:203 0
27 *285:42 *446:14 1.39984e-06
28 *159:10 *285:42 1.79289e-08
29 *231:18 *285:42 8.18938e-06
*RES
1 clk *285:10 42.14 
2 *285:10 *285:18 43.5941 
3 *285:18 *285:20 17.2 
4 *285:20 *285:22 55.6246 
5 *285:22 *285:28 37.9667 
6 *285:28 *285:30 53.9472 
7 *285:30 *285:34 42.3414 
8 *285:34 *285:42 41.6947 
9 *285:42 *973:A 34.4 
*END

*D_NET *286 0.000678156
*CONN
*I *697:B2 I *D OA222x2_ASAP7_75t_L
*I *621:A1 I *D OA21x2_ASAP7_75t_L
*I *723:A I *D HAxp5_ASAP7_75t_L
*I *606:Y O *D INVx1_ASAP7_75t_L
*CAP
1 *697:B2 0
2 *621:A1 1.31752e-05
3 *723:A 1.00717e-05
4 *606:Y 4.23184e-05
5 *286:54 9.71099e-06
6 *286:26 4.24241e-05
7 *286:20 5.86917e-05
8 *286:14 6.67477e-05
9 *286:12 4.89324e-05
10 *286:6 4.73784e-05
11 *621:A1 *697:B1 7.84772e-07
12 *621:A1 *401:73 0
13 *621:A1 *401:88 1.49407e-08
14 *621:A1 *417:78 1.30795e-06
15 *723:A *453:25 7.93084e-06
16 *286:20 *697:B1 4.61602e-06
17 *286:20 *453:108 5.33047e-06
18 *286:26 *288:46 2.05267e-06
19 *286:54 *697:B1 1.88415e-05
20 *286:54 *401:65 7.07219e-06
21 *286:54 *401:88 1.61584e-05
22 *606:A *286:6 0
23 *723:B *723:A 6.61478e-06
24 *35:8 *723:A 4.35576e-08
25 *40:25 *286:14 2.13074e-05
26 *40:31 *723:A 1.70708e-06
27 *40:31 *286:14 7.84396e-06
28 *40:31 *286:20 1.44274e-05
29 *40:31 *286:26 4.10171e-06
30 *42:8 *723:A 4.43846e-06
31 *133:12 *621:A1 1.24539e-05
32 *133:12 *286:26 1.41386e-05
33 *134:12 *621:A1 1.49407e-08
34 *136:12 *286:26 2.10798e-05
35 *146:48 *286:14 0.000135749
36 *146:48 *286:20 1.36643e-05
37 *146:48 *286:26 3.45879e-06
38 *148:109 *286:14 2.00722e-06
39 *148:213 *286:14 3.21654e-06
40 *276:20 *286:54 8.3281e-06
*RES
1 *606:Y *286:6 34.8492 
2 *286:6 *286:12 37.122 
3 *286:12 *286:14 23.1589 
4 *286:14 *286:20 26.1511 
5 *286:20 *286:26 47.8192 
6 *286:26 *723:A 42.1231 
7 *286:20 *621:A1 43.5045 
8 *286:14 *286:54 44.3298 
9 *286:54 *697:B2 17.2 
*END

*D_NET *287 0.000435169
*CONN
*I *722:B I *D HAxp5_ASAP7_75t_L
*I *699:B2 I *D OA222x2_ASAP7_75t_L
*I *605:Y O *D INVx1_ASAP7_75t_L
*CAP
1 *722:B 0
2 *699:B2 0
3 *605:Y 2.31549e-05
4 *287:41 1.09665e-05
5 *287:33 5.21341e-05
6 *287:22 9.04425e-06
7 *287:14 4.88944e-05
8 *287:8 0.000104173
9 *287:8 *453:40 2.88806e-06
10 *287:8 *453:47 1.23061e-05
11 *287:14 *755:CLK 2.58157e-05
12 *287:14 *407:102 1.87585e-06
13 *287:14 *444:28 3.42435e-06
14 *287:14 *446:28 2.44674e-05
15 *287:22 *699:B1 2.13304e-06
16 *287:22 *407:102 1.57962e-05
17 *287:22 *417:65 2.03997e-06
18 *287:22 *425:82 3.05118e-08
19 *287:33 *637:A1 7.14604e-06
20 *287:33 *407:76 6.7842e-07
21 *287:33 *407:84 5.19552e-07
22 *287:33 *453:40 2.66992e-06
23 *287:41 *433:14 4.04121e-06
24 *25:31 *287:14 1.69693e-06
25 *25:31 *287:33 2.14768e-06
26 *28:28 *287:33 1.10213e-05
27 *36:10 *287:14 0
28 *36:18 *287:33 1.64764e-06
29 *41:14 *287:41 1.07377e-06
30 *42:10 *287:41 1.27389e-05
31 *90:8 *287:14 0
32 *90:8 *287:22 0
33 *122:6 *287:41 2.20493e-06
34 *145:48 *287:22 0
35 *146:75 *287:14 1.15154e-05
36 *146:75 *287:33 1.00456e-05
37 *209:102 *287:14 0
38 *211:50 *287:33 9.50284e-06
39 *231:79 *287:14 7.6881e-06
40 *274:20 *287:22 9.68684e-06
*RES
1 *605:Y *287:8 45.6313 
2 *287:8 *287:14 46.8494 
3 *287:14 *287:22 42.171 
4 *287:22 *699:B2 17.2 
5 *287:8 *287:33 39.9744 
6 *287:33 *287:41 42.6491 
7 *287:41 *722:B 17.2 
*END

*D_NET *288 0.000305113
*CONN
*I *634:A2 I *D OA33x2_ASAP7_75t_L
*I *721:A I *D HAxp5_ASAP7_75t_L
*I *700:B2 I *D OA222x2_ASAP7_75t_L
*I *604:Y O *D INVx1_ASAP7_75t_L
*CAP
1 *634:A2 1.59041e-06
2 *721:A 0
3 *700:B2 1.2955e-06
4 *604:Y 3.25424e-06
5 *288:46 2.43277e-05
6 *288:29 3.66979e-05
7 *288:18 8.16211e-06
8 *288:10 4.48864e-05
9 *288:8 2.73134e-05
10 *288:8 *335:12 1.56713e-06
11 *288:10 *453:12 3.31686e-06
12 *288:18 *401:52 0
13 *288:29 *401:52 8.58704e-06
14 *288:29 *453:25 1.94229e-07
15 *288:46 *453:25 5.97629e-08
16 *17:12 *288:10 7.84153e-06
17 *17:12 *288:18 8.71771e-06
18 *17:12 *288:29 1.64764e-06
19 *40:31 *288:46 1.11674e-05
20 *136:12 *288:46 3.65289e-06
21 *140:12 *288:46 9.1471e-07
22 *141:18 *634:A2 1.44167e-06
23 *146:25 *288:46 5.71404e-06
24 *146:44 *288:46 1.44874e-05
25 *209:79 *288:29 2.97708e-05
26 *209:79 *288:46 8.00464e-06
27 *209:91 *288:10 2.74606e-06
28 *209:91 *288:29 2.80709e-06
29 *214:28 *700:B2 2.12481e-06
30 *214:28 *288:29 2.9708e-05
31 *224:14 *288:10 1.10614e-05
32 *286:26 *288:46 2.05267e-06
*RES
1 *604:Y *288:8 36.0045 
2 *288:8 *288:10 20.274 
3 *288:10 *288:18 39.89 
4 *288:18 *700:B2 36.0045 
5 *288:10 *288:29 18.5845 
6 *288:29 *721:A 34.4 
7 *288:29 *288:46 47.49 
8 *288:46 *634:A2 35.4697 
*END

*D_NET *289 0.000259374
*CONN
*I *702:B2 I *D OA222x2_ASAP7_75t_L
*I *720:A I *D HAxp5_ASAP7_75t_L
*I *603:Y O *D INVx1_ASAP7_75t_L
*CAP
1 *702:B2 4.14201e-06
2 *720:A 1.93297e-06
3 *603:Y 1.52777e-05
4 *289:25 4.5835e-05
5 *289:23 4.1693e-05
6 *289:14 9.21754e-06
7 *289:10 2.25623e-05
8 *702:B2 *290:30 2.29685e-06
9 *289:10 *424:10 1.54305e-05
10 *289:10 *429:35 1.50458e-05
11 *289:25 *641:A1 1.42601e-06
12 *289:25 *939:A 1.09842e-06
13 *289:25 *290:30 3.12261e-06
14 *289:25 *290:38 7.97185e-06
15 *289:25 *339:18 5.52807e-07
16 *289:25 *342:25 0
17 *289:25 *401:111 1.593e-06
18 *289:25 *419:14 2.2521e-05
19 *289:25 *424:10 6.68208e-06
20 *289:25 *429:35 0
21 *289:25 *453:70 3.05118e-08
22 *289:25 *453:78 7.64007e-06
23 *603:A *289:10 0
24 *702:B1 *702:B2 1.5968e-06
25 *31:41 *289:25 0
26 *32:42 *289:25 2.22736e-06
27 *33:6 *720:A 5.41446e-06
28 *33:6 *289:14 9.08513e-06
29 *76:8 *289:25 9.6655e-06
30 *148:145 *289:25 5.31312e-06
*RES
1 *603:Y *289:10 44.2819 
2 *289:10 *289:14 22.0134 
3 *289:14 *720:A 18.8045 
4 *289:14 *289:23 17.2 
5 *289:23 *289:25 35.4795 
6 *289:25 *702:B2 37.0741 
*END

*D_NET *290 0.000643384
*CONN
*I *719:A I *D HAxp5_ASAP7_75t_L
*I *703:B2 I *D OA222x2_ASAP7_75t_L
*I *602:Y O *D INVx1_ASAP7_75t_L
*CAP
1 *719:A 9.96793e-06
2 *703:B2 0
3 *602:Y 3.51099e-05
4 *290:53 1.9804e-05
5 *290:38 1.45471e-05
6 *290:30 4.62437e-05
7 *290:24 5.49161e-05
8 *290:20 2.38904e-05
9 *290:14 6.20127e-05
10 *290:6 8.66156e-05
11 *290:6 *344:31 6.53624e-05
12 *290:14 *397:32 3.05118e-08
13 *290:20 *435:8 3.09633e-05
14 *290:24 *446:88 4.19747e-05
15 *290:30 *641:A1 1.43437e-05
16 *290:30 *342:25 0
17 *290:30 *453:70 1.4825e-05
18 *290:30 *453:78 1.707e-06
19 *290:38 *401:92 1.04475e-06
20 *290:38 *401:111 5.37866e-07
21 *290:38 *402:29 1.13652e-05
22 *290:38 *453:70 1.48586e-06
23 *290:53 *342:25 2.68255e-06
24 *290:53 *424:23 3.03965e-05
25 *702:B2 *290:30 2.29685e-06
26 *16:10 *290:20 0
27 *30:8 *719:A 1.51653e-06
28 *31:29 *290:20 0
29 *31:33 *290:24 6.35558e-06
30 *37:12 *290:38 1.68021e-06
31 *78:14 *290:14 6.78173e-06
32 *130:8 *290:53 7.82298e-07
33 *210:20 *290:38 7.47402e-07
34 *213:42 *290:38 2.19448e-07
35 *235:12 *290:30 3.77678e-05
36 *235:12 *290:38 6.42451e-07
37 *275:145 *290:38 3.6722e-06
38 *289:25 *290:30 3.12261e-06
39 *289:25 *290:38 7.97185e-06
*RES
1 *602:Y *290:6 36.9885 
2 *290:6 *290:14 49.7041 
3 *290:14 *290:20 44.8186 
4 *290:20 *290:24 29.501 
5 *290:24 *290:30 43.4704 
6 *290:30 *290:38 46.733 
7 *290:38 *703:B2 17.2 
8 *290:24 *290:53 40.4105 
9 *290:53 *719:A 40.2831 
*END

*D_NET *291 0.000479975
*CONN
*I *704:B2 I *D OA222x2_ASAP7_75t_L
*I *718:A I *D HAxp5_ASAP7_75t_L
*I *601:Y O *D INVx1_ASAP7_75t_L
*CAP
1 *704:B2 3.99007e-06
2 *718:A 1.19113e-05
3 *601:Y 1.57901e-05
4 *291:34 2.86815e-05
5 *291:26 2.68811e-05
6 *291:22 1.40392e-05
7 *291:14 5.49101e-05
8 *291:10 6.2782e-05
9 *704:B2 *401:119 2.03526e-06
10 *704:B2 *429:35 5.13782e-06
11 *291:10 *335:139 0
12 *291:10 *402:75 2.45681e-06
13 *291:22 *402:33 7.49412e-06
14 *291:26 *417:153 1.94317e-06
15 *291:26 *429:16 1.21917e-05
16 *291:26 *429:35 9.6944e-06
17 *291:34 *429:24 1.69305e-05
18 *702:C1 *291:22 1.711e-05
19 *702:C2 *291:22 5.41446e-06
20 *25:25 *291:14 4.38272e-06
21 *25:25 *291:34 5.00011e-05
22 *27:8 *718:A 6.78445e-06
23 *27:10 *291:34 3.30589e-06
24 *28:12 *291:10 5.49402e-06
25 *28:18 *291:14 3.99532e-05
26 *28:18 *291:34 2.74278e-07
27 *92:8 *291:22 7.63254e-07
28 *130:8 *291:34 0
29 *148:129 *291:22 7.66146e-06
30 *148:137 *704:B2 6.31369e-06
31 *148:137 *291:26 1.43483e-05
32 *149:14 *291:14 2.84252e-06
33 *149:22 *704:B2 2.03526e-06
34 *213:18 *291:10 1.59615e-06
35 *237:16 *291:14 1.77268e-05
36 *281:14 *291:14 1.70981e-05
*RES
1 *601:Y *291:10 43.1184 
2 *291:10 *291:14 37.7616 
3 *291:14 *291:22 41.9354 
4 *291:22 *291:26 24.4273 
5 *291:26 *291:34 44.4942 
6 *291:34 *718:A 42.4224 
7 *291:26 *704:B2 38.351 
*END

*D_NET *292 0.000771413
*CONN
*I *705:B2 I *D OA222x2_ASAP7_75t_L
*I *732:A I *D HAxp5_ASAP7_75t_L
*I *652:B I *D AND3x1_ASAP7_75t_L
*I *600:Y O *D INVx1_ASAP7_75t_L
*CAP
1 *705:B2 1.0345e-05
2 *732:A 2.91079e-05
3 *652:B 9.54396e-06
4 *600:Y 2.56744e-05
5 *292:35 3.95829e-05
6 *292:18 4.02536e-05
7 *292:12 4.11847e-05
8 *292:10 5.9936e-05
9 *292:8 4.9591e-05
10 *292:6 2.56744e-05
11 *652:B *294:30 1.59615e-06
12 *705:B2 *457:12 8.08836e-06
13 *732:A *294:56 9.42272e-06
14 *292:6 *347:18 7.11143e-05
15 *292:10 *744:CLK 1.6528e-05
16 *292:10 *345:26 5.84259e-05
17 *292:10 *345:38 4.83751e-05
18 *292:10 *347:22 3.64554e-06
19 *292:10 *387:10 1.84493e-05
20 *292:10 *402:120 6.10236e-08
21 *292:10 *441:53 2.29677e-05
22 *292:10 *457:12 4.99607e-05
23 *292:18 *294:30 4.06224e-06
24 *292:18 *456:14 1.00987e-05
25 *292:18 *456:20 1.46199e-05
26 *292:35 *705:C1 4.97876e-07
27 *292:35 *412:24 1.70708e-06
28 *292:35 *456:14 9.48684e-06
29 *730:B *732:A 9.58768e-06
30 *20:40 *292:18 7.23981e-06
31 *20:40 *292:35 9.43117e-07
32 *20:46 *652:B 5.19475e-06
33 *61:12 *705:B2 7.75936e-07
34 *61:12 *292:10 3.62764e-06
35 *63:6 *732:A 2.27522e-06
36 *63:10 *732:A 1.08675e-05
37 *67:14 *292:35 8.67578e-07
38 *107:10 *292:10 0
39 *209:20 *292:10 0
40 *212:61 *292:18 8.75422e-06
41 *245:6 *652:B 3.56648e-06
42 *245:10 *292:10 2.05883e-06
43 *251:17 *292:18 2.30558e-05
44 *255:10 *292:10 1.98924e-06
45 *255:18 *292:10 0
46 *275:32 *705:B2 1.06083e-05
*RES
1 *600:Y *292:6 38.0582 
2 *292:6 *292:8 17.2 
3 *292:8 *292:10 58.6631 
4 *292:10 *292:12 17.2 
5 *292:12 *292:18 36.0001 
6 *292:18 *652:B 40.8179 
7 *292:12 *292:35 39.3858 
8 *292:35 *732:A 38.0582 
9 *292:10 *705:B2 41.4006 
*END

*D_NET *293 0.000300899
*CONN
*I *731:A I *D HAxp5_ASAP7_75t_L
*I *707:B2 I *D OA222x2_ASAP7_75t_L
*I *659:A1 I *D OA22x2_ASAP7_75t_L
*I *599:Y O *D INVx1_ASAP7_75t_L
*CAP
1 *731:A 1.1271e-05
2 *707:B2 7.78004e-06
3 *659:A1 1.84395e-06
4 *599:Y 2.0332e-05
5 *293:29 3.94023e-05
6 *293:18 2.32705e-05
7 *293:10 6.21098e-05
8 *707:B2 *707:B1 7.14604e-06
9 *731:A *707:B1 2.26827e-06
10 *731:A *761:CLK 6.6151e-06
11 *731:A *401:29 3.90327e-05
12 *293:10 *448:77 6.79293e-06
13 *293:18 *448:77 0
14 *293:29 *707:B1 4.83862e-06
15 *293:29 *761:CLK 8.46012e-06
16 *293:29 *366:18 0
17 *293:29 *366:26 0
18 *293:29 *448:77 1.73337e-05
19 *13:12 *293:10 0
20 *66:10 *731:A 2.35211e-06
21 *80:10 *293:18 8.06588e-06
22 *80:10 *293:29 1.66587e-05
23 *119:16 *293:10 2.9732e-06
24 *212:16 *293:29 0
25 *247:16 *293:18 2.22736e-06
26 *250:8 *659:A1 5.62196e-06
27 *250:8 *293:18 2.27479e-06
28 *282:10 *731:A 2.22736e-06
*RES
1 *599:Y *293:10 48.2808 
2 *293:10 *293:18 49.5735 
3 *293:18 *659:A1 36.0045 
4 *293:10 *293:29 20.8371 
5 *293:29 *707:B2 39.2134 
6 *293:29 *731:A 48.4791 
*END

*D_NET *294 0.000428551
*CONN
*I *730:A I *D HAxp5_ASAP7_75t_L
*I *663:A1 I *D OA21x2_ASAP7_75t_L
*I *708:B2 I *D OA222x2_ASAP7_75t_L
*I *598:Y O *D INVx1_ASAP7_75t_L
*CAP
1 *730:A 0
2 *663:A1 0
3 *708:B2 0
4 *598:Y 5.28803e-06
5 *294:56 2.80833e-05
6 *294:40 2.32969e-05
7 *294:30 4.00394e-05
8 *294:22 2.89711e-05
9 *294:18 3.81364e-05
10 *294:10 6.26867e-05
11 *294:8 1.39836e-05
12 *294:8 *744:CLK 1.32196e-05
13 *294:8 *345:32 1.95129e-06
14 *294:10 *302:25 3.92613e-05
15 *294:40 *456:20 9.01537e-06
16 *294:40 *456:39 2.02204e-06
17 *294:56 *705:C1 2.25061e-05
18 *294:56 *302:25 2.21039e-06
19 *294:56 *302:33 8.19887e-06
20 *652:B *294:30 1.59615e-06
21 *663:A2 *294:22 1.04475e-06
22 *663:B *294:18 2.25196e-06
23 *732:A *294:56 9.42272e-06
24 *20:40 *294:18 1.32965e-05
25 *20:40 *294:40 1.88042e-06
26 *20:48 *294:30 6.80947e-07
27 *67:18 *294:10 1.62788e-05
28 *67:18 *294:56 3.62246e-06
29 *212:61 *294:30 3.88115e-06
30 *212:73 *294:30 2.63813e-05
31 *245:6 *294:22 0
32 *245:6 *294:30 0
33 *251:17 *294:30 1.12894e-06
34 *252:18 *294:18 0
35 *275:64 *294:40 2.20128e-06
36 *278:67 *294:56 1.95129e-06
37 *292:18 *294:30 4.06224e-06
*RES
1 *598:Y *294:8 38.1438 
2 *294:8 *294:10 13.2344 
3 *294:10 *294:18 45.4173 
4 *294:18 *294:22 22.5483 
5 *294:22 *294:30 47.4644 
6 *294:30 *294:40 47.2311 
7 *294:40 *708:B2 17.2 
8 *294:22 *663:A1 17.2 
9 *294:10 *294:56 35.0211 
10 *294:56 *730:A 17.2 
*END

*D_NET *295 0.00042982
*CONN
*I *729:B I *D HAxp5_ASAP7_75t_L
*I *667:A1 I *D OA21x2_ASAP7_75t_L
*I *709:B2 I *D OA222x2_ASAP7_75t_L
*I *597:Y O *D INVx1_ASAP7_75t_L
*CAP
1 *729:B 6.21333e-06
2 *667:A1 0
3 *709:B2 0
4 *597:Y 8.89211e-06
5 *295:38 2.72577e-05
6 *295:28 2.92387e-05
7 *295:22 1.61282e-05
8 *295:14 0.00011952
9 *295:12 0.000105372
10 *295:10 1.51054e-05
11 *295:14 *457:45 3.59474e-06
12 *295:14 *457:51 2.03608e-06
13 *295:38 *710:A1 8.89433e-07
14 *295:38 *456:57 3.56395e-06
15 *295:38 *456:63 5.80001e-06
16 *295:38 *456:69 8.07536e-06
17 *729:A *295:14 0
18 *20:48 *295:22 2.56182e-05
19 *20:48 *295:28 7.78802e-06
20 *58:10 *295:14 0
21 *60:16 *295:10 8.17002e-07
22 *62:23 *729:B 5.08497e-06
23 *62:23 *295:10 3.14436e-06
24 *63:12 *729:B 5.06311e-07
25 *63:12 *295:10 5.37866e-07
26 *257:10 *295:38 1.23489e-06
27 *275:73 *295:28 8.16765e-06
28 *278:34 *295:22 1.38885e-05
29 *278:36 *295:22 1.1345e-05
*RES
1 *597:Y *295:10 39.3835 
2 *295:10 *295:12 17.2 
3 *295:12 *295:14 43.3208 
4 *295:14 *295:22 46.0848 
5 *295:22 *295:28 37.2158 
6 *295:28 *295:38 34.7679 
7 *295:38 *709:B2 34.4 
8 *295:28 *667:A1 17.2 
9 *295:10 *729:B 39.4685 
*END

*D_NET *296 0.000619528
*CONN
*I *728:A I *D HAxp5_ASAP7_75t_L
*I *710:B2 I *D OA222x2_ASAP7_75t_L
*I *669:B I *D AND3x1_ASAP7_75t_L
*I *596:Y O *D INVx1_ASAP7_75t_L
*CAP
1 *728:A 7.77425e-05
2 *710:B2 0
3 *669:B 0
4 *596:Y 8.41248e-06
5 *296:48 9.0799e-05
6 *296:35 1.11691e-05
7 *296:27 4.90717e-05
8 *296:20 1.77357e-05
9 *296:12 7.05364e-05
10 *296:8 3.6367e-05
11 *728:A *447:14 2.14755e-06
12 *296:12 *329:11 0
13 *296:12 *348:20 3.30589e-06
14 *296:12 *371:20 5.3866e-06
15 *296:12 *441:158 5.75835e-05
16 *296:12 *456:75 0
17 *296:20 *349:28 7.84037e-07
18 *296:20 *441:152 0
19 *296:20 *441:158 0
20 *296:20 *451:50 1.07573e-06
21 *296:20 *456:75 1.27097e-05
22 *296:48 *456:92 3.05126e-06
23 *710:B1 *296:35 6.02341e-06
24 *10:14 *296:8 1.47272e-05
25 *10:14 *296:12 1.83109e-06
26 *20:48 *296:35 3.59918e-05
27 *20:52 *296:27 6.10262e-06
28 *20:52 *296:48 1.17526e-06
29 *20:62 *296:20 3.28696e-07
30 *20:62 *296:27 5.1215e-06
31 *55:42 *728:A 3.14035e-06
32 *56:8 *728:A 2.12481e-06
33 *104:12 *296:20 1.10564e-05
34 *104:12 *296:27 6.98161e-06
35 *148:68 *296:27 1.48143e-05
36 *148:68 *296:48 1.16652e-05
37 *254:10 *296:12 1.26387e-05
38 *275:84 *296:35 3.59918e-05
39 *278:92 *296:48 1.93482e-06
*RES
1 *596:Y *296:8 38.1438 
2 *296:8 *296:12 43.1995 
3 *296:12 *296:20 45.3929 
4 *296:20 *669:B 17.2 
5 *296:12 *296:27 10.8219 
6 *296:27 *296:35 48.488 
7 *296:35 *710:B2 17.2 
8 *296:27 *296:48 40.6844 
9 *296:48 *728:A 46.6154 
*END

*D_NET *297 0.000293762
*CONN
*I *727:B I *D HAxp5_ASAP7_75t_L
*I *952:A I *D BUFx3_ASAP7_75t_L
*I *595:Y O *D INVx1_ASAP7_75t_L
*CAP
1 *727:B 2.49156e-05
2 *952:A 0
3 *595:Y 0
4 *297:31 3.70613e-05
5 *297:23 2.8303e-05
6 *297:10 3.65619e-05
7 *297:4 5.27192e-05
8 *297:10 *350:30 1.34329e-05
9 *297:10 *437:10 3.95845e-06
10 *297:23 *350:22 2.34699e-05
11 *297:23 *412:74 0
12 *297:23 *421:31 0
13 *297:23 *451:72 1.63733e-06
14 *297:31 *461:22 4.77712e-05
15 *678:C *297:10 3.68565e-06
16 *749:D *297:10 0
17 *262:10 *297:10 5.37866e-07
18 *285:30 *297:31 1.97082e-05
*RES
1 *595:Y *297:4 17.2 
2 *297:4 *297:10 35.076 
3 *297:10 *952:A 34.4 
4 *297:4 *297:23 46.8835 
5 *297:23 *297:31 43.6571 
6 *297:31 *727:B 31.6403 
*END

*D_NET *298 0.000259993
*CONN
*I *726:A I *D HAxp5_ASAP7_75t_L
*I *977:A I *D BUFx3_ASAP7_75t_L
*I *594:Y O *D INVx2_ASAP7_75t_L
*CAP
1 *726:A 1.50922e-05
2 *977:A 0
3 *594:Y 2.3516e-05
4 *298:22 5.9818e-06
5 *298:14 3.1164e-05
6 *298:10 4.91287e-05
7 *298:8 3.23703e-05
8 *726:A *352:24 0
9 *298:8 *684:A1 6.7842e-07
10 *298:10 *684:A1 0
11 *684:B1 *298:8 9.13615e-06
12 *8:6 *726:A 1.44053e-05
13 *8:12 *726:A 0
14 *52:33 *298:22 3.31686e-06
15 *145:106 *298:8 2.93253e-06
16 *145:110 *298:8 1.20203e-06
17 *145:110 *298:14 6.56538e-05
18 *145:110 *298:22 5.41446e-06
*RES
1 *594:Y *298:8 45.6313 
2 *298:8 *298:10 5.06849 
3 *298:10 *298:14 35.9189 
4 *298:14 *298:22 38.8203 
5 *298:22 *977:A 17.2 
6 *298:10 *726:A 43.7754 
*END

*D_NET *299 0.000139645
*CONN
*I *725:A I *D HAxp5_ASAP7_75t_L
*I *954:A I *D BUFx3_ASAP7_75t_L
*I *593:Y O *D INVx1_ASAP7_75t_L
*CAP
1 *725:A 0
2 *954:A 0
3 *593:Y 7.40447e-06
4 *299:23 1.30611e-05
5 *299:12 1.45741e-05
6 *299:8 8.91753e-06
7 *299:12 *439:6 2.12481e-06
8 *299:12 *451:129 5.62196e-06
9 *299:23 *439:6 4.41457e-06
10 *299:23 *451:129 1.27802e-05
11 *7:8 *299:8 9.94583e-06
12 *46:21 *299:8 0
13 *46:21 *299:23 1.5033e-05
14 *159:18 *299:8 3.32579e-06
15 *159:18 *299:23 1.63973e-05
16 *159:33 *299:23 2.27181e-05
17 *266:18 *299:8 3.32579e-06
*RES
1 *593:Y *299:8 42.2843 
2 *299:8 *299:12 18.8045 
3 *299:12 *954:A 17.2 
4 *299:12 *299:23 33.8966 
5 *299:23 *725:A 34.4 
*END

*D_NET *300 0.000211778
*CONN
*I *976:A I *D BUFx3_ASAP7_75t_L
*I *724:A I *D HAxp5_ASAP7_75t_L
*I *592:Y O *D INVx1_ASAP7_75t_L
*CAP
1 *976:A 0
2 *724:A 0
3 *592:Y 9.29946e-06
4 *300:31 1.78658e-05
5 *300:23 4.77086e-05
6 *300:10 3.91423e-05
7 *300:31 *361:10 0
8 *300:31 *398:8 7.84037e-07
9 *300:31 *442:8 0
10 *491:A1 *300:23 3.48286e-05
11 *492:A2 *300:10 2.28976e-06
12 *950:A *300:31 6.33206e-07
13 *43:24 *300:10 1.32406e-05
14 *44:10 *300:10 3.6665e-06
15 *44:10 *300:23 8.51183e-06
16 *44:31 *300:23 5.51814e-06
17 *117:13 *300:31 1.1364e-05
18 *121:10 *300:10 1.63733e-06
19 *124:26 *300:10 2.04215e-06
20 *124:26 *300:23 1.32459e-05
*RES
1 *592:Y *300:10 42.7625 
2 *300:10 *724:A 34.4 
3 *300:10 *300:23 38.625 
4 *300:23 *300:31 47.4909 
5 *300:31 *976:A 17.2 
*END

*D_NET *301 6.07226e-05
*CONN
*I *958:A I *D BUFx3_ASAP7_75t_L
*I *733:B I *D HAxp5_ASAP7_75t_L
*I *468:Y O *D INVx1_ASAP7_75t_L
*CAP
1 *958:A 3.1212e-06
2 *733:B 1.78044e-05
3 *468:Y 6.89643e-06
4 *301:8 2.78221e-05
5 *733:B *448:14 0
6 *958:A *401:61 2.20493e-06
7 *958:A *448:14 0
8 *301:8 *401:61 2.0895e-06
9 *71:8 *733:B 7.84037e-07
10 *71:18 *733:B 0
11 *145:60 *733:B 0
*RES
1 *468:Y *301:8 38.1438 
2 *301:8 *733:B 47.3528 
3 *301:8 *958:A 37.694 
*END

*D_NET *302 0.000562063
*CONN
*I *705:C1 I *D OA222x2_ASAP7_75t_L
*I *654:A1 I *D AO221x2_ASAP7_75t_L
*I *717:CI I *D FAx1_ASAP7_75t_L
*I *467:Y O *D INVx1_ASAP7_75t_L
*CAP
1 *705:C1 1.12945e-05
2 *654:A1 1.21064e-06
3 *717:CI 2.17505e-06
4 *467:Y 1.12145e-05
5 *302:33 8.90336e-06
6 *302:25 3.39188e-05
7 *302:16 2.93585e-05
8 *302:10 5.11876e-05
9 *302:8 2.02872e-05
10 *705:C1 *412:24 2.98814e-07
11 *705:C1 *457:12 4.10928e-06
12 *302:8 *441:28 1.68903e-05
13 *302:10 *345:26 6.72101e-06
14 *302:10 *387:10 1.98844e-05
15 *302:16 *441:16 0
16 *24:6 *717:CI 7.11252e-08
17 *67:18 *302:25 6.01205e-06
18 *67:18 *302:33 8.06436e-06
19 *105:16 *302:16 3.66338e-05
20 *128:8 *302:10 3.84405e-05
21 *128:8 *302:25 6.61697e-06
22 *148:29 *302:16 6.50923e-05
23 *148:56 *302:16 7.3244e-06
24 *245:10 *705:C1 1.27881e-05
25 *245:10 *302:10 2.87273e-06
26 *245:10 *302:25 7.45175e-05
27 *246:14 *654:A1 3.90258e-06
28 *278:67 *705:C1 9.59819e-06
29 *292:35 *705:C1 4.97876e-07
30 *294:10 *302:25 3.92613e-05
31 *294:56 *705:C1 2.25061e-05
32 *294:56 *302:25 2.21039e-06
33 *294:56 *302:33 8.19887e-06
*RES
1 *467:Y *302:8 39.2134 
2 *302:8 *302:10 13.4221 
3 *302:10 *302:16 49.1178 
4 *302:16 *717:CI 18.4202 
5 *302:10 *302:25 25.4363 
6 *302:25 *302:33 39.89 
7 *302:33 *654:A1 35.4697 
8 *302:25 *705:C1 46.733 
*END

*D_NET *303 0.000174856
*CONN
*P req_msg[0] I
*I *695:A I *D BUFx2_ASAP7_75t_L
*CAP
1 req_msg[0] 2.6365e-05
2 *695:A 0
3 *303:13 3.50434e-05
4 *303:9 6.14083e-05
5 *303:9 resp_msg[0] 2.16671e-05
6 *303:9 *310:9 2.35027e-05
7 *303:13 *310:13 0
8 *279:6 *303:13 6.86929e-06
*RES
1 req_msg[0] *303:9 35.8776 
2 *303:9 *303:13 43.4064 
3 *303:13 *695:A 17.2 
*END

*D_NET *304 0.00019069
*CONN
*P req_msg[10] I
*I *692:A I *D BUFx2_ASAP7_75t_L
*CAP
1 req_msg[10] 4.27536e-05
2 *692:A 1.95342e-05
3 *304:7 6.22878e-05
4 *304:7 *305:9 6.61145e-05
*RES
1 req_msg[10] *304:7 42.1445 
2 *304:7 *692:A 49.5116 
*END

*D_NET *305 0.000301356
*CONN
*P req_msg[11] I
*I *690:A I *D BUFx2_ASAP7_75t_L
*CAP
1 req_msg[11] 4.47193e-05
2 *690:A 0
3 *305:13 3.5717e-05
4 *305:9 8.04363e-05
5 *305:9 resp_msg[10] 0
6 *305:9 resp_msg[12] 8.98736e-06
7 *305:9 *321:11 2.35027e-05
8 *305:13 *321:13 4.18791e-05
9 *304:7 *305:9 6.61145e-05
*RES
1 req_msg[11] *305:9 46.6112 
2 *305:9 *305:13 41.2671 
3 *305:13 *690:A 17.2 
*END

*D_NET *306 0.000173735
*CONN
*P req_msg[12] I
*I *614:A I *D BUFx2_ASAP7_75t_L
*CAP
1 req_msg[12] 3.71796e-05
2 *614:A 0
3 *306:13 4.96878e-05
4 *306:9 8.68674e-05
*RES
1 req_msg[12] *306:9 36.5977 
2 *306:9 *306:13 46.6154 
3 *306:13 *614:A 17.2 
*END

*D_NET *307 0.000272255
*CONN
*P req_msg[13] I
*I *613:A I *D BUFx2_ASAP7_75t_L
*CAP
1 req_msg[13] 4.57298e-05
2 *613:A 0
3 *307:13 2.21825e-05
4 *307:9 6.79123e-05
5 *307:9 *308:9 2.53632e-06
6 *307:9 *309:9 6.28993e-05
7 *307:9 *324:9 0
8 *307:9 *326:5 0
9 *307:13 *309:13 7.09949e-05
*RES
1 req_msg[13] *307:9 46.0481 
2 *307:9 *307:13 39.1278 
3 *307:13 *613:A 17.2 
*END

*D_NET *308 0.000327091
*CONN
*P req_msg[14] I
*I *610:A I *D BUFx2_ASAP7_75t_L
*CAP
1 req_msg[14] 3.38863e-05
2 *610:A 0
3 *308:13 3.38304e-05
4 *308:11 3.38304e-05
5 *308:9 3.38863e-05
6 *308:9 *309:9 6.16962e-05
7 *308:9 *324:9 7.86956e-05
8 *308:13 *636:A 5.22376e-06
9 *308:13 *324:13 2.67139e-05
10 *232:6 *308:13 1.67916e-05
11 *307:9 *308:9 2.53632e-06
*RES
1 req_msg[14] *308:9 49.9041 
2 *308:9 *308:11 17.2 
3 *308:11 *308:13 33.1591 
4 *308:13 *610:A 17.2 
*END

*D_NET *309 0.000343975
*CONN
*P req_msg[15] I
*I *517:A I *D BUFx2_ASAP7_75t_L
*CAP
1 req_msg[15] 2.22349e-05
2 *517:A 0
3 *309:13 4.25156e-05
4 *309:11 4.25156e-05
5 *309:9 2.22349e-05
6 *149:10 *309:13 6.86929e-06
7 *213:8 *309:13 1.20147e-05
8 *307:9 *309:9 6.28993e-05
9 *307:13 *309:13 7.09949e-05
10 *308:9 *309:9 6.16962e-05
*RES
1 req_msg[15] *309:9 42.7308 
2 *309:9 *309:11 17.2 
3 *309:11 *309:13 39.0422 
4 *309:13 *517:A 17.2 
*END

*D_NET *310 0.000302365
*CONN
*P req_msg[16] I
*I *508:A I *D BUFx2_ASAP7_75t_L
*CAP
1 req_msg[16] 2.388e-05
2 *508:A 0
3 *310:13 0.000101269
4 *310:11 0.000101269
5 *310:9 2.388e-05
6 *310:9 *380:12 1.26918e-05
7 *310:13 *380:6 1.41037e-05
8 *142:6 *310:13 1.76928e-06
9 *303:9 *310:9 2.35027e-05
10 *303:13 *310:13 0
*RES
1 req_msg[16] *310:9 36.1425 
2 *310:9 *310:11 17.2 
3 *310:11 *310:13 73.271 
4 *310:13 *508:A 17.2 
*END

*D_NET *311 0.000107022
*CONN
*P req_msg[17] I
*I *494:A I *D BUFx2_ASAP7_75t_L
*CAP
1 req_msg[17] 3.67695e-05
2 *494:A 0
3 *311:15 3.04735e-06
4 *311:9 3.98168e-05
5 *311:9 resp_msg[1] 2.71041e-05
6 *311:9 *314:9 0
7 *311:15 *314:15 0
8 *311:15 *387:10 2.83874e-07
*RES
1 req_msg[17] *311:9 34.057 
2 *311:9 *311:15 36.3711 
3 *311:15 *494:A 17.2 
*END

*D_NET *312 0.000108539
*CONN
*P req_msg[18] I
*I *485:A I *D BUFx2_ASAP7_75t_L
*CAP
1 req_msg[18] 4.92809e-05
2 *485:A 0
3 *312:15 2.13082e-06
4 *312:9 5.14117e-05
5 *312:9 resp_msg[2] 0
6 *312:9 *313:9 0
7 *312:15 *388:8 5.71541e-06
*RES
1 req_msg[18] *312:9 36.1131 
2 *312:9 *312:15 36.3711 
3 *312:15 *485:A 17.2 
*END

*D_NET *313 0.000139589
*CONN
*P req_msg[19] I
*I *484:A I *D BUFx2_ASAP7_75t_L
*CAP
1 req_msg[19] 3.90843e-05
2 *484:A 0
3 *313:15 1.93523e-06
4 *313:9 4.10195e-05
5 *313:9 resp_msg[2] 2.67819e-05
6 *313:9 resp_msg[3] 6.97583e-07
7 *313:9 *315:11 2.43547e-05
8 *313:9 *325:11 0
9 *313:15 *881:A 0
10 *313:15 *315:15 5.71541e-06
11 *312:9 *313:9 0
*RES
1 req_msg[19] *313:9 36.0049 
2 *313:9 *313:15 36.3711 
3 *313:15 *484:A 17.2 
*END

*D_NET *314 0.000108053
*CONN
*P req_msg[1] I
*I *473:A I *D BUFx2_ASAP7_75t_L
*CAP
1 req_msg[1] 4.11811e-05
2 *473:A 0
3 *314:15 1.28456e-05
4 *314:9 5.40267e-05
5 *311:9 *314:9 0
6 *311:15 *314:15 0
*RES
1 req_msg[1] *314:9 33.7323 
2 *314:9 *314:15 44.8186 
3 *314:15 *473:A 17.2 
*END

*D_NET *315 0.000225184
*CONN
*P req_msg[20] I
*I *471:A I *D BUFx2_ASAP7_75t_L
*CAP
1 req_msg[20] 8.77585e-06
2 *471:A 3.73617e-05
3 *315:15 6.07005e-05
4 *315:11 3.21146e-05
5 *471:A *881:A 4.10256e-06
6 *471:A *366:10 5.25794e-06
7 *315:11 resp_msg[3] 2.83599e-05
8 *315:15 *389:10 1.84409e-05
9 *313:9 *315:11 2.43547e-05
10 *313:15 *315:15 5.71541e-06
*RES
1 req_msg[20] *315:11 38.9722 
2 *315:11 *315:15 40.9468 
3 *315:15 *471:A 40.1975 
*END

*D_NET *316 0.00020285
*CONN
*P req_msg[21] I
*I *469:A I *D BUFx2_ASAP7_75t_L
*CAP
1 req_msg[21] 2.76783e-05
2 *469:A 0
3 *316:13 4.78552e-05
4 *316:9 7.55336e-05
5 *316:9 resp_msg[5] 5.17826e-05
6 *316:9 *317:9 0
*RES
1 req_msg[21] *316:9 37.7594 
2 *316:9 *316:13 41.2671 
3 *316:13 *469:A 17.2 
*END

*D_NET *317 0.000327621
*CONN
*P req_msg[22] I
*I *873:A I *D BUFx2_ASAP7_75t_L
*CAP
1 req_msg[22] 4.35228e-05
2 *873:A 0
3 *317:13 4.14835e-05
4 *317:9 8.50062e-05
5 *317:9 *331:9 6.09979e-05
6 *317:9 *374:12 4.79132e-07
7 *317:9 *392:20 0
8 *317:13 *319:13 3.5445e-06
9 *317:13 *372:6 9.25869e-05
10 *316:9 *317:9 0
*RES
1 req_msg[22] *317:9 44.1818 
2 *317:9 *317:13 49.8243 
3 *317:13 *873:A 17.2 
*END

*D_NET *318 0.000119051
*CONN
*P req_msg[23] I
*I *874:A I *D BUFx2_ASAP7_75t_L
*CAP
1 req_msg[23] 3.02098e-05
2 *874:A 0
3 *318:9 3.02098e-05
4 *318:9 *329:5 0
5 *318:9 *330:9 5.86317e-05
*RES
1 req_msg[23] *318:9 40.7321 
2 *318:9 *874:A 34.4 
*END

*D_NET *319 0.000241767
*CONN
*P req_msg[24] I
*I *875:A I *D BUFx2_ASAP7_75t_L
*CAP
1 req_msg[24] 2.60376e-05
2 *875:A 0
3 *319:13 6.69298e-05
4 *319:11 6.69298e-05
5 *319:9 2.60376e-05
6 *319:9 resp_msg[6] 2.28166e-05
7 *319:9 *333:9 0
8 *319:13 *372:6 2.94709e-05
9 *317:13 *319:13 3.5445e-06
*RES
1 req_msg[24] *319:9 35.4424 
2 *319:9 *319:11 17.2 
3 *319:11 *319:13 48.6691 
4 *319:13 *875:A 17.2 
*END

*D_NET *320 0.0005391
*CONN
*P req_msg[25] I
*I *876:A I *D BUFx2_ASAP7_75t_L
*CAP
1 req_msg[25] 1.95451e-05
2 *876:A 0
3 *320:13 8.42121e-05
4 *320:11 0.000103757
5 *320:11 resp_msg[9] 1.39101e-05
6 *320:11 *334:9 0
7 *320:13 *395:8 0.000317675
*RES
1 req_msg[25] *320:11 40.0981 
2 *320:11 *320:13 104.467 
3 *320:13 *876:A 34.4 
*END

*D_NET *321 0.000326135
*CONN
*P req_msg[26] I
*I *877:A I *D BUFx2_ASAP7_75t_L
*CAP
1 req_msg[26] 1.70534e-05
2 *877:A 0
3 *321:13 0.000100629
4 *321:11 0.000117683
5 *321:11 resp_msg[12] 2.35027e-05
6 *321:13 *623:B 1.885e-06
7 *321:13 *383:6 0
8 *305:9 *321:11 2.35027e-05
9 *305:13 *321:13 4.18791e-05
*RES
1 req_msg[26] *321:11 49.588 
2 *321:11 *321:13 67.3879 
3 *321:13 *877:A 17.2 
*END

*D_NET *322 0.000271771
*CONN
*P req_msg[27] I
*I *878:A I *D BUFx2_ASAP7_75t_L
*CAP
1 req_msg[27] 2.98532e-05
2 *878:A 0
3 *322:13 9.18715e-05
4 *322:11 9.18715e-05
5 *322:9 2.98532e-05
6 *322:9 resp_msg[10] 2.83213e-05
7 *322:9 *324:9 0
8 *322:13 *383:6 0
*RES
1 req_msg[27] *322:9 37.4347 
2 *322:9 *322:11 17.2 
3 *322:11 *322:13 54.0173 
4 *322:13 *878:A 17.2 
*END

*D_NET *323 0.000142812
*CONN
*P req_msg[28] I
*I *879:A I *D BUFx2_ASAP7_75t_L
*CAP
1 req_msg[28] 2.99445e-05
2 *879:A 0
3 *323:17 1.34692e-05
4 *323:9 4.34137e-05
5 *323:9 *354:5 5.59842e-05
6 *323:17 *396:10 0
*RES
1 req_msg[28] *323:9 33.7323 
2 *323:9 *323:17 42.2542 
3 *323:17 *879:A 17.2 
*END

*D_NET *324 0.000235518
*CONN
*P req_msg[29] I
*I *880:A I *D BUFx2_ASAP7_75t_L
*CAP
1 req_msg[29] 4.16886e-05
2 *880:A 0
3 *324:13 1.73051e-05
4 *324:9 5.89938e-05
5 *324:9 resp_msg[10] 0
6 *324:13 *636:A 1.21211e-05
7 *307:9 *324:9 0
8 *308:9 *324:9 7.86956e-05
9 *308:13 *324:13 2.67139e-05
10 *322:9 *324:9 0
*RES
1 req_msg[29] *324:9 46.6112 
2 *324:9 *324:13 35.9189 
3 *324:13 *880:A 17.2 
*END

*D_NET *325 0.000106491
*CONN
*P req_msg[2] I
*I *881:A I *D BUFx2_ASAP7_75t_L
*CAP
1 req_msg[2] 3.4881e-05
2 *881:A 1.6313e-05
3 *325:11 5.1194e-05
4 *325:11 req_rdy 0
5 *325:11 resp_msg[3] 0
6 *471:A *881:A 4.10256e-06
7 *313:9 *325:11 0
8 *313:15 *881:A 0
*RES
1 req_msg[2] *325:11 47.3938 
2 *325:11 *881:A 45.0523 
*END

*D_NET *326 0.00025752
*CONN
*P req_msg[30] I
*I *882:A I *D BUFx2_ASAP7_75t_L
*CAP
1 req_msg[30] 7.19474e-05
2 *882:A 3.03052e-05
3 *326:11 3.24124e-05
4 *326:5 7.40546e-05
5 *882:A *367:10 8.65792e-06
6 *326:5 *327:9 4.01427e-05
7 *307:9 *326:5 0
*RES
1 req_msg[30] *326:5 37.9308 
2 *326:5 *326:11 35.4325 
3 *326:11 *882:A 35.9189 
*END

*D_NET *327 0.000178237
*CONN
*P req_msg[31] I
*I *883:A I *D BUFx2_ASAP7_75t_L
*CAP
1 req_msg[31] 2.68573e-05
2 *883:A 0
3 *327:13 3.61292e-05
4 *327:9 6.29865e-05
5 *327:13 *368:6 1.21211e-05
6 *326:5 *327:9 4.01427e-05
*RES
1 req_msg[31] *327:9 37.2933 
2 *327:9 *327:13 42.3368 
3 *327:13 *883:A 17.2 
*END

*D_NET *328 0.000152968
*CONN
*P req_msg[3] I
*I *884:A I *D BUFx2_ASAP7_75t_L
*CAP
1 req_msg[3] 3.95495e-05
2 *884:A 0
3 *328:13 3.69347e-05
4 *328:9 7.64842e-05
*RES
1 req_msg[3] *328:9 38.1348 
2 *328:9 *328:13 34.8492 
3 *328:13 *884:A 17.2 
*END

*D_NET *329 0.000468736
*CONN
*P req_msg[4] I
*I *885:A I *D BUFx2_ASAP7_75t_L
*CAP
1 req_msg[4] 0.000125624
2 *885:A 0
3 *329:11 1.28572e-05
4 *329:5 0.000138481
5 *329:5 resp_msg[4] 0.00019112
6 *329:11 *390:8 6.54718e-07
7 *296:12 *329:11 0
8 *318:9 *329:5 0
*RES
1 req_msg[4] *329:5 79.8115 
2 *329:5 *329:11 43.5045 
3 *329:11 *885:A 17.2 
*END

*D_NET *330 0.000369043
*CONN
*P req_msg[5] I
*I *886:A I *D BUFx2_ASAP7_75t_L
*CAP
1 req_msg[5] 2.96646e-05
2 *886:A 0
3 *330:13 3.85513e-05
4 *330:9 6.82159e-05
5 *330:9 resp_msg[5] 6.35145e-05
6 *330:13 *359:6 0.000110465
7 *318:9 *330:9 5.86317e-05
*RES
1 req_msg[5] *330:9 44.2525 
2 *330:9 *330:13 49.8243 
3 *330:13 *886:A 17.2 
*END

*D_NET *331 0.000154938
*CONN
*P req_msg[6] I
*I *887:A I *D BUFx2_ASAP7_75t_L
*CAP
1 req_msg[6] 1.76652e-05
2 *887:A 0
3 *331:9 1.76652e-05
4 *331:9 resp_msg[6] 5.84224e-05
5 *331:9 *392:20 1.87008e-07
6 *317:9 *331:9 6.09979e-05
*RES
1 req_msg[6] *331:9 39.8796 
2 *331:9 *887:A 34.4 
*END

*D_NET *332 0.000233606
*CONN
*P req_msg[7] I
*I *888:A I *D BUFx2_ASAP7_75t_L
*CAP
1 req_msg[7] 7.66405e-05
2 *888:A 0
3 *332:11 1.02582e-05
4 *332:5 8.68986e-05
5 *332:5 resp_msg[8] 2.8876e-05
6 *332:5 *333:9 2.28166e-05
7 *332:5 *461:30 8.11615e-06
8 *285:10 *332:5 0
9 *285:18 *332:5 0
10 *285:22 *332:5 0
*RES
1 req_msg[7] *332:5 41.502 
2 *332:5 *332:11 42.0027 
3 *332:11 *888:A 17.2 
*END

*D_NET *333 0.000142944
*CONN
*P req_msg[8] I
*I *889:A I *D BUFx2_ASAP7_75t_L
*CAP
1 req_msg[8] 2.61583e-05
2 *889:A 0
3 *333:13 3.39054e-05
4 *333:9 6.00637e-05
5 *319:9 *333:9 0
6 *332:5 *333:9 2.28166e-05
*RES
1 req_msg[8] *333:9 38.6337 
2 *333:9 *333:13 42.3368 
3 *333:13 *889:A 17.2 
*END

*D_NET *334 0.000400145
*CONN
*P req_msg[9] I
*I *890:A I *D BUFx2_ASAP7_75t_L
*CAP
1 req_msg[9] 6.51218e-05
2 *890:A 0
3 *334:31 4.55211e-06
4 *334:25 5.54349e-05
5 *334:19 5.42677e-05
6 *334:13 7.37028e-05
7 *334:11 7.03179e-05
8 *334:9 6.51218e-05
9 *334:9 resp_msg[9] 1.16264e-05
10 *320:11 *334:9 0
*RES
1 req_msg[9] *334:9 48.4712 
2 *334:9 *334:11 17.2 
3 *334:11 *334:13 57.6307 
4 *334:13 *334:19 29.9199 
5 *334:19 *334:25 34.1444 
6 *334:25 *334:31 37.4974 
7 *334:31 *890:A 17.2 
*END

*D_NET *335 0.00169349
*CONN
*I *644:A1 I *D AO21x1_ASAP7_75t_L
*I *649:A1 I *D AO21x1_ASAP7_75t_L
*I *638:A1 I *D AO21x1_ASAP7_75t_L
*I *619:A1 I *D AO21x1_ASAP7_75t_L
*I *615:A1 I *D AO21x1_ASAP7_75t_L
*I *634:A1 I *D OA33x2_ASAP7_75t_L
*I *633:A1 I *D AO21x1_ASAP7_75t_L
*I *956:A I *D BUFx6f_ASAP7_75t_L
*I *521:A2 I *D AO221x1_ASAP7_75t_L
*I *470:Y O *D INVx1_ASAP7_75t_L
*CAP
1 *644:A1 1.43278e-05
2 *649:A1 9.18837e-06
3 *638:A1 1.59315e-05
4 *619:A1 4.66922e-06
5 *615:A1 1.38543e-05
6 *634:A1 3.90034e-06
7 *633:A1 0
8 *956:A 6.78067e-05
9 *521:A2 0
10 *470:Y 0
11 *335:141 2.35161e-05
12 *335:139 7.45129e-05
13 *335:128 3.42181e-05
14 *335:120 0.000107939
15 *335:118 2.64746e-05
16 *335:101 6.08555e-05
17 *335:90 7.28484e-05
18 *335:88 5.48621e-05
19 *335:84 4.16826e-05
20 *335:78 5.25112e-05
21 *335:74 8.76041e-05
22 *335:59 4.84019e-05
23 *335:57 4.45015e-05
24 *335:43 7.99102e-05
25 *335:30 2.93e-05
26 *335:28 3.08722e-05
27 *335:22 2.9009e-05
28 *335:12 5.0715e-05
29 *335:10 4.6286e-05
30 *335:4 4.69611e-05
31 *619:A1 *453:163 6.7842e-07
32 *644:A1 *368:22 2.20728e-05
33 *649:A1 *368:22 1.95129e-06
34 *335:12 *519:A 4.57952e-06
35 *335:22 *519:A 7.17625e-06
36 *335:28 *355:8 1.37455e-06
37 *335:28 *364:10 3.3563e-06
38 *335:30 *355:12 1.51802e-05
39 *335:43 *355:8 0
40 *335:84 *338:12 7.84772e-07
41 *335:88 *380:6 4.29684e-06
42 *335:101 *453:146 1.22047e-05
43 *335:101 *453:163 6.10236e-08
44 *335:101 *453:169 7.63354e-06
45 *335:118 *453:169 7.79246e-06
46 *335:120 *453:169 5.32544e-06
47 *335:120 *455:8 2.3866e-06
48 *335:128 *455:12 4.26765e-05
49 *335:139 *363:8 0
50 *335:139 *402:75 0
51 *607:A *335:74 1.94745e-06
52 *615:B *615:A1 1.56713e-06
53 *615:B *335:101 0
54 *633:B *335:28 3.39823e-06
55 *638:A2 *638:A1 1.885e-06
56 *638:B *638:A1 3.66711e-06
57 *644:B *335:139 5.23062e-06
58 *1:8 *335:30 1.56713e-06
59 *1:12 *335:22 0
60 *1:12 *335:28 0
61 *1:12 *335:43 0
62 *3:10 *335:12 5.62196e-06
63 *3:10 *335:22 1.66706e-05
64 *14:23 *335:139 5.67747e-07
65 *17:12 *335:12 1.56713e-06
66 *18:39 *335:139 0
67 *21:8 *335:43 4.83862e-06
68 *21:12 *956:A 5.85387e-06
69 *28:12 *335:139 1.49407e-08
70 *28:64 *335:139 0
71 *70:10 *335:74 1.1211e-07
72 *71:14 *335:74 1.75548e-05
73 *75:8 *335:59 4.57263e-07
74 *106:8 *335:43 3.92018e-06
75 *106:17 *335:43 1.08748e-05
76 *140:12 *335:59 7.55813e-05
77 *142:6 *615:A1 3.28582e-06
78 *142:14 *615:A1 1.52651e-06
79 *145:29 *335:43 1.87709e-06
80 *148:12 *335:22 1.96231e-05
81 *148:12 *335:28 1.01518e-06
82 *148:12 *335:59 1.11063e-05
83 *148:107 *335:59 8.02116e-06
84 *148:182 *335:139 6.45149e-06
85 *148:236 *335:101 5.97925e-05
86 *150:8 *335:43 6.33206e-07
87 *151:6 *335:12 3.65663e-06
88 *208:76 *335:59 1.15587e-05
89 *213:12 *335:139 0
90 *215:10 *615:A1 1.7743e-05
91 *215:10 *335:90 0
92 *215:16 *335:88 2.41315e-05
93 *221:14 *335:118 0
94 *223:8 *335:139 7.99156e-07
95 *230:10 *335:59 0
96 *232:10 *335:139 0
97 *232:18 *335:128 8.08364e-06
98 *234:10 *638:A1 1.885e-06
99 *237:10 *335:139 2.19448e-07
100 *238:10 *335:139 1.59825e-05
101 *239:10 *335:139 0
102 *240:10 *335:139 1.67815e-06
103 *243:10 *649:A1 0
104 *248:14 *956:A 1.77608e-05
105 *288:8 *335:12 1.56713e-06
106 *291:10 *335:139 0
*RES
1 *470:Y *335:4 17.2 
2 *335:4 *335:10 41.158 
3 *335:10 *335:12 25.1368 
4 *335:12 *335:22 47.5759 
5 *335:22 *335:28 45.6633 
6 *335:28 *335:30 14.9751 
7 *335:30 *521:A2 17.2 
8 *335:30 *335:43 46.7897 
9 *335:43 *956:A 48.7547 
10 *335:22 *633:A1 17.2 
11 *335:12 *335:57 17.2 
12 *335:57 *335:59 41.6743 
13 *335:59 *634:A1 36.0045 
14 *335:4 *335:74 36.6326 
15 *335:74 *335:78 33.8657 
16 *335:78 *335:84 35.057 
17 *335:84 *335:88 44.4761 
18 *335:88 *335:90 9.01066 
19 *335:90 *615:A1 46.701 
20 *335:90 *335:101 38.8585 
21 *335:101 *619:A1 36.0045 
22 *335:101 *335:118 40.4531 
23 *335:118 *335:120 11.1695 
24 *335:120 *335:128 43.571 
25 *335:128 *638:A1 43.492 
26 *335:120 *335:139 54.721 
27 *335:139 *335:141 17.2 
28 *335:141 *649:A1 20.9438 
29 *335:141 *644:A1 24.1527 
*END

*D_NET *336 0.000135186
*CONN
*P req_val I
*I *891:A I *D BUFx2_ASAP7_75t_L
*CAP
1 req_val 3.65473e-05
2 *891:A 0
3 *336:15 3.17822e-06
4 *336:9 3.97255e-05
5 *336:9 *337:5 5.57354e-05
6 *336:15 *396:10 0
*RES
1 req_val *336:9 35.8967 
2 *336:9 *336:15 36.3711 
3 *336:15 *891:A 17.2 
*END

*D_NET *337 0.000392967
*CONN
*P reset I
*I *892:A I *D BUFx2_ASAP7_75t_L
*CAP
1 reset 0.000140142
2 *892:A 0
3 *337:13 1.86975e-05
4 *337:5 0.000158839
5 *337:5 resp_val 1.55793e-05
6 *337:5 *354:5 0
7 *337:13 *396:10 3.97423e-06
8 *336:9 *337:5 5.57354e-05
*RES
1 reset *337:5 72.1749 
2 *337:5 *337:13 41.6878 
3 *337:13 *892:A 34.4 
*END

*D_NET *338 0.000147751
*CONN
*I *895:A I *D BUFx2_ASAP7_75t_L
*I *616:B2 I *D AO221x1_ASAP7_75t_L
*I *733:SN O *D HAxp5_ASAP7_75t_L
*CAP
1 *895:A 3.22935e-06
2 *616:B2 0
3 *733:SN 3.98638e-05
4 *338:22 1.48504e-05
5 *338:12 2.58072e-05
6 *338:6 4.75913e-05
7 *617:A2 *338:6 4.73041e-06
8 *617:B *338:6 6.79089e-06
9 *617:B *338:12 0
10 *617:B *338:22 2.19685e-06
11 *215:22 *338:12 4.64191e-07
12 *215:22 *338:22 0
13 *216:8 *338:22 1.44167e-06
14 *335:84 *338:12 7.84772e-07
*RES
1 *733:SN *338:6 36.9885 
2 *338:6 *338:12 39.4685 
3 *338:12 *338:22 44.9018 
4 *338:22 *616:B2 17.2 
5 *338:12 *895:A 18.8045 
*END

*D_NET *339 0.000859251
*CONN
*I *896:A I *D BUFx2_ASAP7_75t_L
*I *620:B2 I *D AO221x1_ASAP7_75t_L
*I *559:Y O *D XOR2x2_ASAP7_75t_L
*CAP
1 *896:A 0
2 *620:B2 0
3 *559:Y 4.36892e-05
4 *339:47 7.91791e-06
5 *339:41 0.000122192
6 *339:39 0.000114275
7 *339:32 2.05832e-05
8 *339:24 4.00599e-05
9 *339:18 4.50325e-05
10 *339:14 5.23241e-05
11 *339:6 7.04575e-05
12 *339:6 *425:54 3.76571e-05
13 *339:14 *424:23 0
14 *339:14 *454:16 2.94057e-05
15 *339:18 *401:111 5.08581e-05
16 *339:18 *419:14 1.35818e-06
17 *339:18 *429:16 4.56036e-05
18 *339:18 *429:35 2.94203e-05
19 *339:24 *455:18 1.60932e-05
20 *339:32 *417:151 3.36331e-06
21 *339:32 *455:18 1.56288e-05
22 *339:41 *429:12 4.0776e-06
23 *339:41 *450:22 2.55196e-06
24 *339:47 *363:8 0
25 *18:18 *339:41 0
26 *25:25 *339:14 6.10253e-06
27 *27:14 *339:24 9.92599e-06
28 *37:12 *339:32 0
29 *73:8 *339:32 4.26607e-06
30 *130:8 *339:14 2.68255e-06
31 *140:8 *339:6 3.81627e-06
32 *148:113 *339:24 5.68454e-06
33 *148:113 *339:32 1.49407e-08
34 *148:125 *339:18 9.96257e-06
35 *148:125 *339:24 2.15344e-05
36 *148:145 *339:14 2.17894e-05
37 *210:12 *339:41 0
38 *212:133 *339:32 8.29207e-06
39 *219:6 *339:32 1.40419e-08
40 *223:12 *339:41 0
41 *233:12 *339:41 3.74016e-07
42 *275:145 *339:18 3.75295e-06
43 *275:145 *339:24 4.15517e-06
44 *275:145 *339:32 2.68255e-06
45 *278:150 *339:18 1.09842e-06
46 *289:25 *339:18 5.52807e-07
*RES
1 *559:Y *339:6 39.1278 
2 *339:6 *339:14 47.553 
3 *339:14 *339:18 49.3005 
4 *339:18 *339:24 33.484 
5 *339:24 *339:32 48.9856 
6 *339:32 *620:B2 17.2 
7 *339:18 *339:39 17.2 
8 *339:39 *339:41 39.3917 
9 *339:41 *339:47 40.6887 
10 *339:47 *896:A 17.2 
*END

*D_NET *340 0.000785427
*CONN
*I *897:A I *D BUFx2_ASAP7_75t_L
*I *622:A I *D NAND2x1_ASAP7_75t_L
*I *566:Y O *D XNOR2x2_ASAP7_75t_L
*CAP
1 *897:A 0
2 *622:A 7.67433e-06
3 *566:Y 0
4 *340:39 3.88179e-05
5 *340:35 9.64327e-05
6 *340:26 1.14247e-05
7 *340:16 0.000151105
8 *340:14 0.000264773
9 *340:10 0.000119339
10 *340:6 5.9536e-05
11 *340:10 *423:10 0
12 *340:10 *431:40 6.72662e-07
13 *340:14 *422:50 0
14 *340:14 *425:16 0
15 *340:14 *425:24 0
16 *340:14 *431:57 0
17 *340:35 *572:B 0
18 *340:35 *423:10 0
19 *340:35 *426:10 0
20 *340:35 *426:44 0
21 *340:35 *431:40 1.56066e-05
22 *340:35 *431:57 1.16088e-06
23 *340:35 *432:17 0
24 *31:14 *340:26 3.17029e-06
25 *32:16 *340:14 0
26 *185:27 *340:35 4.74248e-06
27 *190:10 *340:35 2.22736e-06
28 *190:16 *340:35 5.49212e-07
29 *194:8 *340:35 0
30 *209:112 *340:26 3.66864e-06
31 *234:14 *340:26 4.52575e-06
*RES
1 *566:Y *340:6 34.4 
2 *340:6 *340:10 18.4202 
3 *340:10 *340:14 47.5664 
4 *340:14 *340:16 53.3335 
5 *340:16 *340:26 48.2318 
6 *340:26 *622:A 20.409 
7 *340:6 *340:35 43.9269 
8 *340:35 *340:39 41.2671 
9 *340:39 *897:A 17.2 
*END

*D_NET *341 0.00079236
*CONN
*I *898:A I *D BUFx2_ASAP7_75t_L
*I *568:Y O *D XNOR2x2_ASAP7_75t_L
*CAP
1 *898:A 0
2 *568:Y 7.97398e-06
3 *341:16 2.45058e-05
4 *341:12 0.000164866
5 *341:10 0.00014036
6 *341:8 7.97398e-06
7 *341:8 *453:25 6.77554e-06
8 *341:8 *453:36 1.58568e-05
9 *341:12 *412:89 0.000134579
10 *341:12 *412:106 3.92378e-05
11 *341:12 *417:14 1.30748e-05
12 *341:12 *425:86 0.000139687
13 *35:8 *341:8 5.63664e-06
14 *186:34 *341:12 1.84739e-06
15 *218:16 *341:12 1.17092e-05
16 *274:12 *341:12 7.82501e-05
17 *276:12 *341:12 2.49344e-08
*RES
1 *568:Y *341:8 41.815 
2 *341:8 *341:10 17.2 
3 *341:10 *341:12 71.8574 
4 *341:12 *341:16 34.1888 
5 *341:16 *898:A 34.4 
*END

*D_NET *342 0.00100988
*CONN
*I *640:A I *D NAND2x1_ASAP7_75t_L
*I *899:A I *D BUFx2_ASAP7_75t_L
*I *580:Y O *D AO211x2_ASAP7_75t_L
*CAP
1 *640:A 6.91346e-07
2 *899:A 0
3 *580:Y 0
4 *342:25 7.23172e-05
5 *342:23 7.16259e-05
6 *342:21 0.000101061
7 *342:14 2.96062e-05
8 *342:10 0.000119215
9 *342:8 9.48192e-05
10 *342:4 0.000106272
11 *342:10 *577:A1 2.22736e-06
12 *342:10 *382:8 0.000192247
13 *342:10 *426:67 2.25787e-06
14 *342:21 *586:B 1.35684e-06
15 *342:21 *432:6 0
16 *342:25 *585:B 0
17 *342:25 *429:58 5.67747e-07
18 *570:B *342:21 4.20803e-06
19 *574:B *342:10 5.22486e-06
20 *27:8 *640:A 3.46317e-06
21 *29:40 *342:25 8.90818e-07
22 *30:33 *342:25 0
23 *31:41 *342:25 1.62854e-06
24 *32:10 *342:25 0
25 *120:37 *342:8 3.65131e-06
26 *120:37 *342:21 3.56177e-06
27 *130:8 *342:25 1.57806e-05
28 *185:35 *342:25 1.34329e-05
29 *187:14 *342:21 5.22376e-07
30 *188:10 *342:21 4.11203e-05
31 *188:31 *342:10 3.24214e-06
32 *188:39 *342:10 0
33 *191:16 *342:10 1.67304e-05
34 *195:14 *342:21 5.51397e-07
35 *202:6 *342:21 1.36398e-05
36 *202:10 *342:25 6.59055e-06
37 *203:8 *342:25 3.13615e-06
38 *205:14 *342:25 5.84553e-05
39 *235:12 *342:25 0
40 *236:10 *640:A 3.89037e-06
41 *236:10 *342:25 1.32106e-05
42 *289:25 *342:25 0
43 *290:30 *342:25 0
44 *290:53 *342:25 2.68255e-06
*RES
1 *580:Y *342:4 17.2 
2 *342:4 *342:8 19.8741 
3 *342:8 *342:10 94.6119 
4 *342:10 *342:14 35.9189 
5 *342:14 *899:A 17.2 
6 *342:4 *342:21 48.6691 
7 *342:21 *342:23 17.2 
8 *342:23 *342:25 63.6378 
9 *342:25 *640:A 35.4697 
*END

*D_NET *343 0.00012122
*CONN
*I *646:A1 I *D AO21x1_ASAP7_75t_L
*I *984:A I *D BUFx3_ASAP7_75t_L
*I *585:Y O *D XOR2x2_ASAP7_75t_L
*CAP
1 *646:A1 3.22935e-06
2 *984:A 5.8157e-06
3 *585:Y 1.8909e-05
4 *343:12 2.28437e-05
5 *343:6 3.91664e-05
6 *343:6 *424:8 1.51653e-06
7 *343:12 *344:14 2.71272e-05
8 *932:A *343:6 2.61188e-06
*RES
1 *585:Y *343:6 28.4313 
2 *343:6 *343:12 48.4791 
3 *343:12 *984:A 19.8741 
4 *343:6 *646:A1 18.8045 
*END

*D_NET *344 0.000395395
*CONN
*I *901:A I *D BUFx2_ASAP7_75t_L
*I *651:A1 I *D AO21x1_ASAP7_75t_L
*I *591:Y O *D XNOR2x2_ASAP7_75t_L
*CAP
1 *901:A 0
2 *651:A1 4.42848e-06
3 *591:Y 1.85121e-05
4 *344:31 5.22667e-05
5 *344:29 5.59827e-05
6 *344:16 8.14447e-06
7 *344:14 2.52093e-05
8 *344:8 4.37214e-05
9 *651:A1 *397:24 5.05508e-06
10 *651:A1 *446:95 1.35961e-06
11 *344:14 *743:CLK 4.52838e-05
12 *344:14 *397:32 0
13 *344:14 *435:8 0
14 *344:14 *446:95 1.18509e-05
15 *344:29 *397:24 4.45645e-06
16 *344:29 *397:32 1.49407e-08
17 *344:31 *397:24 1.00654e-05
18 *602:A *344:31 7.72307e-07
19 *742:D *344:14 0
20 *742:D *344:31 1.45042e-05
21 *15:12 *344:31 1.27782e-06
22 *77:10 *344:14 0
23 *290:6 *344:31 6.53624e-05
24 *343:12 *344:14 2.71272e-05
*RES
1 *591:Y *344:8 44.5617 
2 *344:8 *344:14 42.9072 
3 *344:14 *344:16 17.2 
4 *344:16 *651:A1 38.9053 
5 *344:16 *344:29 22.2685 
6 *344:29 *344:31 37.9726 
7 *344:31 *901:A 17.2 
*END

*D_NET *345 0.000472256
*CONN
*I *902:A I *D BUFx2_ASAP7_75t_L
*I *654:B1 I *D AO221x2_ASAP7_75t_L
*I *717:SN O *D FAx1_ASAP7_75t_L
*CAP
1 *902:A 0
2 *654:B1 0
3 *717:SN 9.04153e-06
4 *345:38 1.73031e-05
5 *345:32 2.30382e-05
6 *345:26 1.70166e-05
7 *345:22 3.11891e-05
8 *345:14 8.16933e-05
9 *345:10 7.08273e-05
10 *345:10 *415:12 3.79923e-06
11 *345:14 *387:8 6.7842e-07
12 *345:14 *462:10 0
13 *345:22 *387:8 7.46262e-06
14 *345:26 *387:10 8.33296e-06
15 *345:38 *654:B2 9.75645e-06
16 *980:A *345:14 1.41612e-05
17 *12:12 *345:38 9.8079e-06
18 *22:29 *345:10 0
19 *24:6 *345:10 0
20 *67:18 *345:22 1.47844e-05
21 *209:20 *345:38 4.19834e-06
22 *245:10 *345:26 3.36915e-05
23 *292:10 *345:26 5.84259e-05
24 *292:10 *345:38 4.83751e-05
25 *294:8 *345:32 1.95129e-06
26 *302:10 *345:26 6.72101e-06
*RES
1 *717:SN *345:10 39.3835 
2 *345:10 *345:14 39.1278 
3 *345:14 *345:22 46.4212 
4 *345:22 *345:26 36.9108 
5 *345:26 *345:32 37.0741 
6 *345:32 *345:38 36.2059 
7 *345:38 *654:B1 17.2 
8 *345:22 *902:A 17.2 
*END

*D_NET *346 0.000134787
*CONN
*I *903:A I *D BUFx2_ASAP7_75t_L
*I *658:B1 I *D AO221x2_ASAP7_75t_L
*I *522:Y O *D XNOR2x2_ASAP7_75t_L
*CAP
1 *903:A 1.49231e-05
2 *658:B1 0
3 *522:Y 0
4 *346:25 3.09593e-05
5 *346:14 1.62367e-05
6 *346:4 3.22729e-05
7 *346:14 *434:8 1.50858e-05
8 *346:14 *441:81 6.65157e-06
9 *346:25 *434:8 1.67815e-06
10 *346:25 *441:72 6.47224e-06
11 *346:25 *441:81 4.88493e-06
12 *22:35 *346:25 0
13 *71:44 *346:14 5.62196e-06
*RES
1 *522:Y *346:4 17.2 
2 *346:4 *346:14 49.4071 
3 *346:14 *658:B1 17.2 
4 *346:4 *346:25 47.3528 
5 *346:25 *903:A 25.2224 
*END

*D_NET *347 0.000713611
*CONN
*I *904:A I *D BUFx2_ASAP7_75t_L
*I *662:B1 I *D AO221x2_ASAP7_75t_L
*I *526:Y O *D XOR2x2_ASAP7_75t_L
*CAP
1 *904:A 0
2 *662:B1 2.02882e-06
3 *526:Y 6.32131e-06
4 *347:28 4.41574e-05
5 *347:22 7.74946e-05
6 *347:18 7.03095e-05
7 *347:14 5.33926e-05
8 *347:10 6.21418e-05
9 *347:8 5.00139e-05
10 *347:10 *411:20 3.32579e-06
11 *347:10 *415:12 0
12 *347:14 *389:8 2.06011e-06
13 *347:22 *441:28 6.95214e-06
14 *347:22 *441:53 3.78305e-06
15 *524:A1 *347:8 6.7842e-07
16 *526:B *347:8 2.11853e-06
17 *600:A *347:14 4.0398e-05
18 *600:A *347:18 2.20464e-05
19 *662:A1 *347:28 5.0551e-07
20 *662:A2 *347:28 1.4007e-05
21 *662:C *347:28 2.28976e-06
22 *23:8 *347:10 3.08767e-06
23 *23:12 *347:10 1.45597e-05
24 *105:16 *347:22 7.89181e-07
25 *107:10 *347:22 5.4683e-06
26 *108:10 *347:10 0.000118288
27 *148:85 *347:22 5.4219e-06
28 *156:10 *347:10 1.15587e-05
29 *212:73 *347:28 5.0551e-07
30 *255:10 *347:22 1.17275e-05
31 *255:18 *347:22 3.42066e-06
32 *292:6 *347:18 7.11143e-05
33 *292:10 *347:22 3.64554e-06
*RES
1 *526:Y *347:8 38.1438 
2 *347:8 *347:10 48.9954 
3 *347:10 *347:14 31.6403 
4 *347:14 *347:18 44.4761 
5 *347:18 *347:22 47.0478 
6 *347:22 *347:28 38.7347 
7 *347:28 *662:B1 36.0045 
8 *347:14 *904:A 17.2 
*END

*D_NET *348 0.000423911
*CONN
*I *666:B1 I *D AO221x2_ASAP7_75t_L
*I *905:A I *D BUFx2_ASAP7_75t_L
*I *528:Y O *D XOR2x2_ASAP7_75t_L
*CAP
1 *666:B1 0
2 *905:A 2.5374e-05
3 *528:Y 9.30077e-06
4 *348:37 5.49664e-06
5 *348:20 7.89891e-05
6 *348:14 0.00010465
7 *348:10 5.48389e-05
8 *905:A *957:A 1.17291e-05
9 *348:14 *412:12 4.8824e-05
10 *55:16 *348:14 2.57122e-06
11 *55:16 *348:20 5.78668e-06
12 *63:12 *348:10 6.52017e-06
13 *63:39 *348:10 1.64676e-07
14 *145:124 *348:37 5.96787e-07
15 *145:143 *348:37 3.08218e-06
16 *154:6 *348:10 0
17 *209:14 *348:14 0
18 *209:43 *348:14 9.71112e-06
19 *212:39 *348:14 1.05377e-05
20 *212:57 *348:37 3.88042e-07
21 *254:16 *348:20 2.06545e-05
22 *254:35 *348:14 5.12628e-06
23 *254:35 *348:20 1.62635e-05
24 *296:12 *348:20 3.30589e-06
*RES
1 *528:Y *348:10 39.2329 
2 *348:10 *348:14 35.8137 
3 *348:14 *348:20 37.0339 
4 *348:20 *905:A 49.9099 
5 *348:14 *348:37 37.5718 
6 *348:37 *666:B1 17.2 
*END

*D_NET *349 0.00099951
*CONN
*I *906:A I *D BUFx2_ASAP7_75t_L
*I *671:B1 I *D AO221x2_ASAP7_75t_L
*I *533:Y O *D XOR2x2_ASAP7_75t_L
*CAP
1 *906:A 0
2 *671:B1 0
3 *533:Y 1.02508e-05
4 *349:47 4.67835e-05
5 *349:43 7.04061e-05
6 *349:28 2.05944e-05
7 *349:22 4.4217e-05
8 *349:20 6.06977e-05
9 *349:18 6.49497e-05
10 *349:12 2.74535e-05
11 *349:8 3.34524e-05
12 *349:8 *533:B 3.73518e-07
13 *349:8 *441:106 2.20327e-05
14 *349:12 *417:45 3.19819e-05
15 *349:12 *445:12 1.39221e-05
16 *349:20 *374:20 0.000219676
17 *349:20 *402:108 0
18 *349:20 *445:18 1.83683e-05
19 *349:20 *456:92 0.000171394
20 *349:28 *677:A1 5.41446e-06
21 *349:28 *677:A2 2.68282e-05
22 *349:28 *441:152 0
23 *349:43 *677:A2 2.70601e-05
24 *349:43 *451:50 1.46576e-05
25 *349:47 *677:A2 1.57003e-05
26 *349:47 *391:10 1.76928e-06
27 *677:B *349:28 1.1488e-05
28 *20:62 *349:20 1.14889e-05
29 *20:62 *349:28 3.73144e-06
30 *46:12 *349:12 5.25794e-06
31 *49:25 *349:18 8.12538e-08
32 *104:12 *349:20 2.4971e-06
33 *258:8 *349:28 4.32502e-06
34 *259:14 *349:28 7.80516e-06
35 *264:10 *349:28 1.07377e-06
36 *266:18 *349:8 0
37 *283:12 *349:18 2.99383e-06
38 *296:20 *349:28 7.84037e-07
*RES
1 *533:Y *349:8 42.2843 
2 *349:8 *349:12 38.0582 
3 *349:12 *349:18 37.4974 
4 *349:18 *349:20 43.2876 
5 *349:20 *349:22 17.2 
6 *349:22 *349:28 35.2158 
7 *349:28 *671:B1 17.2 
8 *349:22 *349:43 48.8988 
9 *349:43 *349:47 48.7547 
10 *349:47 *906:A 17.2 
*END

*D_NET *350 0.000766279
*CONN
*I *675:B1 I *D AO221x2_ASAP7_75t_L
*I *907:A I *D BUFx2_ASAP7_75t_L
*I *535:Y O *D XNOR2x2_ASAP7_75t_L
*CAP
1 *675:B1 0
2 *907:A 2.33621e-05
3 *535:Y 4.16395e-05
4 *350:36 4.38507e-05
5 *350:30 4.93122e-05
6 *350:26 4.4272e-05
7 *350:22 2.77677e-05
8 *350:14 9.99371e-05
9 *350:12 9.34585e-05
10 *350:6 4.74802e-05
11 *350:12 *414:16 7.32095e-07
12 *350:14 *351:42 1.33244e-05
13 *350:14 *421:14 0
14 *350:14 *459:22 0
15 *350:14 *461:22 2.58803e-05
16 *350:22 *675:B2 1.44167e-06
17 *350:22 *421:31 1.95723e-06
18 *350:26 *675:B2 5.94108e-06
19 *350:30 *373:18 4.83862e-06
20 *350:30 *421:31 0
21 *350:30 *437:10 5.00394e-06
22 *350:36 *674:A2 7.87757e-05
23 *350:36 *373:12 7.55322e-05
24 *350:36 *392:8 0
25 *350:36 *451:61 0
26 *8:12 *350:12 6.20078e-06
27 *145:106 *350:6 2.7634e-05
28 *262:10 *350:30 0
29 *262:20 *350:22 6.7842e-07
30 *262:20 *350:26 1.03556e-05
31 *285:30 *350:14 0
32 *297:10 *350:30 1.34329e-05
33 *297:23 *350:22 2.34699e-05
*RES
1 *535:Y *350:6 36.9885 
2 *350:6 *350:12 39.3746 
3 *350:12 *350:14 34.8465 
4 *350:14 *350:22 45.1373 
5 *350:22 *350:26 30.0358 
6 *350:26 *350:30 40.853 
7 *350:30 *350:36 48.0251 
8 *350:36 *907:A 48.8403 
9 *350:22 *675:B1 17.2 
*END

*D_NET *351 0.000485377
*CONN
*I *908:A I *D BUFx2_ASAP7_75t_L
*I *678:B1 I *D AO221x2_ASAP7_75t_L
*I *539:Y O *D XNOR2x2_ASAP7_75t_L
*CAP
1 *908:A 0
2 *678:B1 1.58602e-06
3 *539:Y 6.85214e-06
4 *351:42 2.54815e-05
5 *351:34 9.89639e-05
6 *351:32 9.55662e-05
7 *351:28 2.80672e-05
8 *351:22 5.66668e-05
9 *351:18 9.13001e-05
10 *351:10 4.90548e-05
11 *351:10 *416:10 2.19448e-07
12 *351:10 *416:44 3.81627e-06
13 *351:18 *430:10 9.49809e-07
14 *351:42 *412:74 4.40246e-06
15 *351:42 *421:14 0
16 *351:42 *451:72 4.81662e-06
17 *351:42 *459:22 0
18 *931:A *351:22 8.31044e-07
19 *52:33 *351:34 0
20 *84:8 *351:34 0
21 *85:8 *351:34 0
22 *158:33 *351:18 0
23 *167:14 *351:18 0
24 *171:8 *351:10 1.49407e-08
25 *212:120 *678:B1 3.46317e-06
26 *260:35 *351:34 0
27 *350:14 *351:42 1.33244e-05
*RES
1 *539:Y *351:10 37.9189 
2 *351:10 *351:18 47.3653 
3 *351:18 *351:22 35.9189 
4 *351:22 *351:28 38.9053 
5 *351:28 *351:32 29.501 
6 *351:32 *351:34 55.2841 
7 *351:34 *351:42 44.2203 
8 *351:42 *678:B1 35.4697 
9 *351:28 *908:A 17.2 
*END

*D_NET *352 0.000550993
*CONN
*I *979:A I *D BUFx3_ASAP7_75t_L
*I *683:B1 I *D AO221x2_ASAP7_75t_L
*I *548:Y O *D OR3x1_ASAP7_75t_L
*CAP
1 *979:A 0
2 *683:B1 3.45789e-06
3 *548:Y 6.58995e-07
4 *352:32 1.30294e-05
5 *352:24 3.82987e-05
6 *352:22 3.61816e-05
7 *352:18 1.62118e-05
8 *352:12 5.57715e-05
9 *352:8 4.76731e-05
10 *352:8 *418:57 3.67836e-06
11 *352:12 *410:14 4.16081e-06
12 *352:12 *430:35 2.41091e-05
13 *352:12 *430:46 4.64986e-05
14 *352:12 *461:18 1.38694e-06
15 *352:18 *410:32 8.26851e-06
16 *352:18 *428:20 2.00667e-06
17 *352:22 *410:42 2.71246e-07
18 *352:22 *436:8 1.02586e-05
19 *352:24 *684:A1 3.13615e-06
20 *352:24 *439:14 3.0069e-06
21 *726:A *352:24 0
22 *49:6 *683:B1 1.04475e-06
23 *49:10 *352:24 7.34462e-05
24 *49:10 *352:32 7.4314e-06
25 *49:25 *683:B1 2.90209e-08
26 *50:10 *352:24 0
27 *50:22 *352:24 2.97823e-05
28 *51:10 *352:24 3.6269e-06
29 *51:21 *352:18 2.84286e-06
30 *56:10 *352:24 4.7353e-06
31 *56:10 *352:32 7.53447e-06
32 *56:18 *352:24 1.93775e-05
33 *56:26 *352:18 2.0994e-05
34 *56:26 *352:22 4.9889e-06
35 *86:8 *352:24 2.73812e-05
36 *115:31 *352:8 1.56881e-06
37 *161:14 *352:12 1.08274e-05
38 *212:101 *683:B1 7.79295e-06
39 *212:101 *352:32 9.52454e-06
40 *285:30 *352:12 0
*RES
1 *548:Y *352:8 35.6202 
2 *352:8 *352:12 37.7616 
3 *352:12 *352:18 44.0677 
4 *352:18 *352:22 22.0134 
5 *352:22 *352:24 38.2953 
6 *352:24 *352:32 39.89 
7 *352:32 *683:B1 36.5393 
8 *352:18 *979:A 17.2 
*END

*D_NET *353 0.000537105
*CONN
*I *910:A I *D BUFx2_ASAP7_75t_L
*I *688:B1 I *D AO221x2_ASAP7_75t_L
*I *555:Y O *D XNOR2x2_ASAP7_75t_L
*CAP
1 *910:A 2.38959e-05
2 *688:B1 2.77011e-06
3 *555:Y 2.03018e-05
4 *353:18 5.15498e-05
5 *353:16 5.24426e-05
6 *353:10 5.05071e-05
7 *353:8 7.07401e-05
8 *353:6 2.03018e-05
9 *910:A *361:10 1.12894e-06
10 *353:6 *420:33 2.66992e-06
11 *353:10 *560:C 1.36589e-05
12 *353:10 *361:10 1.03899e-05
13 *353:10 *410:14 1.70866e-06
14 *353:10 *418:91 1.2903e-05
15 *353:10 *420:16 9.93857e-06
16 *353:10 *420:33 2.30409e-05
17 *353:18 *402:94 1.34406e-06
18 *353:18 *430:67 1.69063e-05
19 *353:18 *440:10 2.24111e-06
20 *353:18 *440:16 7.2313e-06
21 *489:A *353:16 9.30483e-06
22 *688:C *688:B1 7.35354e-06
23 *48:8 *353:18 1.18287e-05
24 *48:19 *353:10 2.68933e-07
25 *48:19 *353:18 3.40662e-06
26 *48:34 *353:10 1.49407e-08
27 *87:8 *353:18 1.02072e-05
28 *145:104 *353:18 8.45637e-06
29 *159:44 *353:18 2.98814e-06
30 *169:14 *353:10 3.79923e-06
31 *172:20 *353:10 2.00151e-05
32 *173:22 *353:10 4.25928e-06
33 *173:39 *353:10 4.88493e-06
34 *181:6 *353:6 5.12901e-05
35 *270:10 *353:18 3.3563e-06
*RES
1 *555:Y *353:6 34.8492 
2 *353:6 *353:8 17.2 
3 *353:8 *353:10 45.0533 
4 *353:10 *353:16 37.0741 
5 *353:16 *353:18 40.548 
6 *353:18 *688:B1 36.5393 
7 *353:8 *910:A 49.1237 
*END

*D_NET *354 0.000419564
*CONN
*P resp_rdy I
*I *893:A I *D BUFx2_ASAP7_75t_L
*CAP
1 resp_rdy 0.000157219
2 *893:A 0
3 *354:15 5.94079e-06
4 *354:5 0.000163159
5 *354:5 resp_val 2.67819e-05
6 *354:15 *377:10 2.28405e-06
7 *354:15 *396:10 8.19482e-06
8 *323:9 *354:5 5.59842e-05
9 *337:5 *354:5 0
*RES
1 resp_rdy *354:5 82.2034 
2 *354:5 *354:15 49.8418 
3 *354:15 *893:A 17.2 
*END

*D_NET *355 0.000181039
*CONN
*I *521:B1 I *D AO221x1_ASAP7_75t_L
*I *911:A I *D BUFx2_ASAP7_75t_L
*I *513:Y O *D NOR2x1_ASAP7_75t_L
*CAP
1 *521:B1 0
2 *911:A 0
3 *513:Y 1.44073e-05
4 *355:33 4.69166e-06
5 *355:20 2.5644e-05
6 *355:12 6.28321e-05
7 *355:8 4.69038e-05
8 *355:12 *521:C 1.36155e-06
9 *355:20 *377:10 0
10 *355:20 *378:10 0
11 *355:33 *378:10 8.06436e-06
12 *1:12 *355:8 5.79724e-07
13 *335:28 *355:8 1.37455e-06
14 *335:30 *355:12 1.51802e-05
15 *335:43 *355:8 0
*RES
1 *513:Y *355:8 43.4107 
2 *355:8 *355:12 33.7796 
3 *355:12 *355:20 47.9974 
4 *355:20 *911:A 17.2 
5 *355:12 *355:33 38.2855 
6 *355:33 *521:B1 17.2 
*END

*D_NET *358 0.000378702
*CONN
*I *674:A2 I *D AO21x1_ASAP7_75t_L
*I *873:Y O *D BUFx2_ASAP7_75t_L
*CAP
1 *674:A2 3.52714e-05
2 *873:Y 0
3 *358:12 5.11499e-05
4 *358:6 9.50603e-05
5 *358:4 7.91818e-05
6 *674:A2 *712:A2 9.08513e-06
7 *674:A2 *373:12 1.05206e-05
8 *358:6 *372:22 5.85387e-06
9 *358:12 *360:18 4.40256e-06
10 *358:12 *372:20 4.83862e-06
11 *358:12 *392:8 4.56264e-06
12 *350:36 *674:A2 7.87757e-05
*RES
1 *873:Y *358:4 17.2 
2 *358:4 *358:6 37.9726 
3 *358:6 *358:12 46.7897 
4 *358:12 *674:A2 49.8243 
*END

*D_NET *359 0.000600564
*CONN
*I *677:A2 I *D AO21x1_ASAP7_75t_L
*I *874:Y O *D BUFx2_ASAP7_75t_L
*CAP
1 *677:A2 3.62566e-05
2 *874:Y 0
3 *359:12 4.97333e-05
4 *359:6 0.000163739
5 *359:4 0.000150262
6 *677:A2 *669:A 5.22376e-07
7 *20:62 *677:A2 5.22376e-07
8 *258:8 *677:A2 1.94746e-05
9 *330:13 *359:6 0.000110465
10 *349:28 *677:A2 2.68282e-05
11 *349:43 *677:A2 2.70601e-05
12 *349:47 *677:A2 1.57003e-05
*RES
1 *874:Y *359:4 17.2 
2 *359:4 *359:6 70.0621 
3 *359:6 *359:12 42.2843 
4 *359:12 *677:A2 49.8243 
*END

*D_NET *360 0.000839478
*CONN
*I *683:A2 I *D AO221x2_ASAP7_75t_L
*I *875:Y O *D BUFx2_ASAP7_75t_L
*CAP
1 *683:A2 0
2 *875:Y 3.60177e-06
3 *360:44 7.92068e-06
4 *360:36 9.11746e-05
5 *360:32 0.000113139
6 *360:26 3.68085e-05
7 *360:20 5.6352e-05
8 *360:18 5.84504e-05
9 *360:12 8.23007e-05
10 *360:10 7.32792e-05
11 *360:8 3.60177e-06
12 *360:8 *372:12 9.94583e-06
13 *360:12 *372:14 0.000137222
14 *360:18 *372:20 1.29102e-05
15 *360:20 *711:A1 1.35684e-06
16 *360:20 *372:22 2.62059e-05
17 *360:26 *673:B 5.35192e-07
18 *360:26 *437:10 3.05118e-08
19 *360:26 *456:115 8.49288e-06
20 *360:26 *456:132 7.6881e-06
21 *360:32 *374:20 0
22 *360:32 *441:146 3.63839e-05
23 *360:32 *451:40 2.52717e-05
24 *360:36 *767:CLK 2.72334e-07
25 *360:36 *451:107 0
26 *360:44 *439:14 5.52807e-07
27 *360:44 *451:120 1.5524e-05
28 *49:25 *360:44 1.58373e-06
29 *52:6 *360:36 0
30 *52:12 *360:36 0
31 *145:120 *360:32 9.55592e-06
32 *209:56 *360:32 0
33 *209:60 *360:32 9.81726e-06
34 *260:12 *360:36 1.04475e-06
35 *268:6 *360:44 4.05232e-06
36 *358:12 *360:18 4.40256e-06
*RES
1 *875:Y *360:8 37.779 
2 *360:8 *360:10 17.2 
3 *360:10 *360:12 43.3208 
4 *360:12 *360:18 42.2843 
5 *360:18 *360:20 33.694 
6 *360:20 *360:26 39.5624 
7 *360:26 *360:32 36.5015 
8 *360:32 *360:36 49.8243 
9 *360:36 *360:44 41.1013 
10 *360:44 *683:A2 17.2 
*END

*D_NET *361 0.000530714
*CONN
*I *688:A2 I *D AO221x2_ASAP7_75t_L
*I *876:Y O *D BUFx2_ASAP7_75t_L
*CAP
1 *688:A2 1.68099e-06
2 *876:Y 3.73918e-06
3 *361:10 0.000116905
4 *361:8 0.000118963
5 *688:A2 *441:211 1.44167e-06
6 *361:10 *395:8 0
7 *361:10 *398:8 0
8 *361:10 *440:10 6.56371e-05
9 *361:10 *440:16 1.97637e-05
10 *554:A2 *361:10 0
11 *579:A1 *361:10 3.48708e-06
12 *910:A *361:10 1.12894e-06
13 *47:14 *361:10 2.83449e-06
14 *158:29 *361:10 6.18762e-05
15 *158:48 *361:10 2.2294e-05
16 *158:56 *361:10 0
17 *159:50 *361:10 1.96231e-05
18 *169:14 *361:10 9.67723e-06
19 *172:20 *361:10 8.361e-06
20 *173:22 *361:10 1.11221e-05
21 *173:39 *361:10 2.32945e-05
22 *175:14 *361:10 8.45637e-06
23 *176:12 *361:10 0
24 *273:12 *361:10 2.00389e-05
25 *300:31 *361:10 0
26 *353:10 *361:10 1.03899e-05
*RES
1 *876:Y *361:8 36.0045 
2 *361:8 *361:10 114.323 
3 *361:10 *688:A2 35.4697 
*END

*D_NET *362 0.000100411
*CONN
*I *619:A2 I *D AO21x1_ASAP7_75t_L
*I *877:Y O *D BUFx2_ASAP7_75t_L
*CAP
1 *619:A2 1.90615e-05
2 *877:Y 1.96606e-05
3 *362:8 3.87221e-05
4 *148:236 *619:A2 3.77e-06
5 *218:10 *619:A2 1.91973e-05
6 *221:8 *362:8 0
*RES
1 *877:Y *362:8 47.3528 
2 *362:8 *619:A2 46.701 
*END

*D_NET *363 6.79185e-05
*CONN
*I *623:B I *D NOR2x1_ASAP7_75t_L
*I *878:Y O *D BUFx2_ASAP7_75t_L
*CAP
1 *623:B 1.63443e-05
2 *878:Y 1.66724e-05
3 *363:8 3.30168e-05
4 *321:13 *623:B 1.885e-06
5 *335:139 *363:8 0
6 *339:47 *363:8 0
*RES
1 *878:Y *363:8 47.3528 
2 *363:8 *623:B 42.4224 
*END

*D_NET *364 0.000340716
*CONN
*I *633:A2 I *D AO21x1_ASAP7_75t_L
*I *879:Y O *D BUFx2_ASAP7_75t_L
*CAP
1 *633:A2 0
2 *879:Y 2.12956e-05
3 *364:10 0.000142394
4 *364:8 0.00016369
5 *633:B *364:10 7.49254e-06
6 *148:12 *364:10 2.48762e-06
7 *335:28 *364:10 3.3563e-06
*RES
1 *879:Y *364:8 43.492 
2 *364:8 *364:10 116.575 
3 *364:10 *633:A2 34.4 
*END

*D_NET *365 4.94263e-05
*CONN
*I *636:A I *D INVx1_ASAP7_75t_L
*I *880:Y O *D BUFx2_ASAP7_75t_L
*CAP
1 *636:A 1.60407e-05
2 *880:Y 1.60407e-05
3 *308:13 *636:A 5.22376e-06
4 *324:13 *636:A 1.21211e-05
*RES
1 *880:Y *636:A 43.492 
*END

*D_NET *366 0.000715457
*CONN
*I *707:A2 I *D OA222x2_ASAP7_75t_L
*I *881:Y O *D BUFx2_ASAP7_75t_L
*CAP
1 *707:A2 2.13833e-06
2 *881:Y 1.20377e-05
3 *366:26 1.03001e-05
4 *366:18 0.000143779
5 *366:16 0.000135617
6 *366:14 6.29772e-05
7 *366:10 7.50149e-05
8 *707:A2 *707:A1 6.7842e-07
9 *366:18 *388:8 0
10 *366:18 *441:72 0
11 *366:18 *441:81 0
12 *366:18 *441:89 3.76935e-06
13 *471:A *366:10 5.25794e-06
14 *658:C *366:18 8.87893e-06
15 *80:10 *366:18 1.6136e-06
16 *118:8 *366:10 3.79923e-06
17 *119:8 *366:18 0.000111587
18 *119:16 *366:18 0.000132049
19 *212:16 *366:18 2.18135e-06
20 *212:16 *366:26 3.77787e-06
21 *293:29 *366:18 0
22 *293:29 *366:26 0
*RES
1 *881:Y *366:10 41.5228 
2 *366:10 *366:14 45.5457 
3 *366:14 *366:16 17.2 
4 *366:16 *366:18 144.171 
5 *366:18 *366:26 39.89 
6 *366:26 *707:A2 36.5393 
*END

*D_NET *367 4.62872e-05
*CONN
*I *644:A2 I *D AO21x1_ASAP7_75t_L
*I *882:Y O *D BUFx2_ASAP7_75t_L
*CAP
1 *644:A2 0
2 *882:Y 1.82654e-05
3 *367:10 1.82654e-05
4 *882:A *367:10 8.65792e-06
5 *239:10 *367:10 1.09842e-06
*RES
1 *882:Y *367:10 44.9585 
2 *367:10 *644:A2 34.4 
*END

*D_NET *368 0.000231127
*CONN
*I *649:A2 I *D AO21x1_ASAP7_75t_L
*I *883:Y O *D BUFx2_ASAP7_75t_L
*CAP
1 *649:A2 0
2 *883:Y 7.27982e-05
3 *368:22 8.45729e-06
4 *368:14 1.93885e-05
5 *368:6 8.37294e-05
6 *644:A1 *368:22 2.20728e-05
7 *644:B *368:22 6.70433e-06
8 *649:A1 *368:22 1.95129e-06
9 *649:B *368:22 3.89037e-06
10 *149:14 *368:14 0
11 *239:10 *368:6 0
12 *243:10 *368:22 1.40419e-08
13 *327:13 *368:6 1.21211e-05
*RES
1 *883:Y *368:6 49.8243 
2 *368:6 *368:14 38.7365 
3 *368:14 *368:22 42.9484 
4 *368:22 *649:A2 17.2 
*END

*D_NET *369 0.000426934
*CONN
*I *708:A2 I *D OA222x2_ASAP7_75t_L
*I *884:Y O *D BUFx2_ASAP7_75t_L
*CAP
1 *708:A2 0
2 *884:Y 5.42126e-06
3 *369:20 6.33056e-05
4 *369:18 6.76527e-05
5 *369:12 0.000137215
6 *369:10 0.000132867
7 *369:8 5.42126e-06
8 *369:20 *456:39 5.51397e-07
9 *369:20 *456:43 3.68287e-06
10 *369:20 *456:49 1.08167e-05
*RES
1 *884:Y *369:8 37.779 
2 *369:8 *369:10 17.2 
3 *369:10 *369:12 57.2263 
4 *369:12 *369:18 37.2158 
5 *369:18 *369:20 39.0422 
6 *369:20 *708:A2 17.2 
*END

*D_NET *370 7.31071e-05
*CONN
*I *709:A2 I *D OA222x2_ASAP7_75t_L
*I *885:Y O *D BUFx2_ASAP7_75t_L
*CAP
1 *709:A2 4.23355e-06
2 *885:Y 2.42174e-05
3 *370:10 2.84509e-05
4 *709:A2 *709:A1 6.7842e-07
5 *370:10 *709:A1 1.06925e-05
6 *370:10 *456:57 0
7 *370:10 *457:61 3.06506e-06
8 *10:14 *370:10 1.76928e-06
*RES
1 *885:Y *370:10 47.4342 
2 *370:10 *709:A2 36.5393 
*END

*D_NET *371 0.000353029
*CONN
*I *710:A2 I *D OA222x2_ASAP7_75t_L
*I *886:Y O *D BUFx2_ASAP7_75t_L
*CAP
1 *710:A2 0
2 *886:Y 1.00372e-05
3 *371:28 4.67619e-06
4 *371:20 2.97397e-05
5 *371:12 0.000134935
6 *371:10 0.000109872
7 *371:8 1.00372e-05
8 *371:28 *447:8 3.24655e-06
9 *664:A *371:12 4.43846e-06
10 *52:16 *371:20 9.56042e-06
11 *58:20 *371:20 2.79048e-05
12 *254:10 *371:12 6.7842e-07
13 *254:16 *371:20 1.84515e-06
14 *259:14 *371:28 6.70946e-07
15 *296:12 *371:20 5.3866e-06
*RES
1 *886:Y *371:8 41.158 
2 *371:8 *371:10 17.2 
3 *371:10 *371:12 59.3656 
4 *371:12 *371:20 45.245 
5 *371:20 *371:28 37.384 
6 *371:28 *710:A2 17.2 
*END

*D_NET *372 0.000582202
*CONN
*I *711:A2 I *D OA222x2_ASAP7_75t_L
*I *887:Y O *D BUFx2_ASAP7_75t_L
*CAP
1 *711:A2 0
2 *887:Y 1.84898e-05
3 *372:22 5.05867e-05
4 *372:20 5.6799e-05
5 *372:14 5.03526e-05
6 *372:12 5.43436e-05
7 *372:6 2.86931e-05
8 *372:22 *711:A1 3.90258e-06
9 *317:13 *372:6 9.25869e-05
10 *319:13 *372:6 2.94709e-05
11 *358:6 *372:22 5.85387e-06
12 *358:12 *372:20 4.83862e-06
13 *360:8 *372:12 9.94583e-06
14 *360:12 *372:14 0.000137222
15 *360:18 *372:20 1.29102e-05
16 *360:20 *372:22 2.62059e-05
*RES
1 *887:Y *372:6 44.4761 
2 *372:6 *372:12 42.2843 
3 *372:12 *372:14 43.3208 
4 *372:14 *372:20 40.0317 
5 *372:20 *372:22 33.694 
6 *372:22 *711:A2 17.2 
*END

*D_NET *373 0.000458432
*CONN
*I *712:A2 I *D OA222x2_ASAP7_75t_L
*I *888:Y O *D BUFx2_ASAP7_75t_L
*CAP
1 *712:A2 2.09075e-05
2 *888:Y 5.42126e-06
3 *373:18 2.73222e-05
4 *373:12 0.000149591
5 *373:10 0.000143176
6 *373:8 5.42126e-06
7 *712:A2 *712:A1 2.71368e-06
8 *674:A2 *712:A2 9.08513e-06
9 *674:A2 *373:12 1.05206e-05
10 *674:B *712:A2 3.90258e-06
11 *350:30 *373:18 4.83862e-06
12 *350:36 *373:12 7.55322e-05
*RES
1 *888:Y *373:8 37.779 
2 *373:8 *373:10 17.2 
3 *373:10 *373:12 68.9924 
4 *373:12 *373:18 38.3422 
5 *373:18 *712:A2 29.501 
*END

*D_NET *374 0.000846491
*CONN
*I *714:A2 I *D OA222x2_ASAP7_75t_L
*I *889:Y O *D BUFx2_ASAP7_75t_L
*CAP
1 *714:A2 0
2 *889:Y 0
3 *374:28 1.05518e-05
4 *374:20 0.000192898
5 *374:18 0.000187359
6 *374:12 4.11082e-05
7 *374:6 3.60955e-05
8 *374:12 *392:20 2.86063e-07
9 *374:12 *392:26 0
10 *374:20 *391:14 7.24122e-05
11 *374:20 *402:108 0
12 *374:20 *402:116 8.86692e-06
13 *374:20 *441:146 0
14 *374:20 *441:152 0
15 *374:20 *451:40 9.97376e-08
16 *374:28 *439:14 2.39579e-06
17 *56:10 *374:28 5.02905e-06
18 *104:12 *374:20 3.83627e-05
19 *209:56 *374:20 2.10204e-05
20 *264:16 *374:20 9.85012e-06
21 *283:12 *374:28 0
22 *317:9 *374:12 4.79132e-07
23 *349:20 *374:20 0.000219676
24 *360:32 *374:20 0
*RES
1 *889:Y *374:6 34.4 
2 *374:6 *374:12 37.3323 
3 *374:12 *374:18 37.122 
4 *374:18 *374:20 91.3368 
5 *374:20 *374:28 41.73 
6 *374:28 *714:A2 17.2 
*END

*D_NET *375 0.000673491
*CONN
*I *716:A2 I *D OA222x2_ASAP7_75t_L
*I *890:Y O *D BUFx2_ASAP7_75t_L
*CAP
1 *716:A2 1.74787e-05
2 *890:Y 0
3 *375:8 0.000122271
4 *375:6 0.000104793
5 *375:8 *713:A 3.4804e-06
6 *375:8 *405:10 4.10445e-06
7 *375:8 *405:29 1.94168e-05
8 *375:8 *409:16 3.04043e-06
9 *375:8 *416:50 2.83874e-07
10 *375:8 *418:12 1.81935e-05
11 *375:8 *418:26 0
12 *375:8 *418:46 3.84245e-05
13 *375:8 *418:57 3.71815e-05
14 *375:8 *418:72 4.53108e-06
15 *375:8 *418:78 3.36331e-07
16 *375:8 *445:44 2.25787e-06
17 *375:8 *445:55 4.65993e-05
18 *482:A *375:8 0
19 *548:B *375:8 1.3989e-05
20 *553:B *375:8 2.36401e-05
21 *4:151 *716:A2 1.35684e-06
22 *46:12 *375:8 2.95774e-05
23 *46:21 *375:8 8.88586e-05
24 *113:31 *375:8 2.29394e-05
25 *115:31 *375:8 3.13755e-07
26 *116:27 *375:8 2.30567e-05
27 *159:8 *716:A2 5.96787e-07
28 *159:33 *375:8 8.06799e-07
29 *160:23 *375:8 0
30 *165:10 *375:8 1.2926e-05
31 *170:14 *375:8 1.46204e-05
32 *171:8 *375:8 2.98532e-06
33 *171:25 *375:8 1.79408e-06
34 *180:33 *375:8 0
35 *271:12 *375:8 1.36375e-05
*RES
1 *890:Y *375:6 34.4 
2 *375:6 *375:8 117.702 
3 *375:8 *716:A2 42.4224 
*END

*D_NET *376 1.39599e-05
*CONN
*I *472:A I *D INVx1_ASAP7_75t_L
*I *891:Y O *D BUFx2_ASAP7_75t_L
*CAP
1 *472:A 6.97997e-06
2 *891:Y 6.97997e-06
*RES
1 *891:Y *472:A 37.0741 
*END

*D_NET *377 0.000283277
*CONN
*I *511:A I *D NOR2x1_ASAP7_75t_L
*I *519:A I *D INVx1_ASAP7_75t_L
*I *521:C I *D AO221x1_ASAP7_75t_L
*I *892:Y O *D BUFx2_ASAP7_75t_L
*CAP
1 *511:A 1.68094e-06
2 *519:A 2.23675e-05
3 *521:C 2.07587e-06
4 *892:Y 4.84953e-06
5 *377:27 2.40485e-05
6 *377:25 3.64094e-05
7 *377:10 5.08786e-05
8 *377:8 1.72429e-05
9 *377:10 *378:10 1.63973e-05
10 *377:10 *396:10 2.19685e-06
11 *377:25 *518:A1 1.692e-05
12 *377:25 *378:10 6.97416e-06
13 *1:12 *519:A 0
14 *2:18 *377:25 1.51581e-05
15 *3:10 *519:A 1.04475e-06
16 *106:8 *377:10 1.73468e-05
17 *106:8 *377:25 3.47607e-06
18 *106:17 *377:25 1.55439e-05
19 *144:12 *519:A 1.40419e-08
20 *148:27 *377:25 1.06794e-05
21 *148:29 *377:25 8.32162e-08
22 *148:96 *377:25 2.48762e-06
23 *248:10 *377:25 0
24 *335:12 *519:A 4.57952e-06
25 *335:22 *519:A 7.17625e-06
26 *354:15 *377:10 2.28405e-06
27 *355:12 *521:C 1.36155e-06
28 *355:20 *377:10 0
*RES
1 *892:Y *377:8 36.0045 
2 *377:8 *377:10 14.0792 
3 *377:10 *521:C 35.4697 
4 *377:10 *377:25 43.8844 
5 *377:25 *377:27 17.2 
6 *377:27 *519:A 45.7819 
7 *377:27 *511:A 35.4325 
*END

*D_NET *378 8.69008e-05
*CONN
*I *518:A1 I *D AOI21x1_ASAP7_75t_L
*I *521:B2 I *D AO221x1_ASAP7_75t_L
*I *893:Y O *D BUFx2_ASAP7_75t_L
*CAP
1 *518:A1 5.15681e-06
2 *521:B2 0
3 *893:Y 1.41157e-05
4 *378:10 1.92725e-05
5 *355:20 *378:10 0
6 *355:33 *378:10 8.06436e-06
7 *377:10 *378:10 1.63973e-05
8 *377:25 *518:A1 1.692e-05
9 *377:25 *378:10 6.97416e-06
*RES
1 *893:Y *378:10 44.9585 
2 *378:10 *521:B2 34.4 
3 *378:10 *518:A1 40.0317 
*END

*D_NET *379 0.000711447
*CONN
*P req_rdy O
*I *894:Y O *D BUFx2_ASAP7_75t_L
*CAP
1 req_rdy 1.47773e-05
2 *894:Y 1.98068e-05
3 *379:10 0.000128334
4 *379:8 0.000133364
5 req_rdy resp_msg[1] 2.46769e-05
6 *379:8 *387:8 4.74894e-06
7 *379:10 *387:10 2.08758e-05
8 *67:18 *379:10 3.2526e-05
9 *105:8 *379:10 0
10 *128:8 *379:10 0.000332337
11 *325:11 req_rdy 0
*RES
1 *894:Y *379:8 41.3527 
2 *379:8 *379:10 135.817 
3 *379:10 req_rdy 39.0804 
*END

*D_NET *380 0.000514562
*CONN
*P resp_msg[0] O
*I *895:Y O *D BUFx2_ASAP7_75t_L
*CAP
1 resp_msg[0] 1.14424e-05
2 *895:Y 0
3 *380:12 1.9832e-05
4 *380:6 0.000209263
5 *380:4 0.000200873
6 *215:16 *380:6 2.0392e-05
7 *303:9 resp_msg[0] 2.16671e-05
8 *310:9 *380:12 1.26918e-05
9 *310:13 *380:6 1.41037e-05
10 *335:88 *380:6 4.29684e-06
*RES
1 *895:Y *380:4 17.2 
2 *380:4 *380:6 101.082 
3 *380:6 *380:12 42.5659 
4 *380:12 resp_msg[0] 8.06232 
*END

*D_NET *381 0.000269451
*CONN
*P resp_msg[10] O
*I *896:Y O *D BUFx2_ASAP7_75t_L
*CAP
1 resp_msg[10] 2.15094e-05
2 *896:Y 6.97303e-05
3 *381:12 2.29282e-05
4 *381:6 7.11491e-05
5 resp_msg[10] resp_msg[12] 3.96195e-05
6 *381:6 *383:6 1.61937e-05
7 *305:9 resp_msg[10] 0
8 *322:9 resp_msg[10] 2.83213e-05
9 *324:9 resp_msg[10] 0
*RES
1 *896:Y *381:6 49.8243 
2 *381:6 *381:12 35.057 
3 *381:12 resp_msg[10] 19.1007 
*END

*D_NET *382 0.000480762
*CONN
*P resp_msg[11] O
*I *897:Y O *D BUFx2_ASAP7_75t_L
*CAP
1 resp_msg[11] 2.50754e-05
2 *897:Y 0
3 *382:8 0.000144258
4 *382:6 0.000119182
5 resp_msg[11] resp_msg[13] 0
6 *342:10 *382:8 0.000192247
*RES
1 *897:Y *382:6 34.4 
2 *382:6 *382:8 120.236 
3 *382:8 resp_msg[11] 41.6132 
*END

*D_NET *383 0.000178094
*CONN
*P resp_msg[12] O
*I *898:Y O *D BUFx2_ASAP7_75t_L
*CAP
1 resp_msg[12] 1.38952e-05
2 *898:Y 3.10001e-05
3 *383:6 4.48953e-05
4 resp_msg[10] resp_msg[12] 3.96195e-05
5 *305:9 resp_msg[12] 8.98736e-06
6 *321:11 resp_msg[12] 2.35027e-05
7 *321:13 *383:6 0
8 *322:13 *383:6 0
9 *381:6 *383:6 1.61937e-05
*RES
1 *898:Y *383:6 41.2671 
2 *383:6 resp_msg[12] 49.9879 
*END

*D_NET *384 0.000165287
*CONN
*P resp_msg[13] O
*I *899:Y O *D BUFx2_ASAP7_75t_L
*CAP
1 resp_msg[13] 3.71289e-05
2 *899:Y 0
3 *384:14 4.07812e-05
4 *384:8 4.55147e-05
5 *384:6 4.18623e-05
6 resp_msg[11] resp_msg[13] 0
*RES
1 *899:Y *384:6 34.4 
2 *384:6 *384:8 34.6347 
3 *384:8 *384:14 30.0281 
4 *384:14 resp_msg[13] 20.3609 
*END

*D_NET *385 0.000265745
*CONN
*P resp_msg[14] O
*I *900:Y O *D BUFx2_ASAP7_75t_L
*CAP
1 resp_msg[14] 4.32388e-05
2 *900:Y 6.08585e-05
3 *385:12 4.68321e-05
4 *385:6 6.44518e-05
5 resp_msg[14] resp_msg[15] 5.0364e-05
*RES
1 *900:Y *385:6 43.4064 
2 *385:6 *385:12 36.3711 
3 *385:12 resp_msg[14] 28.191 
*END

*D_NET *386 0.000325146
*CONN
*P resp_msg[15] O
*I *901:Y O *D BUFx2_ASAP7_75t_L
*CAP
1 resp_msg[15] 2.45776e-05
2 *901:Y 0
3 *386:12 3.226e-05
4 *386:6 0.000112813
5 *386:4 0.000105131
6 resp_msg[14] resp_msg[15] 5.0364e-05
*RES
1 *901:Y *386:4 17.2 
2 *386:4 *386:6 45.4601 
3 *386:6 *386:12 38.9992 
4 *386:12 resp_msg[15] 18.4513 
*END

*D_NET *387 0.000537112
*CONN
*P resp_msg[1] O
*I *902:Y O *D BUFx2_ASAP7_75t_L
*CAP
1 resp_msg[1] 1.02984e-05
2 *902:Y 9.70095e-06
3 *387:10 0.000126051
4 *387:8 0.000125453
5 req_rdy resp_msg[1] 2.46769e-05
6 *107:10 *387:10 0
7 *128:8 *387:10 0.000133111
8 *292:10 *387:10 1.84493e-05
9 *302:10 *387:10 1.98844e-05
10 *311:9 resp_msg[1] 2.71041e-05
11 *311:15 *387:10 2.83874e-07
12 *345:14 *387:8 6.7842e-07
13 *345:22 *387:8 7.46262e-06
14 *345:26 *387:10 8.33296e-06
15 *379:8 *387:8 4.74894e-06
16 *379:10 *387:10 2.08758e-05
*RES
1 *902:Y *387:8 40.2831 
2 *387:8 *387:10 132.062 
3 *387:10 resp_msg[1] 39.7757 
*END

*D_NET *388 0.000407004
*CONN
*P resp_msg[2] O
*I *903:Y O *D BUFx2_ASAP7_75t_L
*CAP
1 resp_msg[2] 3.07823e-05
2 *903:Y 0
3 *388:8 0.00018688
4 *388:6 0.000156098
5 *388:8 *441:12 7.47036e-07
6 *119:8 *388:8 0
7 *312:9 resp_msg[2] 0
8 *312:15 *388:8 5.71541e-06
9 *313:9 resp_msg[2] 2.67819e-05
10 *366:18 *388:8 0
*RES
1 *903:Y *388:6 34.4 
2 *388:6 *388:8 128.683 
3 *388:8 resp_msg[2] 46.9181 
*END

*D_NET *389 0.000583231
*CONN
*P resp_msg[3] O
*I *904:Y O *D BUFx2_ASAP7_75t_L
*CAP
1 resp_msg[3] 2.31123e-05
2 *904:Y 1.37622e-05
3 *389:10 0.000120407
4 *389:8 0.000111057
5 *118:8 *389:10 0.000265334
6 *313:9 resp_msg[3] 6.97583e-07
7 *315:11 resp_msg[3] 2.83599e-05
8 *315:15 *389:10 1.84409e-05
9 *325:11 resp_msg[3] 0
10 *347:14 *389:8 2.06011e-06
*RES
1 *904:Y *389:8 40.2831 
2 *389:8 *389:10 111.788 
3 *389:10 resp_msg[3] 43.0222 
*END

*D_NET *390 0.000470671
*CONN
*P resp_msg[4] O
*I *905:Y O *D BUFx2_ASAP7_75t_L
*CAP
1 resp_msg[4] 0.000136747
2 *905:Y 2.70148e-06
3 *390:10 0.000136747
4 *390:8 2.70148e-06
5 *329:5 resp_msg[4] 0.00019112
6 *329:11 *390:8 6.54718e-07
*RES
1 *905:Y *390:8 36.5588 
2 *390:8 *390:10 17.2 
3 *390:10 resp_msg[4] 77.2143 
*END

*D_NET *391 0.000439603
*CONN
*P resp_msg[5] O
*I *906:Y O *D BUFx2_ASAP7_75t_L
*CAP
1 resp_msg[5] 2.09987e-05
2 *906:Y 3.00584e-05
3 *391:20 2.68731e-05
4 *391:14 4.94947e-05
5 *391:10 7.36789e-05
6 *104:12 *391:14 4.90209e-05
7 *316:9 resp_msg[5] 5.17826e-05
8 *330:9 resp_msg[5] 6.35145e-05
9 *349:47 *391:10 1.76928e-06
10 *374:20 *391:14 7.24122e-05
*RES
1 *906:Y *391:10 48.541 
2 *391:10 *391:14 48.1506 
3 *391:14 *391:20 37.9667 
4 *391:20 resp_msg[5] 23.3212 
*END

*D_NET *392 0.000384269
*CONN
*P resp_msg[6] O
*I *907:Y O *D BUFx2_ASAP7_75t_L
*CAP
1 resp_msg[6] 2.39571e-05
2 *907:Y 1.04513e-05
3 *392:26 3.07368e-05
4 *392:20 2.87051e-05
5 *392:12 0.000107809
6 *392:10 8.58835e-05
7 *392:8 1.04513e-05
8 *317:9 *392:20 0
9 *319:9 resp_msg[6] 2.28166e-05
10 *331:9 resp_msg[6] 5.84224e-05
11 *331:9 *392:20 1.87008e-07
12 *350:36 *392:8 0
13 *358:12 *392:8 4.56264e-06
14 *374:12 *392:20 2.86063e-07
15 *374:12 *392:26 0
*RES
1 *907:Y *392:8 42.9414 
2 *392:8 *392:10 17.2 
3 *392:10 *392:12 41.3397 
4 *392:12 *392:20 43.5941 
5 *392:20 *392:26 39.4685 
6 *392:26 resp_msg[6] 21.3733 
*END

*D_NET *393 0.000389282
*CONN
*P resp_msg[7] O
*I *908:Y O *D BUFx2_ASAP7_75t_L
*CAP
1 resp_msg[7] 2.07688e-05
2 *908:Y 0
3 *393:8 0.000194641
4 *393:6 0.000173872
*RES
1 *908:Y *393:6 34.4 
2 *393:6 *393:8 145.578 
3 *393:8 resp_msg[7] 39.2324 
*END

*D_NET *394 0.000209009
*CONN
*P resp_msg[8] O
*I *909:Y O *D BUFx2_ASAP7_75t_L
*CAP
1 resp_msg[8] 1.83896e-05
2 *909:Y 5.5065e-05
3 *394:12 2.08549e-05
4 *394:6 5.75302e-05
5 *285:10 resp_msg[8] 2.82935e-05
6 *332:5 resp_msg[8] 2.8876e-05
*RES
1 *909:Y *394:6 40.1975 
2 *394:6 *394:12 35.6202 
3 *394:12 resp_msg[8] 18.776 
*END

*D_NET *395 0.00062097
*CONN
*P resp_msg[9] O
*I *910:Y O *D BUFx2_ASAP7_75t_L
*CAP
1 resp_msg[9] 2.12448e-05
2 *910:Y 0
3 *395:8 0.000138879
4 *395:6 0.000117634
5 *320:11 resp_msg[9] 1.39101e-05
6 *320:13 *395:8 0.000317675
7 *334:9 resp_msg[9] 1.16264e-05
8 *361:10 *395:8 0
*RES
1 *910:Y *395:6 34.4 
2 *395:6 *395:8 131.687 
3 *395:8 resp_msg[9] 42.3871 
*END

*D_NET *396 0.000391339
*CONN
*P resp_val O
*I *911:Y O *D BUFx2_ASAP7_75t_L
*CAP
1 resp_val 1.21307e-05
2 *911:Y 3.06146e-06
3 *396:10 0.000164245
4 *396:8 0.000155175
5 *106:8 *396:10 0
6 *323:17 *396:10 0
7 *336:15 *396:10 0
8 *337:5 resp_val 1.55793e-05
9 *337:13 *396:10 3.97423e-06
10 *354:5 resp_val 2.67819e-05
11 *354:15 *396:10 8.19482e-06
12 *377:10 *396:10 2.19685e-06
*RES
1 *911:Y *396:8 36.0045 
2 *396:8 *396:10 123.615 
3 *396:10 resp_val 40.2085 
*END

*D_NET *397 0.000240533
*CONN
*I *651:A2 I *D AO21x1_ASAP7_75t_L
*I *646:A2 I *D AO21x1_ASAP7_75t_L
*I *912:Y O *D BUFx3_ASAP7_75t_L
*CAP
1 *651:A2 0
2 *646:A2 0
3 *912:Y 3.66047e-05
4 *397:32 1.50757e-05
5 *397:24 3.7144e-05
6 *397:14 3.22445e-05
7 *397:6 4.67809e-05
8 *397:24 *446:95 0
9 *646:B *397:32 6.17507e-06
10 *650:B1 *397:6 1.4181e-05
11 *651:A1 *397:24 5.05508e-06
12 *77:10 *397:32 1.51618e-05
13 *78:14 *397:32 1.49407e-08
14 *209:122 *397:6 2.12276e-06
15 *209:137 *397:6 6.17507e-06
16 *243:14 *397:6 9.23007e-06
17 *290:14 *397:32 3.05118e-08
18 *344:14 *397:32 0
19 *344:29 *397:24 4.45645e-06
20 *344:29 *397:32 1.49407e-08
21 *344:31 *397:24 1.00654e-05
*RES
1 *912:Y *397:6 33.7796 
2 *397:6 *397:14 40.5098 
3 *397:14 *397:24 49.9419 
4 *397:24 *397:32 44.3669 
5 *397:32 *646:A2 17.2 
6 *397:14 *651:A2 17.2 
*END

*D_NET *398 0.000174781
*CONN
*I *955:A I *D BUFx3_ASAP7_75t_L
*I *976:Y O *D BUFx3_ASAP7_75t_L
*CAP
1 *955:A 0
2 *976:Y 1.70752e-05
3 *398:16 1.86217e-05
4 *398:8 3.56969e-05
5 *398:16 *418:72 0
6 *398:16 *430:67 9.85012e-06
7 *48:19 *398:16 5.62556e-06
8 *115:8 *398:16 4.26751e-07
9 *115:12 *398:16 6.22226e-05
10 *117:19 *398:8 0
11 *120:22 *398:8 8.71976e-06
12 *124:22 *398:8 3.80761e-06
13 *124:22 *398:16 4.98688e-07
14 *158:27 *398:16 1.03977e-05
15 *159:56 *398:8 1.0541e-06
16 *173:12 *398:8 0
17 *300:31 *398:8 7.84037e-07
18 *361:10 *398:8 0
*RES
1 *976:Y *398:8 45.9449 
2 *398:8 *398:16 47.193 
3 *398:16 *955:A 34.4 
*END

*D_NET *399 0.000151504
*CONN
*I *923:A I *D BUFx3_ASAP7_75t_L
*I *975:Y O *D BUFx3_ASAP7_75t_L
*CAP
1 *923:A 0
2 *975:Y 1.63001e-05
3 *399:14 3.94821e-05
4 *399:8 5.57821e-05
5 *399:14 *413:8 6.27229e-06
6 *975:A *399:14 0
7 *24:6 *399:14 0
8 *63:60 *399:14 1.95291e-05
9 *105:8 *399:14 0
10 *118:12 *399:8 6.30602e-06
11 *148:37 *399:14 6.28016e-06
12 *148:45 *399:14 1.55218e-06
*RES
1 *975:Y *399:8 41.3527 
2 *399:8 *399:14 44.9332 
3 *399:14 *923:A 17.2 
*END

*D_NET *400 0.000594242
*CONN
*I *914:C I *D AND3x4_ASAP7_75t_L
*I *918:A I *D BUFx3_ASAP7_75t_L
*I *691:A2 I *D AO21x2_ASAP7_75t_L
*I *635:A I *D OR2x4_ASAP7_75t_L
*I *974:Y O *D AO211x2_ASAP7_75t_L
*CAP
1 *914:C 0
2 *918:A 5.51906e-06
3 *691:A2 0
4 *635:A 7.84125e-06
5 *974:Y 7.1962e-06
6 *400:33 1.80322e-05
7 *400:27 6.41333e-05
8 *400:25 4.0582e-05
9 *400:16 2.19549e-05
10 *400:14 3.21386e-05
11 *400:8 2.52212e-05
12 *635:A *433:20 1.07377e-06
13 *400:14 *407:76 3.68287e-06
14 *400:14 *407:84 5.37866e-07
15 *400:14 *425:64 4.83862e-06
16 *400:14 *425:70 2.7159e-05
17 *400:14 *444:12 6.7842e-07
18 *400:16 *407:76 3.98159e-05
19 *400:16 *433:20 2.90209e-08
20 *400:16 *444:12 5.77612e-06
21 *400:27 *402:88 1.12894e-06
22 *400:33 *403:12 1.96943e-05
23 *632:A2 *400:8 9.50756e-06
24 *691:B *400:33 1.44167e-06
25 *974:A2 *400:27 2.63749e-05
26 *41:10 *400:14 6.9051e-06
27 *42:10 *400:14 0
28 *127:12 *400:27 7.27531e-06
29 *127:27 *400:27 2.34105e-05
30 *127:38 *635:A 2.27303e-05
31 *131:14 *400:8 1.10341e-05
32 *131:40 *400:27 4.41094e-06
33 *132:12 *400:27 0
34 *132:16 *400:33 0
35 *140:10 *400:27 0
36 *186:22 *400:27 2.3189e-06
37 *208:62 *400:33 6.10236e-08
38 *211:18 *400:27 1.26139e-05
39 *211:31 *400:27 1.38885e-05
40 *228:8 *400:14 1.69591e-05
41 *229:10 *400:14 2.84286e-06
42 *231:12 *635:A 8.06588e-06
43 *231:63 *635:A 2.20493e-06
44 *231:63 *400:16 1.35684e-06
45 *231:63 *400:27 1.30336e-05
46 *231:69 *400:14 1.09842e-06
47 *275:10 *400:33 1.10796e-05
48 *275:131 *400:27 4.84386e-05
49 *275:131 *400:33 1.90617e-05
50 *277:8 *400:27 8.49275e-07
51 *277:8 *400:33 2.45021e-07
*RES
1 *974:Y *400:8 42.4224 
2 *400:8 *400:14 35.7278 
3 *400:14 *400:16 12.8358 
4 *400:16 *635:A 26.292 
5 *400:16 *400:25 17.2 
6 *400:25 *400:27 40.548 
7 *400:27 *400:33 33.2201 
8 *400:33 *691:A2 17.2 
9 *400:27 *918:A 37.0741 
10 *400:14 *914:C 17.2 
*END

*D_NET *401 0.00179321
*CONN
*I *696:B1 I *D OA222x2_ASAP7_75t_L
*I *697:B1 I *D OA222x2_ASAP7_75t_L
*I *704:B1 I *D OA222x2_ASAP7_75t_L
*I *703:B1 I *D OA222x2_ASAP7_75t_L
*I *699:B1 I *D OA222x2_ASAP7_75t_L
*I *700:B1 I *D OA222x2_ASAP7_75t_L
*I *714:B1 I *D OA222x2_ASAP7_75t_L
*I *707:B1 I *D OA222x2_ASAP7_75t_L
*I *913:Y O *D AO21x1_ASAP7_75t_L
*CAP
1 *696:B1 1.39226e-05
2 *697:B1 6.1063e-06
3 *704:B1 2.49133e-06
4 *703:B1 0
5 *699:B1 6.93449e-06
6 *700:B1 1.48338e-06
7 *714:B1 0
8 *707:B1 5.04584e-06
9 *913:Y 0
10 *401:119 2.57503e-05
11 *401:111 4.15324e-05
12 *401:100 4.15269e-06
13 *401:92 4.54156e-05
14 *401:88 7.53603e-05
15 *401:86 5.86157e-05
16 *401:73 4.49091e-05
17 *401:67 4.42195e-05
18 *401:65 3.76571e-05
19 *401:61 7.19159e-05
20 *401:52 5.41274e-05
21 *401:39 1.28766e-05
22 *401:33 7.76262e-05
23 *401:29 0.000113678
24 *401:16 5.39744e-05
25 *401:14 0.00011243
26 *401:12 0.000123299
27 *401:4 3.70699e-05
28 *696:B1 *417:94 1.99018e-05
29 *696:B1 *443:8 6.79089e-06
30 *696:B1 *453:127 3.68287e-06
31 *699:B1 *417:65 2.70988e-05
32 *699:B1 *417:78 1.95129e-06
33 *401:14 *407:25 0
34 *401:29 *417:33 0
35 *401:29 *440:16 3.05118e-08
36 *401:29 *440:24 7.84338e-06
37 *401:29 *449:12 5.79282e-05
38 *401:29 *449:18 7.63844e-07
39 *401:33 *458:17 6.56944e-05
40 *401:39 *414:8 0
41 *401:39 *460:18 1.04612e-06
42 *401:61 *700:C2 1.02708e-05
43 *401:61 *417:94 2.35847e-05
44 *401:65 *453:108 2.98814e-06
45 *401:73 *452:30 1.32602e-05
46 *401:88 *450:45 0
47 *401:92 *703:A1 5.43207e-06
48 *401:119 *704:A1 2.03526e-06
49 *401:119 *402:33 1.13512e-05
50 *621:A1 *697:B1 7.84772e-07
51 *621:A1 *401:73 0
52 *621:A1 *401:88 1.49407e-08
53 *696:A2 *696:B1 1.21211e-05
54 *696:B2 *696:B1 3.89037e-06
55 *699:C1 *699:B1 8.3281e-06
56 *704:B2 *401:119 2.03526e-06
57 *707:B2 *707:B1 7.14604e-06
58 *731:A *707:B1 2.26827e-06
59 *731:A *401:29 3.90327e-05
60 *958:A *401:61 2.20493e-06
61 *964:A *401:29 2.69203e-06
62 *4:83 *401:14 1.20932e-06
63 *20:14 *401:14 1.33407e-06
64 *20:16 *401:14 2.53632e-06
65 *20:18 *401:14 9.25549e-07
66 *20:22 *401:14 4.70806e-06
67 *27:10 *401:88 6.23005e-05
68 *28:45 *401:88 0
69 *28:51 *401:88 0
70 *36:10 *401:73 0
71 *37:12 *401:88 4.02602e-06
72 *40:48 *401:65 9.93076e-07
73 *56:10 *401:39 4.03399e-07
74 *56:41 *401:39 8.11704e-06
75 *66:10 *401:29 2.54196e-07
76 *113:37 *401:29 5.16782e-06
77 *131:12 *401:88 0
78 *133:12 *401:88 8.0913e-06
79 *134:6 *401:73 2.4251e-05
80 *134:6 *401:86 7.57325e-06
81 *134:12 *401:73 5.91084e-06
82 *135:10 *401:39 0
83 *145:56 *401:88 1.08499e-05
84 *145:60 *401:65 2.61463e-06
85 *145:60 *401:88 9.05024e-06
86 *146:25 *401:14 0
87 *148:109 *401:14 1.37139e-06
88 *148:137 *401:119 1.14563e-06
89 *149:22 *401:119 8.27348e-07
90 *158:10 *401:29 0
91 *159:10 *401:29 2.98814e-08
92 *208:76 *401:12 7.58265e-07
93 *209:91 *401:52 3.47607e-06
94 *210:20 *401:92 7.58265e-07
95 *212:16 *707:B1 0
96 *212:16 *401:29 0
97 *214:28 *401:52 7.35354e-06
98 *219:12 *401:88 8.29207e-06
99 *230:10 *401:12 2.48762e-06
100 *231:20 *401:29 0
101 *231:30 *401:29 1.90593e-05
102 *274:20 *699:B1 1.885e-06
103 *275:20 *401:29 6.11372e-06
104 *275:22 *401:14 0
105 *275:122 *401:29 1.42322e-05
106 *275:145 *401:100 7.98637e-06
107 *275:145 *401:111 7.0671e-06
108 *276:20 *401:88 3.90974e-06
109 *278:12 *401:33 4.98688e-08
110 *280:8 *401:73 1.49522e-05
111 *283:12 *401:39 0
112 *286:20 *697:B1 4.61602e-06
113 *286:54 *697:B1 1.88415e-05
114 *286:54 *401:65 7.07219e-06
115 *286:54 *401:88 1.61584e-05
116 *287:22 *699:B1 2.13304e-06
117 *288:18 *401:52 0
118 *288:29 *401:52 8.58704e-06
119 *289:25 *401:111 1.593e-06
120 *290:38 *401:92 1.04475e-06
121 *290:38 *401:111 5.37866e-07
122 *293:29 *707:B1 4.83862e-06
123 *301:8 *401:61 2.0895e-06
124 *339:18 *401:111 5.08581e-05
*RES
1 *913:Y *401:4 17.2 
2 *401:4 *401:12 39.5233 
3 *401:12 *401:14 34.8465 
4 *401:14 *401:16 17.2 
5 *401:16 *707:B1 39.0735 
6 *401:16 *401:29 47.1182 
7 *401:29 *401:33 44.9041 
8 *401:33 *401:39 43.3168 
9 *401:39 *714:B1 17.2 
10 *401:4 *401:52 46.8427 
11 *401:52 *700:B1 18.2696 
12 *401:52 *401:61 19.7885 
13 *401:61 *401:65 36.9108 
14 *401:65 *401:67 17.2 
15 *401:67 *401:73 40.3712 
16 *401:73 *699:B1 41.3527 
17 *401:67 *401:86 19.8741 
18 *401:86 *401:88 45.6164 
19 *401:88 *401:92 27.3617 
20 *401:92 *401:100 38.8203 
21 *401:100 *703:B1 17.2 
22 *401:92 *401:111 36.2626 
23 *401:111 *401:119 46.3645 
24 *401:119 *704:B1 36.5393 
25 *401:65 *697:B1 40.5098 
26 *401:61 *696:B1 31.6403 
*END

*D_NET *402 0.00208127
*CONN
*I *688:B2 I *D AO221x2_ASAP7_75t_L
*I *930:A I *D BUFx3_ASAP7_75t_L
*I *654:B2 I *D AO221x2_ASAP7_75t_L
*I *625:B I *D OR3x1_ASAP7_75t_L
*I *912:A I *D BUFx3_ASAP7_75t_L
*I *927:A I *D BUFx3_ASAP7_75t_L
*I *981:A I *D BUFx3_ASAP7_75t_L
*I *914:Y O *D AND3x4_ASAP7_75t_L
*CAP
1 *688:B2 0
2 *930:A 1.63082e-05
3 *654:B2 9.01607e-06
4 *625:B 2.39677e-06
5 *912:A 0
6 *927:A 0
7 *981:A 4.65146e-06
8 *914:Y 0
9 *402:120 8.51703e-05
10 *402:118 7.61542e-05
11 *402:116 2.55515e-05
12 *402:110 4.18597e-05
13 *402:108 0.000101813
14 *402:106 0.000105714
15 *402:98 5.30483e-06
16 *402:94 5.65662e-05
17 *402:88 7.36923e-05
18 *402:75 4.98244e-05
19 *402:73 5.35921e-05
20 *402:64 3.59139e-05
21 *402:51 3.73797e-06
22 *402:43 3.34874e-05
23 *402:41 1.3929e-05
24 *402:33 3.43466e-05
25 *402:29 4.17031e-05
26 *402:14 0.00012449
27 *402:10 0.000100455
28 *402:6 2.04309e-05
29 *930:A *421:8 1.2768e-05
30 *930:A *459:12 1.02506e-06
31 *402:14 *444:39 0
32 *402:14 *450:22 0
33 *402:14 *458:63 5.07415e-06
34 *402:14 *458:87 4.23885e-07
35 *402:33 *417:161 9.4321e-06
36 *402:33 *446:84 4.48222e-08
37 *402:41 *704:C2 5.75235e-06
38 *402:41 *446:84 1.24527e-05
39 *402:51 *446:84 7.11252e-08
40 *402:51 *454:16 4.33455e-06
41 *402:64 *454:16 3.8589e-06
42 *402:75 *701:A 8.33296e-06
43 *402:75 *450:10 2.92116e-05
44 *402:88 *407:72 4.30517e-07
45 *402:88 *433:31 4.64191e-06
46 *402:94 *405:18 0
47 *402:94 *422:14 2.18417e-05
48 *402:94 *440:16 1.74049e-06
49 *402:94 *441:203 7.51974e-06
50 *402:94 *444:39 1.91121e-05
51 *402:108 *441:130 2.93432e-05
52 *402:108 *441:203 4.30853e-05
53 *402:120 *412:45 0
54 *402:120 *412:55 3.23588e-06
55 *402:120 *413:37 4.78866e-06
56 *402:120 *445:18 4.93044e-07
57 *402:120 *460:18 0
58 *402:120 *460:30 2.06037e-06
59 *645:A1 *402:75 8.65015e-06
60 *666:A1 *402:120 1.11911e-05
61 *688:C *402:98 5.41446e-06
62 *688:C *402:106 5.62196e-06
63 *14:23 *402:75 5.67747e-07
64 *18:10 *402:75 1.94993e-05
65 *18:22 *402:29 4.33061e-05
66 *25:21 *402:75 0
67 *28:12 *402:75 8.2174e-07
68 *28:18 *402:29 1.51674e-05
69 *28:26 *402:14 6.90471e-06
70 *37:12 *981:A 2.83874e-07
71 *37:18 *402:14 1.49606e-07
72 *42:16 *402:94 1.05523e-05
73 *43:24 *402:94 5.74463e-06
74 *43:41 *402:88 0
75 *52:12 *402:120 6.82458e-05
76 *52:33 *930:A 4.57677e-07
77 *52:33 *402:116 6.87092e-06
78 *55:10 *402:120 0
79 *55:42 *402:120 0
80 *56:10 *930:A 0
81 *56:10 *402:116 0
82 *57:30 *402:120 3.05118e-08
83 *61:12 *402:120 4.34783e-05
84 *61:21 *402:120 7.3814e-05
85 *92:14 *402:33 5.8241e-06
86 *122:18 *402:14 0
87 *122:18 *402:94 4.16336e-05
88 *124:45 *402:94 0
89 *127:8 *402:88 0
90 *140:10 *402:88 1.2849e-06
91 *145:120 *402:120 0
92 *146:67 *402:14 8.53546e-06
93 *148:129 *402:33 3.062e-06
94 *148:137 *402:41 0
95 *148:158 *402:51 3.84126e-06
96 *148:158 *402:64 1.07283e-05
97 *149:14 *402:64 6.93469e-06
98 *149:22 *402:33 4.03043e-07
99 *209:20 *402:120 3.66963e-05
100 *209:137 *402:64 4.11415e-05
101 *209:145 *402:75 2.7159e-05
102 *212:47 *402:120 1.70708e-06
103 *212:51 *402:120 0
104 *212:95 *402:120 0
105 *213:32 *402:64 1.65436e-06
106 *226:18 *402:14 0
107 *231:18 *402:94 0
108 *231:63 *402:10 1.37195e-06
109 *232:10 *402:75 4.65366e-06
110 *233:12 *402:14 5.50423e-05
111 *237:20 *402:75 4.03483e-05
112 *243:14 *402:73 1.62312e-05
113 *244:8 *402:64 7.47402e-07
114 *244:8 *402:75 0
115 *245:6 *654:B2 7.80667e-06
116 *255:18 *402:120 2.59454e-06
117 *270:10 *402:94 1.49407e-08
118 *270:10 *402:106 6.35292e-07
119 *275:145 *981:A 1.1246e-05
120 *275:145 *402:29 2.21875e-05
121 *285:42 *402:108 0
122 *290:38 *402:29 1.13652e-05
123 *291:10 *402:75 2.45681e-06
124 *291:22 *402:33 7.49412e-06
125 *292:10 *402:120 6.10236e-08
126 *335:139 *402:75 0
127 *345:38 *654:B2 9.75645e-06
128 *349:20 *402:108 0
129 *353:18 *402:94 1.34406e-06
130 *374:20 *402:108 0
131 *374:20 *402:116 8.86692e-06
132 *400:27 *402:88 1.12894e-06
133 *401:119 *402:33 1.13512e-05
*RES
1 *914:Y *402:6 34.4 
2 *402:6 *402:10 18.4202 
3 *402:10 *402:14 48.7999 
4 *402:14 *981:A 38.2483 
5 *402:14 *402:29 32.8474 
6 *402:29 *402:33 33.438 
7 *402:33 *402:41 42.5552 
8 *402:41 *402:43 17.2 
9 *402:43 *402:51 36.7885 
10 *402:51 *927:A 17.2 
11 *402:43 *402:64 48.4762 
12 *402:64 *912:A 17.2 
13 *402:64 *402:73 22.0134 
14 *402:73 *402:75 47.8691 
15 *402:75 *625:B 35.4697 
16 *402:6 *402:88 30.6221 
17 *402:88 *402:94 48.2753 
18 *402:94 *402:98 18.8045 
19 *402:98 *402:106 37.2247 
20 *402:106 *402:108 33.5479 
21 *402:108 *402:110 17.2 
22 *402:110 *402:116 33.0505 
23 *402:116 *402:118 17.2 
24 *402:118 *402:120 75.5581 
25 *402:120 *654:B2 40.8179 
26 *402:110 *930:A 45.3711 
27 *402:98 *688:B2 17.2 
*END

*D_NET *403 0.000287925
*CONN
*I *509:A1 I *D AO21x1_ASAP7_75t_L
*I *515:B I *D AND3x1_ASAP7_75t_L
*I *918:Y O *D BUFx3_ASAP7_75t_L
*CAP
1 *509:A1 0
2 *515:B 0
3 *918:Y 5.82239e-06
4 *403:18 1.86703e-05
5 *403:12 3.9741e-05
6 *403:8 2.68931e-05
7 *509:B *403:12 2.90209e-08
8 *140:12 *403:8 0
9 *141:18 *403:12 6.04012e-05
10 *141:26 *403:12 1.10486e-05
11 *141:26 *403:18 2.04767e-05
12 *143:8 *403:12 2.20493e-06
13 *146:21 *403:18 3.91031e-05
14 *146:86 *403:18 6.61697e-06
15 *146:94 *403:18 1.67815e-06
16 *208:8 *403:18 5.85387e-06
17 *208:14 *403:18 1.49175e-05
18 *275:10 *403:8 7.09058e-06
19 *275:10 *403:12 5.22376e-07
20 *275:131 *403:8 7.16068e-06
21 *400:33 *403:12 1.96943e-05
*RES
1 *918:Y *403:8 38.9053 
2 *403:8 *403:12 38.0582 
3 *403:12 *403:18 38.4019 
4 *403:18 *515:B 34.4 
5 *403:12 *509:A1 17.2 
*END

*D_NET *404 0.000107469
*CONN
*I *916:A2 I *D AOI21x1_ASAP7_75t_L
*I *915:Y O *D BUFx3_ASAP7_75t_L
*CAP
1 *916:A2 2.00968e-05
2 *915:Y 1.80214e-05
3 *404:8 3.81182e-05
4 *916:A2 *406:31 2.55346e-06
5 *916:A2 *417:22 7.02606e-06
6 *916:B *916:A2 1.95129e-06
7 *4:143 *916:A2 6.16728e-06
8 *132:48 *404:8 5.58147e-06
9 *284:10 *916:A2 7.95275e-06
*RES
1 *915:Y *404:8 41.3527 
2 *404:8 *916:A2 49.4071 
*END

*D_NET *405 0.000712384
*CONN
*I *542:D I *D AND4x1_ASAP7_75t_L
*I *567:A1 I *D AO21x2_ASAP7_75t_L
*I *920:Y O *D BUFx3_ASAP7_75t_L
*CAP
1 *542:D 1.89712e-06
2 *567:A1 1.08202e-05
3 *920:Y 2.10747e-05
4 *405:29 3.83244e-05
5 *405:18 4.01742e-05
6 *405:10 0.000107929
7 *405:8 6.32222e-05
8 *567:A1 *407:50 4.20803e-06
9 *405:10 *445:55 2.40076e-05
10 *405:10 *449:12 0
11 *405:18 *441:203 0
12 *405:29 *409:16 1.23321e-06
13 *405:29 *418:72 8.29207e-07
14 *983:A *405:8 8.87763e-06
15 *66:14 *405:8 8.40497e-06
16 *158:10 *405:10 6.40699e-05
17 *158:21 *405:10 4.49853e-05
18 *158:21 *405:29 0.000135083
19 *165:10 *542:D 1.35684e-06
20 *212:16 *405:10 3.0552e-05
21 *212:35 *405:10 9.93399e-06
22 *231:18 *405:18 6.2621e-05
23 *271:12 *405:29 5.6031e-06
24 *284:10 *405:18 2.20028e-06
25 *285:42 *405:18 1.4556e-06
26 *375:8 *405:10 4.10445e-06
27 *375:8 *405:29 1.94168e-05
28 *402:94 *405:18 0
*RES
1 *920:Y *405:8 43.492 
2 *405:8 *405:10 46.4612 
3 *405:10 *405:18 47.3653 
4 *405:18 *567:A1 40.8179 
5 *405:10 *405:29 45.3349 
6 *405:29 *542:D 35.4697 
*END

*D_NET *406 0.00014673
*CONN
*I *609:A2 I *D AOI21x1_ASAP7_75t_L
*I *916:A1 I *D AOI21x1_ASAP7_75t_L
*I *656:A2 I *D OA21x2_ASAP7_75t_L
*I *921:Y O *D BUFx3_ASAP7_75t_L
*CAP
1 *609:A2 0
2 *916:A1 0
3 *656:A2 0
4 *921:Y 3.61603e-06
5 *406:42 9.44803e-06
6 *406:31 1.0958e-05
7 *406:18 1.40909e-05
8 *406:8 5.36978e-05
9 *406:6 4.1713e-05
10 *406:18 *417:54 0
11 *656:B *406:8 6.1473e-07
12 *656:B *406:18 6.20163e-07
13 *916:A2 *406:31 2.55346e-06
14 *921:A *406:6 5.0551e-07
15 *921:A *406:8 1.26378e-06
16 *4:105 *406:31 6.72662e-07
17 *4:143 *406:31 8.6675e-07
18 *146:96 *406:8 1.26391e-06
19 *146:111 *406:18 6.10236e-08
20 *146:111 *406:31 1.21934e-06
21 *146:115 *406:31 0
22 *209:12 *406:42 2.03686e-06
23 *209:73 *406:42 1.52808e-06
24 *211:12 *406:42 0
*RES
1 *921:Y *406:6 18.8045 
2 *406:6 *406:8 10.1617 
3 *406:8 *406:18 40.9596 
4 *406:18 *656:A2 17.2 
5 *406:8 *406:31 40.5098 
6 *406:31 *916:A1 17.2 
7 *406:6 *406:42 40.0317 
8 *406:42 *609:A2 17.2 
*END

*D_NET *407 0.00138658
*CONN
*I *612:C I *D AND3x4_ASAP7_75t_L
*I *914:B I *D AND3x4_ASAP7_75t_L
*I *637:A2 I *D OA211x2_ASAP7_75t_L
*I *632:C I *D OA211x2_ASAP7_75t_L
*I *507:D I *D AND4x1_ASAP7_75t_L
*I *686:A2 I *D OA21x2_ASAP7_75t_L
*I *681:A2 I *D OA21x2_ASAP7_75t_L
*I *691:A1 I *D AO21x2_ASAP7_75t_L
*I *913:A1 I *D AO21x1_ASAP7_75t_L
*I *922:Y O *D BUFx3_ASAP7_75t_L
*CAP
1 *612:C 0
2 *914:B 0
3 *637:A2 7.39688e-06
4 *632:C 2.15365e-06
5 *507:D 0
6 *686:A2 0
7 *681:A2 9.1709e-06
8 *691:A1 0
9 *913:A1 2.4793e-06
10 *922:Y 1.70991e-05
11 *407:102 2.78514e-05
12 *407:96 4.20742e-05
13 *407:90 2.54391e-05
14 *407:84 2.85764e-05
15 *407:76 2.0917e-05
16 *407:72 5.07314e-05
17 *407:50 3.17227e-05
18 *407:46 9.15746e-05
19 *407:44 5.36596e-05
20 *407:40 5.31811e-05
21 *407:29 3.21371e-05
22 *407:25 3.4976e-05
23 *407:10 5.33377e-05
24 *637:A2 *444:12 1.51587e-05
25 *637:A2 *453:40 2.59754e-05
26 *407:72 *444:39 2.26529e-05
27 *407:72 *458:63 0
28 *407:76 *433:14 1.17125e-05
29 *407:76 *433:20 8.06588e-06
30 *407:76 *444:12 3.16328e-06
31 *407:84 *444:12 1.66706e-05
32 *407:84 *453:40 5.85387e-06
33 *407:90 *425:58 1.89782e-05
34 *407:90 *453:36 4.07024e-05
35 *407:96 *444:20 1.36509e-05
36 *407:96 *444:28 2.11217e-06
37 *407:96 *458:63 3.89232e-06
38 *407:102 *425:82 1.64676e-07
39 *407:102 *444:28 4.30517e-07
40 *507:B *407:102 6.49184e-07
41 *567:A1 *407:50 4.20803e-06
42 *567:A2 *407:50 2.90209e-08
43 *681:B *681:A2 3.39864e-05
44 *686:B *681:A2 6.83133e-07
45 *686:B *407:50 2.28976e-06
46 *913:A2 *913:A1 5.62196e-06
47 *20:141 *407:29 4.25968e-06
48 *20:141 *407:40 3.25289e-05
49 *35:8 *407:90 5.97283e-06
50 *36:10 *407:96 5.80445e-06
51 *36:10 *407:102 6.38254e-05
52 *42:10 *407:84 8.33296e-06
53 *43:12 *407:46 0
54 *71:20 *407:10 1.60115e-05
55 *121:24 *407:46 2.83874e-07
56 *121:45 *407:46 1.20741e-05
57 *127:8 *407:72 3.05118e-08
58 *127:12 *407:72 3.05118e-08
59 *127:38 *407:50 9.30483e-06
60 *131:14 *632:C 1.35684e-06
61 *131:22 *407:46 1.29336e-05
62 *132:10 *407:40 3.00255e-06
63 *132:12 *407:40 1.1349e-05
64 *132:16 *407:40 7.0121e-07
65 *132:48 *407:44 9.02665e-06
66 *140:12 *407:10 2.32553e-05
67 *140:12 *407:25 3.3205e-05
68 *140:29 *407:40 4.45647e-06
69 *143:12 *407:29 4.67936e-06
70 *143:12 *407:40 6.64959e-06
71 *145:36 *407:40 0
72 *145:80 *407:46 4.16547e-06
73 *145:84 *407:46 1.13245e-05
74 *146:25 *407:25 6.2194e-05
75 *148:109 *407:25 6.44347e-06
76 *208:29 *407:40 9.10065e-06
77 *226:18 *407:96 1.72047e-05
78 *230:10 *407:10 2.25787e-06
79 *230:10 *407:25 5.40656e-06
80 *231:18 *407:72 1.13222e-05
81 *267:6 *681:A2 2.66797e-07
82 *271:6 *681:A2 4.50228e-05
83 *271:6 *407:50 2.12062e-05
84 *278:8 *407:40 2.90256e-05
85 *278:144 *407:40 8.10151e-06
86 *287:14 *407:102 1.87585e-06
87 *287:22 *407:102 1.57962e-05
88 *287:33 *407:76 6.7842e-07
89 *287:33 *407:84 5.19552e-07
90 *400:14 *407:76 3.68287e-06
91 *400:14 *407:84 5.37866e-07
92 *400:16 *407:76 3.98159e-05
93 *401:14 *407:25 0
94 *402:88 *407:72 4.30517e-07
*RES
1 *922:Y *407:10 47.0977 
2 *407:10 *913:A1 36.0045 
3 *407:10 *407:25 39.9422 
4 *407:25 *407:29 18.7956 
5 *407:29 *691:A1 34.4 
6 *407:29 *407:40 47.611 
7 *407:40 *407:44 28.4313 
8 *407:44 *407:46 25.9056 
9 *407:46 *407:50 34.3144 
10 *407:50 *681:A2 30.5706 
11 *407:50 *686:A2 17.2 
12 *407:46 *407:72 48.2023 
13 *407:72 *407:76 33.7796 
14 *407:76 *407:84 42.0293 
15 *407:84 *407:90 48.7607 
16 *407:90 *407:96 24.7123 
17 *407:96 *407:102 40.7963 
18 *407:102 *507:D 17.2 
19 *407:96 *632:C 35.4697 
20 *407:84 *637:A2 24.6875 
21 *407:76 *914:B 17.2 
22 *407:40 *612:C 17.2 
*END

*D_NET *408 0.000214399
*CONN
*I *522:B I *D XNOR2x2_ASAP7_75t_L
*I *923:Y O *D BUFx3_ASAP7_75t_L
*CAP
1 *522:B 0
2 *923:Y 7.69658e-06
3 *408:18 1.6558e-06
4 *408:12 7.68298e-05
5 *408:8 8.28706e-05
6 *408:8 *413:8 3.00547e-06
7 *408:18 *411:38 3.61852e-06
8 *408:18 *434:8 8.45637e-06
9 *717:A *408:8 5.49212e-07
10 *22:10 *408:8 8.33296e-06
11 *22:18 *408:8 3.55524e-06
12 *22:18 *408:12 5.68629e-06
13 *63:60 *408:8 1.2142e-05
*RES
1 *923:Y *408:8 43.4107 
2 *408:8 *408:12 45.5457 
3 *408:12 *408:18 37.2158 
4 *408:18 *522:B 17.2 
*END

*D_NET *409 0.000281283
*CONN
*I *539:A I *D XNOR2x2_ASAP7_75t_L
*I *545:C I *D OR3x1_ASAP7_75t_L
*I *542:C I *D AND4x1_ASAP7_75t_L
*I *924:Y O *D BUFx3_ASAP7_75t_L
*CAP
1 *539:A 9.00632e-06
2 *545:C 1.81369e-06
3 *542:C 0
4 *924:Y 8.38412e-06
5 *409:42 2.54197e-05
6 *409:25 4.13485e-05
7 *409:16 2.1924e-05
8 *409:8 5.34295e-05
9 *539:A *549:B 1.71813e-05
10 *539:A *414:24 2.43534e-06
11 *539:A *416:12 1.09067e-06
12 *539:A *416:18 1.49407e-08
13 *545:C *418:26 3.89037e-06
14 *409:8 *414:16 1.25711e-05
15 *409:16 *410:14 0
16 *409:16 *418:72 5.17591e-06
17 *409:16 *430:67 2.02493e-06
18 *409:25 *414:16 8.49334e-06
19 *409:25 *416:18 5.38407e-06
20 *409:25 *430:46 2.91955e-05
21 *409:25 *430:61 0
22 *409:42 *549:B 5.0551e-07
23 *409:42 *414:16 1.81523e-06
24 *409:42 *416:18 5.5534e-06
25 *409:42 *430:46 3.04043e-06
26 *482:A *409:8 5.67735e-06
27 *482:A *409:25 3.05045e-06
28 *538:B *539:A 2.50197e-06
29 *538:B *409:42 0
30 *116:12 *409:8 1.62854e-06
31 *158:41 *539:A 2.98961e-07
32 *165:18 *409:25 0
33 *285:30 *409:16 4.15428e-06
34 *375:8 *409:16 3.04043e-06
35 *405:29 *409:16 1.23321e-06
*RES
1 *924:Y *409:8 44.0677 
2 *409:8 *409:16 43.0078 
3 *409:16 *542:C 34.4 
4 *409:8 *409:25 19.0538 
5 *409:25 *545:C 35.4697 
6 *409:25 *409:42 43.8321 
7 *409:42 *539:A 44.537 
*END

*D_NET *410 0.000422525
*CONN
*I *546:A1 I *D OA211x2_ASAP7_75t_L
*I *543:A I *D OR3x1_ASAP7_75t_L
*I *540:A I *D AND3x1_ASAP7_75t_L
*I *925:Y O *D BUFx3_ASAP7_75t_L
*CAP
1 *546:A1 0
2 *543:A 0
3 *540:A 0
4 *925:Y 9.88058e-06
5 *410:42 3.05644e-05
6 *410:32 4.60201e-05
7 *410:24 2.77519e-05
8 *410:22 1.56403e-05
9 *410:14 4.56939e-05
10 *410:8 5.22303e-05
11 *410:14 *560:C 1.26574e-05
12 *410:14 *418:91 4.15283e-06
13 *410:14 *430:67 1.7934e-06
14 *410:22 *430:61 1.52651e-06
15 *410:24 *543:B 6.92634e-06
16 *410:24 *416:26 1.06092e-05
17 *410:24 *430:61 5.00816e-06
18 *410:32 *543:B 3.16796e-05
19 *410:32 *428:20 1.87557e-06
20 *410:32 *436:8 8.03295e-06
21 *546:B *410:22 5.41446e-06
22 *546:B *410:24 2.07929e-05
23 *48:34 *410:14 3.77206e-05
24 *50:22 *410:42 5.52807e-07
25 *53:23 *410:42 1.36943e-05
26 *56:26 *410:42 6.28016e-06
27 *115:12 *410:14 8.56308e-06
28 *161:14 *410:14 0
29 *163:14 *410:32 0
30 *168:10 *410:22 3.05118e-08
31 *180:18 *410:14 3.02352e-06
32 *352:12 *410:14 4.16081e-06
33 *352:18 *410:32 8.26851e-06
34 *352:22 *410:42 2.71246e-07
35 *353:10 *410:14 1.70866e-06
36 *409:16 *410:14 0
*RES
1 *925:Y *410:8 38.1438 
2 *410:8 *410:14 41.2563 
3 *410:14 *410:22 37.4124 
4 *410:22 *410:24 11.7662 
5 *410:24 *410:32 47.9123 
6 *410:32 *410:42 49.067 
7 *410:42 *540:A 17.2 
8 *410:24 *543:A 17.2 
9 *410:22 *546:A1 17.2 
*END

*D_NET *411 0.000251448
*CONN
*I *522:A I *D XNOR2x2_ASAP7_75t_L
*I *525:A1 I *D OA21x2_ASAP7_75t_L
*I *531:A2 I *D AO21x1_ASAP7_75t_L
*I *926:Y O *D BUFx3_ASAP7_75t_L
*CAP
1 *522:A 0
2 *525:A1 0
3 *531:A2 0
4 *926:Y 0
5 *411:38 1.51964e-05
6 *411:20 3.93564e-05
7 *411:14 4.38313e-05
8 *411:10 1.87258e-05
9 *411:4 2.94474e-05
10 *411:20 *415:12 1.29228e-05
11 *411:38 *434:8 3.29527e-06
12 *20:28 *411:20 0
13 *63:48 *411:20 0
14 *65:30 *411:10 1.27326e-05
15 *65:30 *411:38 1.85401e-05
16 *68:16 *411:10 2.65996e-05
17 *71:44 *411:10 2.20493e-06
18 *108:10 *411:20 1.29984e-06
19 *108:10 *411:38 0
20 *153:10 *411:10 9.4492e-06
21 *156:10 *411:20 5.04414e-06
22 *157:10 *411:10 5.85806e-06
23 *347:10 *411:20 3.32579e-06
24 *408:18 *411:38 3.61852e-06
*RES
1 *926:Y *411:4 17.2 
2 *411:4 *411:10 32.8836 
3 *411:10 *411:14 19.3393 
4 *411:14 *411:20 44.3417 
5 *411:20 *531:A2 34.4 
6 *411:14 *525:A1 17.2 
7 *411:4 *411:38 49.0423 
8 *411:38 *522:A 17.2 
*END

*D_NET *412 0.00240952
*CONN
*I *616:A1 I *D AO221x1_ASAP7_75t_L
*I *620:A1 I *D AO221x1_ASAP7_75t_L
*I *675:A2 I *D AO221x2_ASAP7_75t_L
*I *671:A2 I *D AO221x2_ASAP7_75t_L
*I *654:A2 I *D AO221x2_ASAP7_75t_L
*I *916:Y O *D AOI21x1_ASAP7_75t_L
*CAP
1 *616:A1 1.17176e-06
2 *620:A1 0
3 *675:A2 1.62137e-06
4 *671:A2 9.27283e-07
5 *654:A2 4.54452e-06
6 *916:Y 0
7 *412:116 1.39122e-05
8 *412:108 4.92536e-05
9 *412:106 4.71074e-05
10 *412:97 3.13649e-06
11 *412:89 0.000110021
12 *412:87 9.62903e-05
13 *412:74 3.64512e-05
14 *412:61 3.26019e-05
15 *412:55 9.9891e-05
16 *412:49 5.77782e-05
17 *412:45 6.26418e-05
18 *412:32 1.07235e-05
19 *412:24 2.44925e-05
20 *412:20 6.04159e-05
21 *412:14 8.03525e-05
22 *412:12 8.88619e-05
23 *412:10 9.05292e-05
24 *412:6 1.66724e-06
25 *412:10 *417:54 1.09473e-05
26 *412:12 *449:26 7.94643e-06
27 *412:20 *413:37 0
28 *412:20 *457:10 6.85051e-06
29 *412:20 *457:12 1.64764e-06
30 *412:20 *457:45 1.94636e-06
31 *412:20 *458:31 5.57429e-06
32 *412:24 *457:12 0
33 *412:45 *413:37 0
34 *412:45 *460:18 7.31606e-07
35 *412:49 *447:31 1.02506e-06
36 *412:49 *460:26 3.13426e-06
37 *412:55 *421:14 3.68925e-06
38 *412:55 *441:142 9.22307e-06
39 *412:55 *441:146 1.54859e-05
40 *412:55 *460:30 0
41 *412:61 *421:14 2.02493e-06
42 *412:61 *421:22 3.00603e-06
43 *412:61 *441:146 6.86101e-06
44 *412:74 *451:72 1.37342e-05
45 *412:89 *417:14 6.78313e-05
46 *412:97 *417:151 4.25968e-06
47 *412:108 *453:140 4.29278e-06
48 *412:116 *443:33 8.87763e-06
49 *502:C *412:45 4.9137e-07
50 *620:C *412:97 1.35684e-06
51 *675:A1 *675:A2 1.44167e-06
52 *705:C1 *412:24 2.98814e-07
53 *712:C2 *412:74 1.34881e-05
54 *4:143 *412:12 1.97612e-06
55 *20:40 *412:32 9.54815e-06
56 *52:12 *412:55 2.48972e-05
57 *55:10 *412:45 1.69095e-06
58 *55:16 *412:45 1.51545e-06
59 *55:42 *412:45 6.76763e-07
60 *58:37 *412:45 2.68255e-06
61 *60:18 *412:24 6.10236e-08
62 *60:18 *412:32 4.40246e-06
63 *61:27 *412:20 3.24673e-06
64 *61:27 *412:24 2.36719e-05
65 *61:27 *412:45 1.49407e-08
66 *67:14 *412:24 4.88501e-06
67 *67:18 *412:24 1.39722e-05
68 *67:29 *412:45 0
69 *73:8 *412:97 3.90258e-06
70 *79:8 *654:A2 6.7842e-07
71 *83:10 *671:A2 1.04475e-06
72 *95:8 *412:24 1.00416e-05
73 *113:25 *412:12 5.4335e-08
74 *136:12 *412:12 0
75 *148:113 *412:97 4.14576e-06
76 *212:14 *412:12 7.34629e-07
77 *212:14 *412:89 8.22573e-05
78 *212:35 *412:12 5.76864e-05
79 *212:39 *412:12 0.000115623
80 *212:97 *412:55 6.42364e-05
81 *212:112 *412:55 5.47771e-06
82 *212:127 *412:89 0.000241399
83 *212:142 *412:89 1.67215e-05
84 *212:142 *412:106 2.88077e-05
85 *212:144 *412:108 3.26312e-05
86 *212:144 *412:116 8.2174e-07
87 *214:18 *412:108 2.67694e-05
88 *215:22 *616:A1 3.89037e-06
89 *216:8 *616:A1 1.17301e-06
90 *246:14 *654:A2 2.20493e-06
91 *246:14 *412:24 4.6335e-06
92 *246:14 *412:32 4.40246e-06
93 *256:8 *412:45 1.26044e-05
94 *257:25 *671:A2 3.89037e-06
95 *260:28 *412:61 6.14482e-06
96 *260:35 *412:74 3.17412e-05
97 *262:20 *412:74 3.05118e-08
98 *266:16 *412:12 3.95768e-05
99 *275:84 *412:61 4.34967e-05
100 *275:103 *412:61 1.47444e-05
101 *276:12 *412:106 3.88563e-07
102 *278:12 *412:12 1.24672e-08
103 *278:67 *412:24 0
104 *278:100 *412:61 2.98814e-08
105 *278:104 *412:74 1.00092e-05
106 *278:112 *412:61 3.38515e-06
107 *278:120 *412:61 1.00435e-05
108 *279:14 *412:116 9.30483e-06
109 *279:20 *412:108 7.89306e-06
110 *282:10 *412:10 1.11042e-05
111 *292:35 *412:24 1.70708e-06
112 *297:23 *412:74 0
113 *341:12 *412:89 0.000134579
114 *341:12 *412:106 3.92378e-05
115 *348:14 *412:12 4.8824e-05
116 *351:42 *412:74 4.40246e-06
117 *402:120 *412:45 0
118 *402:120 *412:55 3.23588e-06
*RES
1 *916:Y *412:6 34.4 
2 *412:6 *412:10 20.8606 
3 *412:10 *412:12 38.7424 
4 *412:12 *412:14 17.2 
5 *412:14 *412:20 46.5678 
6 *412:20 *412:24 34.752 
7 *412:24 *412:32 37.7271 
8 *412:32 *654:A2 37.0741 
9 *412:14 *412:45 40.0082 
10 *412:45 *412:49 27.3617 
11 *412:49 *412:55 47.4974 
12 *412:55 *412:61 42.1705 
13 *412:61 *671:A2 35.4697 
14 *412:55 *412:74 47.8925 
15 *412:74 *675:A2 35.4697 
16 *412:6 *412:87 17.2 
17 *412:87 *412:89 60.1698 
18 *412:89 *412:97 37.0653 
19 *412:97 *620:A1 17.2 
20 *412:89 *412:106 24.126 
21 *412:106 *412:108 33.3207 
22 *412:108 *412:116 43.8321 
23 *412:116 *616:A1 35.4697 
*END

*D_NET *413 0.000614475
*CONN
*I *528:A I *D XOR2x2_ASAP7_75t_L
*I *476:B I *D OR3x1_ASAP7_75t_L
*I *530:B I *D OR2x2_ASAP7_75t_L
*I *928:Y O *D BUFx3_ASAP7_75t_L
*CAP
1 *528:A 0
2 *476:B 1.77139e-06
3 *530:B 7.49952e-06
4 *928:Y 0
5 *413:37 4.12356e-05
6 *413:31 5.28625e-05
7 *413:23 1.48302e-05
8 *413:19 5.62655e-05
9 *413:8 8.14506e-05
10 *413:6 1.91175e-05
11 *20:34 *413:19 1.49407e-08
12 *22:10 *413:8 2.37635e-05
13 *22:10 *413:19 1.16894e-05
14 *55:16 *413:37 9.50456e-07
15 *57:30 *476:B 6.19506e-06
16 *57:30 *413:37 7.86436e-07
17 *60:18 *413:8 0
18 *60:18 *413:19 0
19 *61:21 *413:37 1.48914e-05
20 *61:25 *413:37 4.06133e-06
21 *63:12 *413:19 0.000111086
22 *63:48 *413:19 0
23 *63:60 *413:8 4.00916e-05
24 *67:29 *413:19 0
25 *67:29 *413:31 7.90296e-06
26 *71:44 *530:B 1.78852e-05
27 *136:8 *413:19 2.83276e-05
28 *148:45 *413:8 2.6982e-05
29 *148:56 *413:8 1.46112e-05
30 *154:6 *413:23 1.35684e-06
31 *154:6 *413:31 4.07052e-06
32 *154:12 *413:31 1.696e-06
33 *252:12 *413:8 7.77896e-06
34 *256:12 *476:B 1.23489e-06
35 *399:14 *413:8 6.27229e-06
36 *402:120 *413:37 4.78866e-06
37 *408:8 *413:8 3.00547e-06
38 *412:20 *413:37 0
39 *412:45 *413:37 0
*RES
1 *928:Y *413:6 34.4 
2 *413:6 *413:8 28.1583 
3 *413:8 *530:B 39.2134 
4 *413:8 *413:19 52.3744 
5 *413:19 *413:23 18.2696 
6 *413:23 *413:31 42.5641 
7 *413:31 *413:37 40.7643 
8 *413:37 *476:B 36.0045 
9 *413:23 *528:A 17.2 
*END

*D_NET *414 0.000674607
*CONN
*I *533:A I *D XOR2x2_ASAP7_75t_L
*I *550:A I *D OR2x2_ASAP7_75t_L
*I *536:B I *D OR2x2_ASAP7_75t_L
*I *929:Y O *D BUFx3_ASAP7_75t_L
*CAP
1 *533:A 1.62549e-06
2 *550:A 8.01177e-06
3 *536:B 4.31783e-06
4 *929:Y 9.62738e-06
5 *414:43 2.3012e-05
6 *414:24 3.90369e-05
7 *414:22 2.95247e-05
8 *414:16 0.000111634
9 *414:14 0.000101828
10 *414:12 1.87386e-05
11 *414:8 2.67405e-05
12 *414:16 *541:A1 0
13 *414:16 *416:26 1.12901e-05
14 *414:16 *430:46 3.249e-05
15 *414:16 *436:21 0
16 *414:16 *436:36 0
17 *414:16 *445:12 2.19448e-07
18 *414:24 *536:A 0
19 *414:24 *549:B 0
20 *414:43 *536:A 2.09278e-05
21 *538:B *414:24 1.65278e-05
22 *539:A *414:24 2.43534e-06
23 *550:B *550:A 5.34278e-06
24 *49:25 *414:16 0
25 *56:47 *414:8 0
26 *56:47 *414:16 6.10236e-08
27 *57:8 *414:8 9.38684e-06
28 *116:12 *414:16 0
29 *160:10 *414:24 3.80337e-05
30 *160:10 *414:43 1.45827e-05
31 *161:10 *414:16 6.10236e-08
32 *161:10 *414:24 3.49456e-06
33 *163:14 *414:16 0
34 *167:14 *414:22 1.62312e-05
35 *167:14 *414:24 3.3563e-06
36 *171:8 *414:43 0
37 *266:18 *414:16 4.71343e-05
38 *267:12 *414:16 3.79494e-06
39 *269:12 *414:16 0
40 *283:6 *533:A 5.62196e-06
41 *283:6 *414:12 4.59067e-05
42 *350:12 *414:16 7.32095e-07
43 *401:39 *414:8 0
44 *409:8 *414:16 1.25711e-05
45 *409:25 *414:16 8.49334e-06
46 *409:42 *414:16 1.81523e-06
*RES
1 *929:Y *414:8 41.158 
2 *414:8 *414:12 30.5706 
3 *414:12 *414:14 17.2 
4 *414:14 *414:16 78.8432 
5 *414:16 *414:22 39.2134 
6 *414:22 *414:24 20.274 
7 *414:24 *536:B 36.0045 
8 *414:24 *414:43 48.1107 
9 *414:43 *550:A 40.2831 
10 *414:12 *533:A 18.8045 
*END

*D_NET *415 0.000145604
*CONN
*I *526:A I *D XOR2x2_ASAP7_75t_L
*I *917:Y O *D BUFx3_ASAP7_75t_L
*CAP
1 *526:A 8.32637e-06
2 *917:Y 1.00514e-05
3 *415:12 4.56349e-05
4 *415:8 4.73599e-05
5 *526:B *526:A 2.0895e-06
6 *20:28 *526:A 5.86507e-07
7 *22:18 *415:12 0
8 *23:8 *415:12 6.3562e-06
9 *23:12 *415:12 8.47704e-06
10 *24:6 *415:12 0
11 *63:48 *415:12 0
12 *63:54 *415:12 0
13 *345:10 *415:12 3.79923e-06
14 *347:10 *415:12 0
15 *411:20 *415:12 1.29228e-05
*RES
1 *917:Y *415:8 38.1438 
2 *415:8 *415:12 48.1741 
3 *415:12 *526:A 22.0134 
*END

*D_NET *416 0.000562886
*CONN
*I *560:D I *D OR4x2_ASAP7_75t_L
*I *552:B I *D OR3x1_ASAP7_75t_L
*I *549:C I *D OR3x1_ASAP7_75t_L
*I *543:C I *D OR3x1_ASAP7_75t_L
*I *931:Y O *D BUFx3_ASAP7_75t_L
*CAP
1 *560:D 4.90711e-06
2 *552:B 0
3 *549:C 6.32534e-06
4 *543:C 0
5 *931:Y 3.57036e-05
6 *416:61 2.70915e-05
7 *416:50 7.87015e-06
8 *416:44 5.32586e-05
9 *416:26 8.17231e-06
10 *416:18 3.75171e-05
11 *416:12 4.67575e-05
12 *416:10 3.89759e-05
13 *416:8 4.03881e-05
14 *549:C *549:A 5.85387e-06
15 *549:C *549:B 2.90209e-08
16 *549:C *418:20 7.58265e-07
17 *416:8 *436:36 1.37477e-05
18 *416:10 *536:A 3.05118e-08
19 *416:12 *549:B 1.09842e-06
20 *416:12 *418:20 1.00838e-05
21 *416:12 *418:26 4.55487e-06
22 *416:18 *418:26 2.57511e-05
23 *416:26 *436:21 0
24 *416:26 *461:10 0
25 *416:61 *560:C 3.28146e-06
26 *416:61 *420:33 1.09842e-06
27 *539:A *416:12 1.09067e-06
28 *539:A *416:18 1.49407e-08
29 *546:B *416:18 2.07929e-05
30 *553:B *416:50 3.3563e-06
31 *48:34 *416:61 2.55256e-05
32 *161:18 *416:61 4.21453e-05
33 *162:10 *416:12 1.34329e-05
34 *168:10 *416:18 5.52807e-07
35 *171:8 *416:12 0
36 *173:39 *416:44 1.73158e-06
37 *173:39 *416:61 1.1488e-05
38 *180:18 *416:61 3.43908e-06
39 *180:33 *416:50 2.69965e-05
40 *180:33 *416:61 1.908e-06
41 *351:10 *416:10 2.19448e-07
42 *351:10 *416:44 3.81627e-06
43 *375:8 *416:50 2.83874e-07
44 *409:25 *416:18 5.38407e-06
45 *409:42 *416:18 5.5534e-06
46 *410:24 *416:26 1.06092e-05
47 *414:16 *416:26 1.12901e-05
*RES
1 *931:Y *416:8 49.9099 
2 *416:8 *416:10 2.81583 
3 *416:10 *416:12 11.2633 
4 *416:12 *416:18 36.0359 
5 *416:18 *416:26 41.5511 
6 *416:26 *543:C 17.2 
7 *416:12 *549:C 38.1438 
8 *416:10 *416:44 30.5706 
9 *416:44 *416:50 43.4107 
10 *416:50 *552:B 17.2 
11 *416:44 *416:61 39.5283 
12 *416:61 *560:D 36.5393 
*END

*D_NET *417 0.00210208
*CONN
*I *704:C2 I *D OA222x2_ASAP7_75t_L
*I *696:C2 I *D OA222x2_ASAP7_75t_L
*I *697:C2 I *D OA222x2_ASAP7_75t_L
*I *700:C2 I *D OA222x2_ASAP7_75t_L
*I *699:C2 I *D OA222x2_ASAP7_75t_L
*I *707:C2 I *D OA222x2_ASAP7_75t_L
*I *714:C1 I *D OA222x2_ASAP7_75t_L
*I *716:C2 I *D OA222x2_ASAP7_75t_L
*I *919:Y O *D NAND2x2_ASAP7_75t_L
*CAP
1 *704:C2 2.16142e-06
2 *696:C2 0
3 *697:C2 0
4 *700:C2 1.08183e-05
5 *699:C2 0
6 *707:C2 3.65379e-06
7 *714:C1 0
8 *716:C2 0
9 *919:Y 3.6027e-06
10 *417:161 2.3578e-05
11 *417:153 6.84725e-05
12 *417:151 6.44244e-05
13 *417:138 1.24547e-05
14 *417:130 5.25207e-05
15 *417:124 5.74345e-05
16 *417:122 1.2228e-05
17 *417:107 1.59285e-05
18 *417:94 3.0661e-05
19 *417:88 4.06978e-05
20 *417:84 5.65653e-05
21 *417:78 4.90803e-05
22 *417:65 3.06627e-05
23 *417:54 4.78171e-05
24 *417:52 4.41634e-05
25 *417:45 1.31047e-05
26 *417:37 5.55455e-05
27 *417:33 5.85679e-05
28 *417:22 3.41958e-05
29 *417:14 0.000117939
30 *417:12 0.000102203
31 *417:6 1.95277e-05
32 *417:6 *699:A1 5.27185e-06
33 *417:6 *425:82 1.45333e-05
34 *417:33 *440:16 1.45646e-05
35 *417:37 *445:18 1.00837e-05
36 *417:37 *458:17 3.17186e-05
37 *417:45 *460:8 4.62036e-05
38 *417:54 *761:CLK 2.19685e-06
39 *417:65 *699:A1 1.35684e-06
40 *417:65 *425:82 3.27365e-05
41 *417:84 *697:A1 1.40419e-08
42 *417:94 *448:14 4.26299e-06
43 *417:94 *453:108 2.71688e-06
44 *417:130 *448:108 2.03608e-06
45 *417:138 *443:14 4.75337e-06
46 *417:138 *443:27 5.65247e-06
47 *417:153 *429:12 0
48 *417:153 *429:16 4.26751e-07
49 *417:153 *446:62 1.9076e-06
50 *417:153 *463:10 1.91607e-05
51 *417:161 *446:84 7.37675e-06
52 *618:A *417:88 9.93076e-07
53 *620:C *417:151 1.84236e-05
54 *621:A1 *417:78 1.30795e-06
55 *696:B1 *417:94 1.99018e-05
56 *699:B1 *417:65 2.70988e-05
57 *699:B1 *417:78 1.95129e-06
58 *699:C1 *417:78 1.35684e-06
59 *702:C1 *417:161 5.68657e-06
60 *702:C2 *417:153 2.57157e-05
61 *704:C1 *704:C2 7.85338e-06
62 *716:C1 *417:22 2.25202e-05
63 *716:C1 *417:33 5.85387e-06
64 *754:D *417:122 5.19552e-07
65 *916:A2 *417:22 7.02606e-06
66 *4:105 *417:54 0
67 *4:143 *417:14 1.2101e-06
68 *5:24 *417:94 5.62196e-06
69 *5:37 *417:88 2.19154e-05
70 *34:8 *417:88 0
71 *34:8 *417:130 1.24042e-05
72 *35:8 *417:12 6.80143e-06
73 *37:33 *417:153 7.34877e-06
74 *40:6 *417:122 1.86176e-05
75 *40:10 *417:84 1.91924e-06
76 *40:10 *417:88 2.07088e-06
77 *40:10 *417:122 1.10045e-05
78 *64:12 *417:54 1.6136e-06
79 *88:8 *417:138 1.09842e-06
80 *96:8 *417:54 4.19438e-06
81 *103:10 *417:33 9.77305e-06
82 *145:40 *417:14 1.64092e-05
83 *145:48 *417:78 2.52588e-06
84 *145:60 *417:84 1.32197e-05
85 *145:60 *417:88 6.51169e-05
86 *145:60 *417:94 0
87 *145:60 *417:151 0
88 *146:115 *417:22 2.15674e-06
89 *146:115 *417:33 1.34247e-05
90 *146:115 *417:54 4.08754e-05
91 *148:113 *417:130 1.72485e-05
92 *148:113 *417:151 4.43557e-06
93 *148:113 *417:153 3.11725e-06
94 *148:129 *417:153 4.96476e-05
95 *148:135 *417:161 5.85387e-06
96 *148:137 *417:153 4.83862e-06
97 *186:34 *417:14 7.00289e-06
98 *209:79 *417:12 6.80143e-06
99 *209:112 *417:153 0
100 *212:144 *417:130 0
101 *212:144 *417:138 1.49407e-08
102 *217:14 *417:107 7.13384e-06
103 *217:14 *417:122 1.46684e-05
104 *217:14 *417:130 5.06804e-06
105 *219:6 *417:151 1.66584e-05
106 *220:20 *417:153 1.34532e-06
107 *231:18 *417:37 1.09711e-06
108 *247:8 *417:54 1.29359e-05
109 *247:16 *417:54 0
110 *274:20 *417:65 1.23489e-06
111 *275:122 *417:54 4.9137e-07
112 *276:20 *417:84 9.04185e-06
113 *278:150 *417:153 5.8049e-05
114 *280:8 *417:78 1.23284e-06
115 *282:10 *417:54 3.12231e-05
116 *283:12 *417:45 0
117 *285:42 *417:37 1.79408e-05
118 *287:22 *417:65 2.03997e-06
119 *291:26 *417:153 1.94317e-06
120 *339:32 *417:151 3.36331e-06
121 *341:12 *417:14 1.30748e-05
122 *349:12 *417:45 3.19819e-05
123 *401:29 *417:33 0
124 *401:61 *700:C2 1.02708e-05
125 *401:61 *417:94 2.35847e-05
126 *402:33 *417:161 9.4321e-06
127 *402:41 *704:C2 5.75235e-06
128 *406:18 *417:54 0
129 *412:10 *417:54 1.09473e-05
130 *412:89 *417:14 6.78313e-05
131 *412:97 *417:151 4.25968e-06
*RES
1 *919:Y *417:6 20.9438 
2 *417:6 *417:12 36.9342 
3 *417:12 *417:14 34.8465 
4 *417:14 *417:22 48.449 
5 *417:22 *716:C2 17.2 
6 *417:22 *417:33 34.2915 
7 *417:33 *417:37 37.7616 
8 *417:37 *417:45 48.6437 
9 *417:45 *714:C1 17.2 
10 *417:22 *417:52 17.2 
11 *417:52 *417:54 42.8006 
12 *417:54 *707:C2 36.5393 
13 *417:6 *417:65 12.301 
14 *417:65 *699:C2 17.2 
15 *417:65 *417:78 43.7188 
16 *417:78 *417:84 32.4302 
17 *417:84 *417:88 39.7266 
18 *417:88 *417:94 33.4431 
19 *417:94 *700:C2 41.8876 
20 *417:84 *417:107 19.8741 
21 *417:107 *697:C2 17.2 
22 *417:107 *417:122 45.8297 
23 *417:122 *417:124 17.2 
24 *417:124 *417:130 45.0466 
25 *417:130 *417:138 42.7625 
26 *417:138 *696:C2 17.2 
27 *417:124 *417:151 48.2241 
28 *417:151 *417:153 43.9269 
29 *417:153 *417:161 48.1674 
30 *417:161 *704:C2 36.5393 
*END

*D_NET *418 0.0005888
*CONN
*I *560:B I *D OR4x2_ASAP7_75t_L
*I *542:A I *D AND4x1_ASAP7_75t_L
*I *481:A I *D INVx2_ASAP7_75t_L
*I *552:A I *D OR3x1_ASAP7_75t_L
*I *549:A I *D OR3x1_ASAP7_75t_L
*I *545:A I *D OR3x1_ASAP7_75t_L
*I *933:Y O *D BUFx3_ASAP7_75t_L
*CAP
1 *560:B 3.08378e-06
2 *542:A 0
3 *481:A 0
4 *552:A 0
5 *549:A 2.03047e-06
6 *545:A 0
7 *933:Y 4.46508e-06
8 *418:91 1.66076e-05
9 *418:78 3.47561e-06
10 *418:72 1.97504e-05
11 *418:64 3.2512e-05
12 *418:57 1.53193e-05
13 *418:46 1.55092e-05
14 *418:26 2.51009e-05
15 *418:20 4.70184e-05
16 *418:12 4.58833e-05
17 *418:6 2.75581e-05
18 *549:A *549:B 2.03526e-06
19 *418:20 *549:B 3.89037e-06
20 *418:72 *430:67 6.44347e-06
21 *482:A *418:78 0
22 *489:A *418:91 1.25483e-05
23 *545:C *418:26 3.89037e-06
24 *549:C *549:A 5.85387e-06
25 *549:C *418:20 7.58265e-07
26 *48:19 *418:72 0
27 *48:34 *418:6 3.65131e-06
28 *48:34 *418:12 2.71368e-06
29 *115:8 *418:72 9.1471e-07
30 *115:31 *418:57 4.24732e-06
31 *115:31 *418:72 3.67789e-06
32 *116:27 *418:78 8.52381e-06
33 *158:21 *418:72 2.09025e-06
34 *165:10 *418:72 1.27953e-05
35 *167:14 *418:26 5.22376e-07
36 *168:10 *418:26 1.0541e-06
37 *169:6 *418:64 5.85387e-06
38 *169:6 *418:91 3.48408e-05
39 *170:14 *418:26 0
40 *171:8 *418:12 8.33296e-06
41 *171:8 *418:20 0
42 *171:8 *418:46 3.69423e-05
43 *171:25 *418:20 2.03526e-06
44 *174:8 *418:46 1.07377e-06
45 *352:8 *418:57 3.67836e-06
46 *353:10 *418:91 1.2903e-05
47 *375:8 *418:12 1.81935e-05
48 *375:8 *418:26 0
49 *375:8 *418:46 3.84245e-05
50 *375:8 *418:57 3.71815e-05
51 *375:8 *418:72 4.53108e-06
52 *375:8 *418:78 3.36331e-07
53 *398:16 *418:72 0
54 *405:29 *418:72 8.29207e-07
55 *409:16 *418:72 5.17591e-06
56 *410:14 *418:91 4.15283e-06
57 *416:12 *418:20 1.00838e-05
58 *416:12 *418:26 4.55487e-06
59 *416:18 *418:26 2.57511e-05
*RES
1 *933:Y *418:6 19.8741 
2 *418:6 *418:12 26.069 
3 *418:12 *418:20 45.2949 
4 *418:20 *418:26 33.7549 
5 *418:26 *545:A 17.2 
6 *418:20 *549:A 36.0045 
7 *418:12 *418:46 34.4314 
8 *418:46 *552:A 17.2 
9 *418:6 *418:57 47.3528 
10 *418:57 *481:A 17.2 
11 *418:57 *418:64 1.60448 
12 *418:64 *418:72 47.2855 
13 *418:72 *418:78 37.4974 
14 *418:78 *542:A 17.2 
15 *418:64 *418:91 49.067 
16 *418:91 *560:B 18.2696 
*END

*D_NET *419 0.000153121
*CONN
*I *640:B I *D NAND2x1_ASAP7_75t_L
*I *927:Y O *D BUFx3_ASAP7_75t_L
*CAP
1 *640:B 0
2 *927:Y 3.67369e-05
3 *419:14 1.91404e-05
4 *419:6 5.58773e-05
5 *419:14 *704:A1 3.48165e-06
6 *419:14 *429:35 1.94229e-07
7 *419:14 *453:78 5.31517e-07
8 *31:29 *419:6 1.328e-05
9 *289:25 *419:14 2.2521e-05
10 *339:18 *419:14 1.35818e-06
*RES
1 *927:Y *419:6 36.9885 
2 *419:6 *419:14 47.6326 
3 *419:14 *640:B 17.2 
*END

*D_NET *420 0.000444295
*CONN
*I *556:A I *D OR2x4_ASAP7_75t_L
*I *563:B I *D OR3x1_ASAP7_75t_L
*I *555:A I *D XNOR2x2_ASAP7_75t_L
*I *560:C I *D OR4x2_ASAP7_75t_L
*I *935:Y O *D BUFx3_ASAP7_75t_L
*CAP
1 *556:A 0
2 *563:B 0
3 *555:A 0
4 *560:C 1.35342e-05
5 *935:Y 0
6 *420:57 2.4164e-05
7 *420:46 8.18784e-06
8 *420:33 3.31337e-05
9 *420:18 4.66678e-05
10 *420:16 2.61817e-05
11 *420:6 6.32269e-05
12 *420:4 5.30213e-05
13 *420:6 *563:A 3.89037e-06
14 *420:46 *563:A 4.93318e-06
15 *556:B *420:57 8.66267e-06
16 *563:C *420:6 1.44167e-06
17 *565:B *420:57 5.52807e-07
18 *573:A *420:57 1.67966e-05
19 *48:34 *560:C 2.01774e-06
20 *158:48 *420:46 2.84286e-06
21 *161:18 *420:33 1.10561e-06
22 *171:37 *420:6 9.75735e-06
23 *171:37 *420:57 5.68657e-06
24 *172:10 *420:33 4.74248e-06
25 *173:12 *420:16 4.74894e-06
26 *173:12 *420:46 8.24045e-06
27 *173:22 *420:6 0
28 *173:22 *420:16 0
29 *173:22 *420:46 1.60115e-05
30 *173:39 *420:16 1.46006e-05
31 *180:33 *420:33 0
32 *181:6 *420:33 5.0551e-07
33 *185:14 *420:57 3.29527e-06
34 *353:6 *420:33 2.66992e-06
35 *353:10 *560:C 1.36589e-05
36 *353:10 *420:16 9.93857e-06
37 *353:10 *420:33 2.30409e-05
38 *410:14 *560:C 1.26574e-05
39 *416:61 *560:C 3.28146e-06
40 *416:61 *420:33 1.09842e-06
*RES
1 *935:Y *420:4 17.2 
2 *420:4 *420:6 15.5099 
3 *420:6 *420:16 47.4058 
4 *420:16 *420:18 17.2 
5 *420:18 *560:C 47.3528 
6 *420:18 *420:33 42.7372 
7 *420:33 *555:A 17.2 
8 *420:6 *420:46 44.2819 
9 *420:46 *563:B 17.2 
10 *420:4 *420:57 34.2897 
11 *420:57 *556:A 34.4 
*END

*D_NET *421 0.000467787
*CONN
*I *675:B2 I *D AO221x2_ASAP7_75t_L
*I *671:B2 I *D AO221x2_ASAP7_75t_L
*I *930:Y O *D BUFx3_ASAP7_75t_L
*CAP
1 *675:B2 8.76218e-06
2 *671:B2 0
3 *930:Y 3.0871e-05
4 *421:31 3.9595e-05
5 *421:22 2.90748e-05
6 *421:16 5.99076e-05
7 *421:14 3.03383e-05
8 *421:8 6.12093e-05
9 *421:8 *459:12 0
10 *421:14 *441:146 0
11 *421:14 *459:22 4.04821e-05
12 *421:22 *712:A1 1.89311e-05
13 *421:31 *712:A1 3.06582e-06
14 *421:31 *451:72 0
15 *930:A *421:8 1.2768e-05
16 *20:75 *421:22 9.41947e-07
17 *84:18 *421:31 1.88934e-05
18 *145:118 *421:8 3.48165e-06
19 *145:120 *421:14 8.58704e-06
20 *209:60 *421:14 1.04709e-06
21 *212:112 *421:14 1.18879e-05
22 *212:120 *421:31 0
23 *259:14 *421:22 2.28976e-06
24 *261:8 *421:22 1.09408e-05
25 *262:10 *421:31 2.25787e-06
26 *264:10 *421:22 1.30795e-06
27 *264:22 *421:14 2.08769e-06
28 *264:22 *421:22 1.09067e-06
29 *264:28 *421:22 1.04809e-05
30 *264:28 *421:31 2.27558e-05
31 *275:84 *421:22 1.31365e-05
32 *275:103 *421:22 1.94229e-07
33 *278:112 *421:14 3.34031e-06
34 *297:23 *421:31 0
35 *350:14 *421:14 0
36 *350:22 *675:B2 1.44167e-06
37 *350:22 *421:31 1.95723e-06
38 *350:26 *675:B2 5.94108e-06
39 *350:30 *421:31 0
40 *351:42 *421:14 0
41 *412:55 *421:14 3.68925e-06
42 *412:61 *421:14 2.02493e-06
43 *412:61 *421:22 3.00603e-06
*RES
1 *930:Y *421:8 48.8403 
2 *421:8 *421:14 33.3566 
3 *421:14 *421:16 17.2 
4 *421:16 *421:22 43.6776 
5 *421:22 *671:B2 17.2 
6 *421:16 *421:31 44.1381 
7 *421:31 *675:B2 23.0831 
*END

*D_NET *422 0.000896266
*CONN
*I *582:B I *D OR2x2_ASAP7_75t_L
*I *562:A1 I *D OA21x2_ASAP7_75t_L
*I *563:A I *D OR3x1_ASAP7_75t_L
*I *560:A I *D OR4x2_ASAP7_75t_L
*I *559:A I *D XOR2x2_ASAP7_75t_L
*I *493:B1 I *D AOI221x1_ASAP7_75t_L
*I *937:Y O *D BUFx3_ASAP7_75t_L
*CAP
1 *582:B 1.523e-05
2 *562:A1 0
3 *563:A 1.663e-05
4 *560:A 1.28936e-05
5 *559:A 0
6 *493:B1 0
7 *937:Y 0
8 *422:72 4.73365e-05
9 *422:64 3.48394e-05
10 *422:54 1.92086e-05
11 *422:50 4.86617e-05
12 *422:46 8.86462e-05
13 *422:35 3.36242e-05
14 *422:31 2.47248e-05
15 *422:20 6.35405e-06
16 *422:14 3.64612e-05
17 *422:4 4.81443e-05
18 *582:B *423:23 9.33528e-06
19 *582:B *431:40 3.7596e-05
20 *422:14 *431:10 4.21123e-06
21 *422:31 *431:10 0
22 *422:46 *431:23 1.73253e-05
23 *422:46 *431:40 3.54413e-05
24 *422:72 *442:50 3.16951e-06
25 *422:72 *442:58 6.926e-06
26 *486:A *422:64 2.40363e-05
27 *563:C *563:A 1.19526e-07
28 *584:B2 *582:B 3.25708e-06
29 *584:B2 *422:46 3.58577e-07
30 *946:A *422:31 2.90209e-08
31 *35:20 *422:46 0
32 *35:31 *422:46 0
33 *39:16 *422:31 2.20493e-06
34 *39:20 *422:31 3.33246e-05
35 *41:21 *422:31 3.97761e-05
36 *41:37 *422:50 4.92633e-05
37 *42:16 *422:14 1.03649e-05
38 *42:22 *422:14 7.15974e-07
39 *42:36 *422:50 3.90659e-06
40 *42:36 *422:64 2.54626e-07
41 *43:18 *422:20 0
42 *43:24 *422:14 2.88562e-05
43 *44:31 *422:54 7.15974e-07
44 *44:31 *422:64 7.15974e-07
45 *115:12 *422:50 5.19085e-06
46 *115:12 *422:72 2.68026e-05
47 *120:14 *422:54 1.12894e-06
48 *120:14 *422:64 1.97065e-05
49 *120:31 *422:64 5.51397e-07
50 *120:33 *422:54 8.06436e-07
51 *121:10 *422:20 1.66613e-05
52 *122:18 *422:20 0
53 *122:30 *422:20 0
54 *123:22 *422:54 6.2751e-07
55 *129:20 *422:46 0
56 *140:8 *422:35 4.92332e-06
57 *140:8 *422:46 2.97289e-06
58 *140:10 *422:31 2.84286e-06
59 *161:35 *563:A 3.47607e-06
60 *161:35 *422:72 6.33206e-07
61 *170:6 *560:A 9.41801e-06
62 *173:12 *563:A 9.15354e-08
63 *173:12 *422:72 4.85735e-06
64 *180:18 *422:72 3.71576e-06
65 *183:8 *563:A 0
66 *198:27 *422:46 1.65352e-05
67 *340:14 *422:50 0
68 *402:94 *422:14 2.18417e-05
69 *420:6 *563:A 3.89037e-06
70 *420:46 *563:A 4.93318e-06
*RES
1 *937:Y *422:4 17.2 
2 *422:4 *422:14 49.4917 
3 *422:14 *422:20 40.1255 
4 *422:20 *493:B1 17.2 
5 *422:4 *422:31 35.5294 
6 *422:31 *422:35 20.9438 
7 *422:35 *559:A 17.2 
8 *422:35 *422:46 45.4982 
9 *422:46 *422:50 37.7616 
10 *422:50 *422:54 19.7342 
11 *422:54 *422:64 47.3403 
12 *422:64 *422:72 48.3964 
13 *422:72 *560:A 42.4224 
14 *422:72 *563:A 45.6066 
15 *422:54 *562:A1 34.4 
16 *422:46 *582:B 49.2389 
*END

*D_NET *423 0.000200092
*CONN
*I *569:A1 I *D AO21x1_ASAP7_75t_L
*I *582:A I *D OR2x2_ASAP7_75t_L
*I *566:A I *D XNOR2x2_ASAP7_75t_L
*I *938:Y O *D BUFx3_ASAP7_75t_L
*CAP
1 *569:A1 1.76359e-05
2 *582:A 2.31077e-06
3 *566:A 0
4 *938:Y 0
5 *423:23 3.50116e-05
6 *423:10 3.77476e-05
7 *423:4 5.28126e-05
8 *569:A1 *572:A1 1.62312e-05
9 *569:A1 *572:B 5.62196e-06
10 *569:A1 *431:40 7.12447e-06
11 *423:10 *438:6 2.28976e-06
12 *423:23 *431:40 4.39426e-06
13 *582:B *423:23 9.33528e-06
14 *584:B2 *423:23 4.57263e-07
15 *33:42 *423:23 0
16 *185:27 *423:10 0
17 *187:10 *569:A1 2.52755e-07
18 *190:8 *569:A1 2.61188e-06
19 *190:16 *582:A 5.62196e-06
20 *190:16 *423:10 0
21 *190:29 *423:10 6.33206e-07
22 *340:10 *423:10 0
23 *340:35 *423:10 0
*RES
1 *938:Y *423:4 17.2 
2 *423:4 *423:10 36.3156 
3 *423:10 *566:A 34.4 
4 *423:4 *423:23 26.6321 
5 *423:23 *582:A 36.0045 
6 *423:23 *569:A1 48.1107 
*END

*D_NET *424 0.000510112
*CONN
*I *584:A1 I *D AO221x1_ASAP7_75t_L
*I *505:C I *D AND4x2_ASAP7_75t_L
*I *939:A I *D BUFx3_ASAP7_75t_L
*I *932:Y O *D BUFx3_ASAP7_75t_L
*CAP
1 *584:A1 8.61314e-06
2 *505:C 1.2015e-05
3 *939:A 4.58643e-06
4 *932:Y 1.95807e-05
5 *424:42 2.16748e-05
6 *424:31 3.50251e-05
7 *424:23 5.63004e-05
8 *424:10 6.86805e-05
9 *424:8 3.73228e-05
10 *939:A *429:35 5.53563e-06
11 *424:10 *429:35 1.42523e-05
12 *424:42 *425:12 0
13 *504:B *424:42 8.06436e-06
14 *505:A *505:C 7.58545e-06
15 *505:A *424:31 1.711e-05
16 *505:D *505:C 1.62517e-06
17 *505:D *424:42 3.47607e-06
18 *506:B *424:42 1.82788e-05
19 *932:A *424:8 2.38044e-05
20 *25:25 *424:23 0
21 *32:42 *424:10 0
22 *33:27 *424:42 8.06436e-06
23 *36:18 *424:31 1.88168e-06
24 *76:8 *939:A 3.32524e-06
25 *129:14 *584:A1 6.10578e-06
26 *137:10 *424:42 6.15347e-05
27 *138:25 *584:A1 4.74894e-06
28 *138:25 *424:42 5.03576e-06
29 *148:145 *424:23 7.60499e-07
30 *289:10 *424:10 1.54305e-05
31 *289:25 *939:A 1.09842e-06
32 *289:25 *424:10 6.68208e-06
33 *290:53 *424:23 3.03965e-05
34 *339:14 *424:23 0
35 *343:6 *424:8 1.51653e-06
*RES
1 *932:Y *424:8 44.5617 
2 *424:8 *424:10 17.3643 
3 *424:10 *939:A 38.9992 
4 *424:10 *424:23 33.8657 
5 *424:23 *424:31 39.8705 
6 *424:31 *505:C 22.5483 
7 *424:31 *424:42 38.0371 
8 *424:42 *584:A1 39.7482 
*END

*D_NET *425 0.00147104
*CONN
*I *631:A I *D NOR3x1_ASAP7_75t_L
*I *568:A I *D XNOR2x2_ASAP7_75t_L
*I *629:A I *D AND2x2_ASAP7_75t_L
*I *569:B I *D AO21x1_ASAP7_75t_L
*I *572:A1 I *D OA21x2_ASAP7_75t_L
*I *940:Y O *D BUFx3_ASAP7_75t_L
*CAP
1 *631:A 2.82538e-06
2 *568:A 0
3 *629:A 0
4 *569:B 0
5 *572:A1 2.12517e-05
6 *940:Y 9.46596e-06
7 *425:94 4.85932e-06
8 *425:86 3.58872e-05
9 *425:82 8.40754e-05
10 *425:76 6.3615e-05
11 *425:70 3.01867e-05
12 *425:64 3.9065e-05
13 *425:58 4.41585e-05
14 *425:54 3.80243e-05
15 *425:48 2.89793e-05
16 *425:39 4.09456e-06
17 *425:24 3.4532e-05
18 *425:16 3.13726e-05
19 *425:12 5.40283e-05
20 *425:10 4.29951e-05
21 *425:6 3.09235e-05
22 *425:24 *426:18 1.00064e-05
23 *425:24 *431:40 0
24 *425:24 *431:57 1.39454e-05
25 *425:58 *453:36 1.26641e-06
26 *425:64 *446:6 7.04341e-06
27 *425:64 *446:8 1.44639e-06
28 *425:82 *699:A1 2.90209e-08
29 *503:A2 *425:12 0
30 *506:B *425:54 3.73144e-06
31 *569:A1 *572:A1 1.62312e-05
32 *588:B *425:12 5.94588e-06
33 *620:C *425:94 3.89037e-06
34 *919:B *425:82 1.02672e-05
35 *940:A *425:10 6.7842e-07
36 *4:128 *425:76 8.17238e-06
37 *4:128 *425:82 2.90209e-08
38 *26:10 *425:58 1.31643e-05
39 *28:28 *425:48 3.71048e-05
40 *29:8 *425:48 1.49407e-08
41 *29:16 *425:6 5.77141e-06
42 *29:16 *425:10 2.03526e-06
43 *29:16 *425:48 2.32945e-05
44 *29:29 *425:12 0
45 *29:50 *425:12 5.55937e-05
46 *30:12 *425:12 1.49407e-08
47 *30:12 *425:48 1.09842e-06
48 *30:22 *425:12 3.76935e-06
49 *30:33 *425:12 0
50 *32:16 *425:12 2.13376e-07
51 *33:6 *425:6 3.71468e-06
52 *33:42 *425:39 3.67836e-06
53 *35:8 *425:58 7.47117e-05
54 *35:20 *425:58 1.96303e-05
55 *35:46 *425:12 0
56 *35:46 *425:39 3.32721e-06
57 *36:18 *425:12 3.61852e-06
58 *36:18 *425:48 1.70866e-06
59 *36:18 *425:58 0
60 *38:12 *425:58 3.32579e-06
61 *41:10 *425:64 3.22574e-06
62 *41:10 *425:70 5.39071e-05
63 *41:10 *425:76 9.8862e-06
64 *42:10 *425:58 2.00206e-06
65 *129:35 *425:12 1.26192e-05
66 *137:8 *425:39 2.03526e-06
67 *138:25 *425:12 1.12894e-06
68 *186:28 *425:70 2.03526e-06
69 *190:8 *572:A1 1.54461e-06
70 *229:10 *425:70 1.25098e-06
71 *229:10 *425:76 5.99998e-06
72 *231:69 *631:A 1.35684e-06
73 *231:69 *425:64 1.66706e-05
74 *231:73 *425:64 2.69894e-06
75 *274:12 *425:86 0.000140079
76 *287:22 *425:82 3.05118e-08
77 *339:6 *425:54 3.76571e-05
78 *340:14 *425:16 0
79 *340:14 *425:24 0
80 *341:12 *425:86 0.000139687
81 *400:14 *425:64 4.83862e-06
82 *400:14 *425:70 2.7159e-05
83 *407:90 *425:58 1.89782e-05
84 *407:102 *425:82 1.64676e-07
85 *417:6 *425:82 1.45333e-05
86 *417:65 *425:82 3.27365e-05
87 *424:42 *425:12 0
*RES
1 *940:Y *425:6 24.1527 
2 *425:6 *425:10 18.8045 
3 *425:10 *425:12 35.0102 
4 *425:12 *425:16 21.5288 
5 *425:16 *425:24 41.5523 
6 *425:24 *572:A1 27.3617 
7 *425:16 *425:39 37.2247 
8 *425:39 *569:B 17.2 
9 *425:6 *425:48 35.7845 
10 *425:48 *425:54 45.6313 
11 *425:54 *425:58 49.3005 
12 *425:58 *425:64 30.1208 
13 *425:64 *425:70 37.389 
14 *425:70 *425:76 44.537 
15 *425:76 *425:82 41.7188 
16 *425:82 *425:86 41.6575 
17 *425:86 *425:94 36.8776 
18 *425:94 *629:A 17.2 
19 *425:70 *568:A 17.2 
20 *425:64 *631:A 36.0045 
*END

*D_NET *426 0.00062368
*CONN
*I *575:A I *D OR2x2_ASAP7_75t_L
*I *577:A1 I *D AO21x1_ASAP7_75t_L
*I *578:A I *D NOR2x1_ASAP7_75t_L
*I *571:A I *D AND3x1_ASAP7_75t_L
*I *576:A1 I *D OAI22x1_ASAP7_75t_L
*I *586:B I *D AO21x1_ASAP7_75t_L
*I *588:A1 I *D OA21x2_ASAP7_75t_L
*I *941:Y O *D BUFx3_ASAP7_75t_L
*CAP
1 *575:A 0
2 *577:A1 3.19812e-06
3 *578:A 0
4 *571:A 0
5 *576:A1 5.85571e-06
6 *586:B 1.35364e-06
7 *588:A1 0
8 *941:Y 2.38236e-05
9 *426:90 5.95827e-06
10 *426:77 2.63515e-05
11 *426:71 5.38426e-05
12 *426:67 4.37653e-05
13 *426:48 3.25911e-05
14 *426:44 2.38705e-05
15 *426:38 4.99116e-05
16 *426:18 2.53877e-05
17 *426:12 3.61698e-05
18 *426:10 5.08785e-05
19 *426:8 3.15315e-05
20 *426:12 *432:17 8.2174e-07
21 *426:18 *572:B 8.51621e-07
22 *426:18 *431:57 7.84772e-07
23 *426:18 *432:17 2.68933e-07
24 *571:B *426:77 5.67735e-06
25 *576:A2 *576:A1 5.49212e-07
26 *576:A2 *426:48 3.05118e-08
27 *576:A2 *426:67 1.10213e-05
28 *576:B2 *576:A1 5.41446e-06
29 *576:B2 *426:67 1.62312e-05
30 *580:A2 *426:77 1.96943e-05
31 *941:A *426:8 7.72307e-07
32 *33:42 *426:10 3.05118e-08
33 *33:42 *426:12 1.12894e-06
34 *33:42 *426:18 2.79533e-06
35 *181:12 *426:77 0
36 *187:10 *426:12 4.83862e-06
37 *187:10 *426:18 1.65043e-05
38 *187:14 *586:B 3.90258e-06
39 *188:10 *426:44 5.00816e-06
40 *188:31 *577:A1 1.34329e-05
41 *188:31 *426:48 9.41947e-07
42 *188:31 *426:67 1.53219e-05
43 *188:39 *426:77 0
44 *189:8 *426:90 1.12894e-06
45 *190:16 *426:18 9.08513e-06
46 *191:16 *426:67 0
47 *193:10 *576:A1 4.83862e-06
48 *193:10 *426:44 5.01287e-06
49 *193:10 *426:48 1.94948e-05
50 *194:8 *426:44 6.6421e-06
51 *195:10 *426:48 6.33206e-07
52 *195:14 *426:71 1.31542e-05
53 *195:14 *426:77 4.57952e-06
54 *196:14 *426:90 2.22736e-06
55 *199:8 *426:18 5.22376e-07
56 *340:35 *426:10 0
57 *340:35 *426:44 0
58 *342:10 *577:A1 2.22736e-06
59 *342:10 *426:67 2.25787e-06
60 *342:21 *586:B 1.35684e-06
61 *425:24 *426:18 1.00064e-05
*RES
1 *941:Y *426:8 44.5617 
2 *426:8 *426:10 6.19483 
3 *426:10 *426:12 6.75799 
4 *426:12 *426:18 36.2059 
5 *426:18 *588:A1 17.2 
6 *426:12 *586:B 35.4697 
7 *426:10 *426:38 49.9099 
8 *426:38 *426:44 28.7147 
9 *426:44 *426:48 23.958 
10 *426:48 *576:A1 38.8203 
11 *426:48 *426:67 48.2241 
12 *426:67 *426:71 27.3617 
13 *426:71 *426:77 34.1763 
14 *426:77 *571:A 34.4 
15 *426:71 *426:90 38.9053 
16 *426:90 *578:A 17.2 
17 *426:67 *577:A1 38.9053 
18 *426:44 *575:A 17.2 
*END

*D_NET *427 0.000228135
*CONN
*I *587:B I *D AOI21x1_ASAP7_75t_L
*I *589:A1 I *D OAI21x1_ASAP7_75t_L
*I *585:B I *D XOR2x2_ASAP7_75t_L
*I *942:Y O *D BUFx3_ASAP7_75t_L
*CAP
1 *587:B 5.75626e-06
2 *589:A1 3.52841e-06
3 *585:B 1.52046e-05
4 *942:Y 2.00245e-05
5 *427:25 4.2246e-05
6 *427:10 6.81903e-05
7 *585:B *429:35 0
8 *585:B *429:50 0
9 *427:10 *435:12 6.53466e-06
10 *589:A2 *427:25 3.56648e-06
11 *589:B *427:25 1.59615e-06
12 *29:46 *427:25 0
13 *29:50 *587:B 6.10236e-07
14 *29:50 *589:A1 1.09842e-06
15 *30:33 *587:B 4.53993e-06
16 *30:33 *589:A1 4.58327e-06
17 *32:10 *585:B 7.74662e-06
18 *201:12 *585:B 0
19 *203:8 *427:10 5.49212e-07
20 *204:10 *587:B 1.69693e-06
21 *204:10 *589:A1 3.47607e-06
22 *205:14 *585:B 1.62854e-06
23 *205:14 *427:10 1.13549e-06
24 *206:8 *585:B 8.45637e-06
25 *206:8 *427:10 2.59669e-05
26 *342:25 *585:B 0
*RES
1 *942:Y *427:10 48.2241 
2 *427:10 *585:B 46.7897 
3 *427:10 *427:25 47.7706 
4 *427:25 *589:A1 38.3422 
5 *427:25 *587:B 38.9053 
*END

*D_NET *428 0.000226603
*CONN
*I *540:B I *D AND3x1_ASAP7_75t_L
*I *537:B I *D OA21x2_ASAP7_75t_L
*I *543:B I *D OR3x1_ASAP7_75t_L
*I *943:Y O *D BUFx3_ASAP7_75t_L
*CAP
1 *540:B 2.65586e-06
2 *537:B 5.14574e-06
3 *543:B 1.18429e-05
4 *943:Y 4.84411e-06
5 *428:20 2.46104e-05
6 *428:14 3.12817e-05
7 *428:8 2.08684e-05
8 *537:B *537:A1 1.75596e-06
9 *543:B *461:10 1.82258e-05
10 *428:14 *430:35 5.02693e-06
11 *537:A2 *537:B 1.25529e-05
12 *537:A2 *428:14 1.79528e-05
13 *50:22 *428:8 5.22486e-06
14 *50:22 *428:14 1.37195e-06
15 *51:21 *428:20 0
16 *53:23 *428:8 1.67815e-06
17 *53:23 *428:14 1.64764e-06
18 *163:8 *537:B 8.1884e-06
19 *163:8 *428:14 9.24068e-06
20 *163:14 *428:20 0
21 *352:18 *428:20 2.00667e-06
22 *410:24 *543:B 6.92634e-06
23 *410:32 *543:B 3.16796e-05
24 *410:32 *428:20 1.87557e-06
*RES
1 *943:Y *428:8 38.9053 
2 *428:8 *428:14 27.9815 
3 *428:14 *428:20 42.2843 
4 *428:20 *543:B 27.3617 
5 *428:14 *537:B 22.5483 
6 *428:8 *540:B 36.0045 
*END

*D_NET *429 0.000870704
*CONN
*I *503:B I *D AO21x1_ASAP7_75t_L
*I *591:A I *D XNOR2x2_ASAP7_75t_L
*I *497:A1 I *D OAI21x1_ASAP7_75t_L
*I *944:Y O *D BUFx3_ASAP7_75t_L
*CAP
1 *503:B 0
2 *591:A 5.94093e-06
3 *497:A1 6.76252e-06
4 *944:Y 0
5 *429:58 1.11416e-05
6 *429:50 6.14907e-05
7 *429:35 9.33409e-05
8 *429:24 3.04963e-05
9 *429:16 7.18598e-05
10 *429:12 4.26706e-05
11 *429:6 3.15955e-05
12 *497:A1 *702:A1 5.62196e-06
13 *497:A1 *453:70 5.85387e-06
14 *429:12 *446:45 4.10928e-06
15 *429:12 *446:62 8.31162e-06
16 *429:12 *463:10 1.49407e-08
17 *429:24 *453:70 4.83862e-06
18 *429:35 *435:8 8.52909e-05
19 *429:50 *435:8 2.65166e-05
20 *429:50 *435:12 8.38704e-06
21 *503:A2 *429:58 3.12646e-05
22 *585:B *429:35 0
23 *585:B *429:50 0
24 *702:C2 *429:16 9.31361e-06
25 *704:B2 *429:35 5.13782e-06
26 *939:A *429:35 5.53563e-06
27 *942:A *429:50 3.44136e-05
28 *18:22 *429:24 0
29 *27:10 *429:24 8.70345e-06
30 *28:18 *429:24 4.49842e-06
31 *30:33 *429:58 4.99118e-06
32 *31:14 *429:12 1.67815e-06
33 *31:21 *429:12 2.97551e-06
34 *31:29 *429:35 0
35 *32:10 *429:35 0
36 *32:42 *429:35 0
37 *37:18 *429:24 2.49344e-08
38 *92:14 *429:12 1.08539e-05
39 *130:8 *429:24 0
40 *137:8 *429:58 2.79851e-06
41 *148:137 *429:35 7.89354e-06
42 *148:158 *429:35 3.54302e-06
43 *201:12 *429:35 1.07573e-06
44 *202:10 *429:58 2.31029e-05
45 *206:8 *429:50 0
46 *209:112 *429:12 2.54087e-05
47 *213:42 *429:24 1.04046e-07
48 *220:20 *429:12 8.29794e-07
49 *233:12 *429:12 3.189e-05
50 *278:150 *429:16 2.01799e-06
51 *289:10 *429:35 1.50458e-05
52 *289:25 *429:35 0
53 *291:26 *429:16 1.21917e-05
54 *291:26 *429:35 9.6944e-06
55 *291:34 *429:24 1.69305e-05
56 *339:18 *429:16 4.56036e-05
57 *339:18 *429:35 2.94203e-05
58 *339:41 *429:12 4.0776e-06
59 *342:25 *429:58 5.67747e-07
60 *417:153 *429:12 0
61 *417:153 *429:16 4.26751e-07
62 *419:14 *429:35 1.94229e-07
63 *424:10 *429:35 1.42523e-05
*RES
1 *944:Y *429:6 34.4 
2 *429:6 *429:12 42.4443 
3 *429:12 *429:16 32.7809 
4 *429:16 *429:24 45.7221 
5 *429:24 *497:A1 39.2134 
6 *429:16 *429:35 45.3349 
7 *429:35 *591:A 37.0741 
8 *429:35 *429:50 47.0688 
9 *429:50 *429:58 47.8026 
10 *429:58 *503:B 17.2 
*END

*D_NET *430 0.000543458
*CONN
*I *551:A2 I *D OA21x2_ASAP7_75t_L
*I *546:A2 I *D OA211x2_ASAP7_75t_L
*I *540:C I *D AND3x1_ASAP7_75t_L
*I *544:A I *D INVx1_ASAP7_75t_L
*I *945:Y O *D BUFx3_ASAP7_75t_L
*CAP
1 *551:A2 5.21975e-06
2 *546:A2 0
3 *540:C 0
4 *544:A 7.48279e-06
5 *945:Y 0
6 *430:67 2.97533e-05
7 *430:61 4.03822e-05
8 *430:48 1.58486e-05
9 *430:46 2.17519e-05
10 *430:35 2.64866e-05
11 *430:25 5.89127e-05
12 *430:10 4.1277e-05
13 *430:4 4.44684e-05
14 *430:10 *436:36 0
15 *430:35 *461:18 4.73754e-07
16 *487:C *551:A2 4.2449e-06
17 *546:B *430:61 5.22376e-07
18 *546:C *430:61 6.7842e-07
19 *548:B *430:61 1.15945e-06
20 *48:8 *430:67 1.16894e-05
21 *48:19 *430:67 7.22911e-06
22 *50:22 *430:35 4.40246e-06
23 *51:21 *430:10 0
24 *51:21 *430:25 0
25 *53:23 *430:35 5.37866e-07
26 *115:12 *430:67 4.70569e-06
27 *158:27 *430:67 2.17894e-05
28 *161:14 *430:46 7.50479e-06
29 *163:14 *430:25 1.44105e-06
30 *165:18 *430:61 6.33206e-07
31 *167:14 *430:10 0
32 *351:18 *430:10 9.49809e-07
33 *352:12 *430:35 2.41091e-05
34 *352:12 *430:46 4.64986e-05
35 *353:18 *430:67 1.69063e-05
36 *398:16 *430:67 9.85012e-06
37 *409:16 *430:67 2.02493e-06
38 *409:25 *430:46 2.91955e-05
39 *409:25 *430:61 0
40 *409:42 *430:46 3.04043e-06
41 *410:14 *430:67 1.7934e-06
42 *410:22 *430:61 1.52651e-06
43 *410:24 *430:61 5.00816e-06
44 *414:16 *430:46 3.249e-05
45 *418:72 *430:67 6.44347e-06
46 *428:14 *430:35 5.02693e-06
*RES
1 *945:Y *430:4 17.2 
2 *430:4 *430:10 38.4019 
3 *430:10 *544:A 37.0741 
4 *430:4 *430:25 40.1255 
5 *430:25 *430:35 43.9913 
6 *430:35 *540:C 17.2 
7 *430:25 *430:46 36.5941 
8 *430:46 *430:48 17.2 
9 *430:48 *546:A2 17.2 
10 *430:48 *430:61 44.8256 
11 *430:61 *430:67 32.8242 
12 *430:67 *551:A2 37.609 
*END

*D_NET *431 0.000566276
*CONN
*I *569:A2 I *D AO21x1_ASAP7_75t_L
*I *572:A2 I *D OA21x2_ASAP7_75t_L
*I *581:B I *D OA211x2_ASAP7_75t_L
*I *493:A2 I *D AOI221x1_ASAP7_75t_L
*I *946:Y O *D BUFx3_ASAP7_75t_L
*CAP
1 *569:A2 3.19114e-06
2 *572:A2 0
3 *581:B 0
4 *493:A2 0
5 *946:Y 0
6 *431:57 2.71574e-05
7 *431:40 5.8635e-05
8 *431:38 3.89515e-05
9 *431:25 4.28267e-06
10 *431:23 1.89139e-05
11 *431:14 5.93481e-05
12 *431:10 9.32294e-05
13 *431:4 5.27952e-05
14 *431:10 *433:31 9.70971e-06
15 *431:23 *433:14 6.33206e-07
16 *431:40 *572:B 1.64764e-06
17 *431:40 *433:44 0
18 *431:57 *572:B 5.79724e-07
19 *569:A1 *431:40 7.12447e-06
20 *581:C *431:38 6.7842e-07
21 *582:B *431:40 3.7596e-05
22 *946:A *431:10 7.72183e-06
23 *959:A *431:14 6.70433e-06
24 *33:42 *431:57 1.70708e-06
25 *35:20 *431:23 0
26 *41:21 *431:23 2.71036e-05
27 *41:21 *431:40 1.09842e-06
28 *42:22 *431:10 3.84449e-06
29 *42:28 *431:10 0
30 *121:16 *431:14 0
31 *122:22 *431:14 2.03526e-06
32 *126:8 *431:10 0
33 *187:10 *569:A2 7.79295e-06
34 *198:12 *431:38 2.52755e-07
35 *340:10 *431:40 6.72662e-07
36 *340:14 *431:57 0
37 *340:35 *431:40 1.56066e-05
38 *340:35 *431:57 1.16088e-06
39 *422:14 *431:10 4.21123e-06
40 *422:31 *431:10 0
41 *422:46 *431:23 1.73253e-05
42 *422:46 *431:40 3.54413e-05
43 *423:23 *431:40 4.39426e-06
44 *425:24 *431:40 0
45 *425:24 *431:57 1.39454e-05
46 *426:18 *431:57 7.84772e-07
*RES
1 *946:Y *431:4 17.2 
2 *431:4 *431:10 35.3027 
3 *431:10 *431:14 42.3368 
4 *431:14 *493:A2 17.2 
5 *431:4 *431:23 38.6003 
6 *431:23 *431:25 17.2 
7 *431:25 *581:B 17.2 
8 *431:25 *431:38 19.3393 
9 *431:38 *431:40 36.6058 
10 *431:40 *572:A2 34.4 
11 *431:40 *431:57 42.9294 
12 *431:57 *569:A2 36.5393 
*END

*D_NET *432 0.000178241
*CONN
*I *586:A1 I *D AO21x1_ASAP7_75t_L
*I *572:B I *D OA21x2_ASAP7_75t_L
*I *570:A I *D NAND2x1_ASAP7_75t_L
*I *947:Y O *D BUFx3_ASAP7_75t_L
*CAP
1 *586:A1 0
2 *572:B 1.63538e-05
3 *570:A 2.05631e-05
4 *947:Y 2.86592e-05
5 *432:17 2.10909e-05
6 *432:6 5.39594e-05
7 *569:A1 *572:B 5.62196e-06
8 *570:B *570:A 5.25794e-06
9 *570:B *432:6 4.4994e-06
10 *187:14 *432:6 3.56177e-06
11 *188:10 *570:A 2.54159e-06
12 *190:8 *572:B 2.20493e-06
13 *202:6 *432:6 9.75735e-06
14 *340:35 *572:B 0
15 *340:35 *432:17 0
16 *342:21 *432:6 0
17 *426:12 *432:17 8.2174e-07
18 *426:18 *572:B 8.51621e-07
19 *426:18 *432:17 2.68933e-07
20 *431:40 *572:B 1.64764e-06
21 *431:57 *572:B 5.79724e-07
*RES
1 *947:Y *432:6 31.6403 
2 *432:6 *570:A 27.3617 
3 *432:6 *432:17 21.1422 
4 *432:17 *572:B 45.0151 
5 *432:17 *586:A1 34.4 
*END

*D_NET *433 0.000622671
*CONN
*I *938:A I *D BUFx3_ASAP7_75t_L
*I *581:A2 I *D OA211x2_ASAP7_75t_L
*I *493:A1 I *D AOI221x1_ASAP7_75t_L
*I *934:Y O *D BUFx3_ASAP7_75t_L
*CAP
1 *938:A 0
2 *581:A2 2.71613e-06
3 *493:A1 0
4 *934:Y 1.48736e-05
5 *433:44 1.77625e-05
6 *433:31 4.75054e-05
7 *433:29 2.70268e-05
8 *433:20 5.48074e-05
9 *433:14 9.9583e-05
10 *433:8 5.96491e-05
11 *635:A *433:20 1.07377e-06
12 *946:A *433:8 6.6195e-06
13 *35:14 *433:8 6.7842e-07
14 *35:20 *433:14 0
15 *37:18 *433:14 3.05118e-08
16 *39:10 *433:14 1.62824e-05
17 *39:20 *433:31 1.50858e-05
18 *39:20 *433:44 8.86488e-06
19 *41:10 *433:14 5.67747e-07
20 *41:21 *433:14 1.67336e-06
21 *41:29 *581:A2 2.12481e-06
22 *42:10 *433:14 1.32149e-07
23 *42:28 *433:31 0
24 *43:12 *433:20 2.66207e-05
25 *43:18 *433:20 0
26 *43:41 *433:20 1.2768e-05
27 *121:10 *433:20 7.99932e-06
28 *122:12 *433:14 2.94829e-06
29 *127:38 *433:20 4.49469e-06
30 *140:10 *433:31 6.70569e-05
31 *145:84 *433:20 0
32 *178:10 *433:31 2.01457e-05
33 *178:25 *433:31 2.04143e-05
34 *178:25 *433:44 2.79488e-05
35 *179:8 *433:31 1.34329e-05
36 *198:12 *433:44 2.95052e-06
37 *287:41 *433:14 4.04121e-06
38 *400:16 *433:20 2.90209e-08
39 *402:88 *433:31 4.64191e-06
40 *407:76 *433:14 1.17125e-05
41 *407:76 *433:20 8.06588e-06
42 *431:10 *433:31 9.70971e-06
43 *431:23 *433:14 6.33206e-07
44 *431:40 *433:44 0
*RES
1 *934:Y *433:8 41.3527 
2 *433:8 *433:14 43.7502 
3 *433:14 *433:20 45.8291 
4 *433:20 *493:A1 34.4 
5 *433:14 *433:29 17.2 
6 *433:29 *433:31 38.2953 
7 *433:31 *581:A2 36.0045 
8 *433:31 *433:44 34.6581 
9 *433:44 *938:A 17.2 
*END

*D_NET *434 0.000275561
*CONN
*I *529:A2 I *D OA211x2_ASAP7_75t_L
*I *524:A2 I *D OA21x2_ASAP7_75t_L
*I *936:Y O *D BUFx3_ASAP7_75t_L
*CAP
1 *529:A2 0
2 *524:A2 0
3 *936:Y 0
4 *434:37 7.4029e-06
5 *434:29 3.2731e-05
6 *434:16 2.15705e-05
7 *434:8 6.50747e-05
8 *434:6 1.81761e-05
9 *434:8 *441:81 0
10 *434:29 *441:98 0
11 *434:37 *456:194 4.2449e-06
12 *526:B *434:16 0
13 *529:A1 *434:37 1.12561e-05
14 *65:24 *434:29 1.97096e-05
15 *65:24 *434:37 1.49407e-08
16 *65:30 *434:8 1.13547e-05
17 *65:30 *434:29 6.76305e-06
18 *66:33 *434:16 8.71771e-06
19 *68:16 *434:29 0
20 *68:16 *434:37 3.27156e-06
21 *71:40 *434:8 2.22736e-06
22 *71:40 *434:29 3.32579e-06
23 *108:10 *434:8 0
24 *152:8 *434:29 2.28718e-05
25 *157:10 *434:16 8.33296e-06
26 *275:22 *434:29 0
27 *346:14 *434:8 1.50858e-05
28 *346:25 *434:8 1.67815e-06
29 *408:18 *434:8 8.45637e-06
30 *411:38 *434:8 3.29527e-06
*RES
1 *936:Y *434:6 34.4 
2 *434:6 *434:8 20.274 
3 *434:8 *434:16 45.2382 
4 *434:16 *524:A2 34.4 
5 *434:8 *434:29 36.9451 
6 *434:29 *434:37 40.5186 
7 *434:37 *529:A2 17.2 
*END

*D_NET *435 0.00028767
*CONN
*I *587:A1 I *D AOI21x1_ASAP7_75t_L
*I *939:Y O *D BUFx3_ASAP7_75t_L
*CAP
1 *587:A1 0
2 *939:Y 0
3 *435:12 2.38686e-05
4 *435:8 5.98558e-05
5 *435:6 3.59872e-05
6 *435:8 *743:CLK 0
7 *942:A *435:12 9.50284e-06
8 *16:10 *435:8 0
9 *31:29 *435:8 0
10 *185:29 *435:12 7.63254e-07
11 *206:8 *435:8 0
12 *290:20 *435:8 3.09633e-05
13 *344:14 *435:8 0
14 *427:10 *435:12 6.53466e-06
15 *429:35 *435:8 8.52909e-05
16 *429:50 *435:8 2.65166e-05
17 *429:50 *435:12 8.38704e-06
*RES
1 *939:Y *435:6 34.4 
2 *435:6 *435:8 40.548 
3 *435:8 *435:12 35.9189 
4 *435:12 *587:A1 17.2 
*END

*D_NET *436 0.000526144
*CONN
*I *536:A I *D OR2x2_ASAP7_75t_L
*I *549:B I *D OR3x1_ASAP7_75t_L
*I *537:A1 I *D OA21x2_ASAP7_75t_L
*I *541:A1 I *D OA21x2_ASAP7_75t_L
*I *948:Y O *D BUFx3_ASAP7_75t_L
*CAP
1 *536:A 1.69679e-05
2 *549:B 1.46196e-05
3 *537:A1 1.66061e-05
4 *541:A1 8.34557e-06
5 *948:Y 2.97447e-05
6 *436:38 3.15875e-05
7 *436:36 3.46372e-05
8 *436:21 6.07528e-05
9 *436:8 4.75998e-05
10 *436:21 *461:10 5.28647e-06
11 *537:A2 *537:A1 5.92989e-06
12 *537:B *537:A1 1.75596e-06
13 *539:A *549:B 1.71813e-05
14 *549:A *549:B 2.03526e-06
15 *549:C *549:B 2.90209e-08
16 *54:23 *541:A1 2.29378e-05
17 *160:10 *536:A 1.23408e-05
18 *162:10 *549:B 1.47625e-05
19 *163:14 *541:A1 3.52795e-05
20 *163:14 *436:21 2.43468e-05
21 *163:14 *436:36 1.56516e-05
22 *167:14 *436:36 4.92541e-05
23 *171:8 *536:A 0
24 *352:22 *436:8 1.02586e-05
25 *409:42 *549:B 5.0551e-07
26 *410:32 *436:8 8.03295e-06
27 *414:16 *541:A1 0
28 *414:16 *436:21 0
29 *414:16 *436:36 0
30 *414:24 *536:A 0
31 *414:24 *549:B 0
32 *414:43 *536:A 2.09278e-05
33 *416:8 *436:36 1.37477e-05
34 *416:10 *536:A 3.05118e-08
35 *416:12 *549:B 1.09842e-06
36 *416:26 *436:21 0
37 *418:20 *549:B 3.89037e-06
38 *430:10 *436:36 0
*RES
1 *948:Y *436:8 46.701 
2 *436:8 *541:A1 45.8581 
3 *436:8 *436:21 9.01066 
4 *436:21 *537:A1 41.3527 
5 *436:21 *436:36 48.1988 
6 *436:36 *436:38 17.2 
7 *436:38 *549:B 47.6326 
8 *436:38 *536:A 48.2808 
*END

*D_NET *437 0.00016897
*CONN
*I *711:B2 I *D OA222x2_ASAP7_75t_L
*I *673:B I *D AND3x1_ASAP7_75t_L
*I *952:Y O *D BUFx3_ASAP7_75t_L
*CAP
1 *711:B2 1.59871e-06
2 *673:B 1.12176e-05
3 *952:Y 6.79108e-06
4 *437:10 3.53375e-05
5 *437:8 2.93122e-05
6 *673:B *451:40 1.89667e-07
7 *673:B *456:115 6.42451e-07
8 *437:10 *712:A1 4.48222e-08
9 *261:16 *711:B2 1.44167e-06
10 *261:16 *437:10 1.27953e-05
11 *262:10 *437:10 2.01897e-05
12 *264:22 *673:B 2.27719e-05
13 *264:22 *437:10 1.71095e-05
14 *297:10 *437:10 3.95845e-06
15 *350:30 *437:10 5.00394e-06
16 *360:26 *673:B 5.35192e-07
17 *360:26 *437:10 3.05118e-08
*RES
1 *952:Y *437:8 37.0741 
2 *437:8 *437:10 22.5266 
3 *437:10 *673:B 43.354 
4 *437:10 *711:B2 35.4697 
*END

*D_NET *438 0.00018373
*CONN
*I *486:B I *D NOR2x1_ASAP7_75t_L
*I *949:Y O *D BUFx3_ASAP7_75t_L
*CAP
1 *486:B 0
2 *949:Y 3.29857e-05
3 *438:14 1.00887e-05
4 *438:6 4.30744e-05
5 *438:6 *442:23 6.36186e-05
6 *438:14 *442:19 1.96231e-05
7 *438:14 *442:34 3.22574e-06
8 *438:14 *442:50 0
9 *486:A *438:14 2.28976e-06
10 *564:B *438:6 1.35684e-06
11 *184:8 *438:6 5.17782e-06
12 *423:10 *438:6 2.28976e-06
*RES
1 *949:Y *438:6 45.5457 
2 *438:6 *438:14 43.8888 
3 *438:14 *486:B 17.2 
*END

*D_NET *439 0.000332665
*CONN
*I *684:A1 I *D OA22x2_ASAP7_75t_L
*I *714:B2 I *D OA222x2_ASAP7_75t_L
*I *954:Y O *D BUFx3_ASAP7_75t_L
*CAP
1 *684:A1 1.80002e-05
2 *714:B2 0
3 *954:Y 0
4 *439:14 4.2938e-05
5 *439:8 6.09382e-05
6 *439:6 5.42016e-05
7 *439:4 5.42016e-05
8 *684:A1 *451:120 0
9 *439:6 *751:CLK 4.67476e-06
10 *439:6 *451:129 1.84973e-05
11 *439:14 *441:130 1.93482e-06
12 *439:14 *451:107 0
13 *439:14 *451:120 0
14 *751:D *439:6 2.27522e-06
15 *49:10 *439:14 1.12894e-06
16 *56:10 *439:14 0
17 *86:8 *684:A1 1.86635e-05
18 *86:8 *439:14 8.46363e-06
19 *102:8 *439:14 0
20 *145:110 *684:A1 2.25412e-05
21 *159:16 *439:6 7.89622e-06
22 *269:12 *684:A1 0
23 *283:12 *439:14 0
24 *298:8 *684:A1 6.7842e-07
25 *298:10 *684:A1 0
26 *299:12 *439:6 2.12481e-06
27 *299:23 *439:6 4.41457e-06
28 *352:24 *684:A1 3.13615e-06
29 *352:24 *439:14 3.0069e-06
30 *360:44 *439:14 5.52807e-07
31 *374:28 *439:14 2.39579e-06
*RES
1 *954:Y *439:4 17.2 
2 *439:4 *439:6 34.7636 
3 *439:6 *439:8 17.2 
4 *439:8 *439:14 45.1883 
5 *439:14 *714:B2 17.2 
6 *439:8 *684:A1 49.2937 
*END

*D_NET *440 0.000401254
*CONN
*I *689:A1 I *D OA22x2_ASAP7_75t_L
*I *716:B2 I *D OA222x2_ASAP7_75t_L
*I *955:Y O *D BUFx3_ASAP7_75t_L
*CAP
1 *689:A1 1.43879e-06
2 *716:B2 1.75676e-06
3 *955:Y 0
4 *440:24 1.90517e-05
5 *440:16 6.60739e-05
6 *440:14 5.16779e-05
7 *440:10 2.90985e-05
8 *440:6 2.47607e-05
9 *440:16 *441:211 3.42518e-07
10 *440:16 *444:53 2.15475e-05
11 *440:16 *444:59 2.60648e-05
12 *440:16 *446:14 2.97547e-05
13 *4:151 *440:24 3.05118e-08
14 *113:37 *440:16 3.47607e-06
15 *145:104 *689:A1 7.63254e-07
16 *145:104 *440:14 2.12481e-06
17 *145:104 *440:16 3.16603e-06
18 *159:10 *440:16 0
19 *231:20 *440:24 4.7643e-07
20 *270:10 *440:16 0
21 *275:122 *440:24 5.96787e-07
22 *284:10 *440:16 0
23 *353:18 *440:10 2.24111e-06
24 *353:18 *440:16 7.2313e-06
25 *361:10 *440:10 6.56371e-05
26 *361:10 *440:16 1.97637e-05
27 *401:29 *440:16 3.05118e-08
28 *401:29 *440:24 7.84338e-06
29 *402:94 *440:16 1.74049e-06
30 *417:33 *440:16 1.45646e-05
*RES
1 *955:Y *440:6 34.4 
2 *440:6 *440:10 39.7266 
3 *440:10 *440:14 18.8045 
4 *440:14 *440:16 48.9954 
5 *440:16 *440:24 42.0293 
6 *440:24 *716:B2 35.4697 
7 *440:10 *689:A1 18.2696 
*END

*D_NET *441 0.00207583
*CONN
*I *687:A I *D NOR2x1_ASAP7_75t_L
*I *688:A1 I *D AO221x2_ASAP7_75t_L
*I *682:A I *D NOR2x1_ASAP7_75t_L
*I *683:A1 I *D AO221x2_ASAP7_75t_L
*I *674:A1 I *D AO21x1_ASAP7_75t_L
*I *677:A1 I *D AO21x1_ASAP7_75t_L
*I *670:A1 I *D AO21x1_ASAP7_75t_L
*I *658:A1 I *D AO221x2_ASAP7_75t_L
*I *657:A I *D NOR2x1_ASAP7_75t_L
*I *661:A1 I *D AO21x1_ASAP7_75t_L
*I *894:A I *D BUFx2_ASAP7_75t_L
*I *653:A1 I *D AO21x1_ASAP7_75t_L
*I *665:A1 I *D AO21x1_ASAP7_75t_L
*I *956:Y O *D BUFx6f_ASAP7_75t_L
*CAP
1 *687:A 0
2 *688:A1 0
3 *682:A 0
4 *683:A1 0
5 *674:A1 0
6 *677:A1 2.02591e-06
7 *670:A1 0
8 *658:A1 0
9 *657:A 0
10 *661:A1 0
11 *894:A 0
12 *653:A1 0
13 *665:A1 0
14 *956:Y 3.10224e-05
15 *441:211 7.31098e-06
16 *441:203 3.35597e-05
17 *441:195 3.09594e-05
18 *441:178 8.36606e-06
19 *441:158 2.59074e-05
20 *441:152 6.11426e-05
21 *441:146 8.15717e-05
22 *441:142 7.54572e-05
23 *441:136 3.80892e-05
24 *441:130 1.77476e-05
25 *441:120 3.57319e-05
26 *441:110 4.33822e-05
27 *441:108 2.74801e-05
28 *441:106 5.6217e-05
29 *441:104 6.53101e-05
30 *441:98 4.60312e-05
31 *441:89 1.20761e-05
32 *441:81 6.32109e-05
33 *441:72 1.95369e-05
34 *441:53 2.07299e-05
35 *441:36 1.88957e-05
36 *441:30 3.96256e-05
37 *441:28 3.24522e-05
38 *441:22 3.4458e-05
39 *441:16 6.67521e-05
40 *441:12 0.000103013
41 *441:6 7.46293e-05
42 *441:98 *456:194 1.31716e-05
43 *441:98 *465:14 8.60306e-07
44 *441:106 *713:A 2.61039e-05
45 *441:106 *445:44 2.74194e-05
46 *441:106 *465:14 3.95816e-06
47 *441:120 *451:120 5.79724e-07
48 *441:142 *460:30 1.49407e-08
49 *441:146 *456:132 1.28292e-05
50 *441:152 *456:88 1.49407e-08
51 *441:152 *456:109 5.82688e-07
52 *441:152 *456:115 5.55315e-06
53 *441:152 *456:132 7.11252e-08
54 *441:158 *957:A 1.24033e-06
55 *441:178 *456:132 1.0122e-05
56 *441:211 *444:53 2.12481e-06
57 *467:A *441:28 9.75645e-06
58 *479:A2 *441:106 4.84874e-06
59 *532:B *441:104 2.28613e-05
60 *593:A *441:110 2.20493e-06
61 *658:B2 *441:89 2.03526e-06
62 *658:C *441:72 7.84037e-07
63 *658:C *441:81 1.87127e-05
64 *658:C *441:89 2.52755e-07
65 *688:A2 *441:211 1.44167e-06
66 *983:A *441:106 1.69111e-06
67 *7:8 *441:106 1.49407e-08
68 *10:14 *441:158 1.55594e-05
69 *46:12 *441:106 4.3937e-06
70 *46:21 *441:106 2.50197e-06
71 *46:21 *441:203 3.66349e-06
72 *49:25 *441:120 5.85124e-06
73 *56:10 *441:136 4.74885e-06
74 *65:24 *441:98 5.52807e-07
75 *71:40 *441:81 3.6269e-06
76 *71:40 *441:98 9.59753e-06
77 *104:16 *441:158 5.16618e-06
78 *105:8 *441:22 3.05118e-08
79 *105:16 *441:16 0
80 *107:10 *441:28 7.24542e-06
81 *107:10 *441:36 3.73726e-05
82 *108:10 *441:12 0
83 *109:12 *441:106 3.03138e-06
84 *110:19 *441:106 1.79617e-07
85 *112:19 *441:106 8.88122e-06
86 *113:31 *441:106 1.05893e-06
87 *148:29 *441:16 0
88 *155:8 *441:98 1.33235e-05
89 *209:56 *441:146 0
90 *212:16 *441:81 8.33296e-06
91 *212:16 *441:89 3.47607e-06
92 *212:16 *441:98 0.000122807
93 *212:101 *441:142 5.56076e-05
94 *248:14 *441:6 1.87467e-05
95 *249:8 *441:6 5.0551e-07
96 *261:16 *441:178 2.83874e-07
97 *264:22 *441:146 1.02633e-06
98 *266:18 *441:106 0
99 *268:6 *441:110 2.81325e-05
100 *268:6 *441:120 4.31459e-05
101 *268:6 *441:130 6.36827e-06
102 *278:120 *441:146 1.03381e-05
103 *284:10 *441:211 0
104 *285:42 *441:203 0
105 *292:10 *441:53 2.29677e-05
106 *296:12 *441:158 5.75835e-05
107 *296:20 *441:152 0
108 *296:20 *441:158 0
109 *302:8 *441:28 1.68903e-05
110 *302:16 *441:16 0
111 *346:14 *441:81 6.65157e-06
112 *346:25 *441:72 6.47224e-06
113 *346:25 *441:81 4.88493e-06
114 *347:22 *441:28 6.95214e-06
115 *347:22 *441:53 3.78305e-06
116 *349:8 *441:106 2.20327e-05
117 *349:28 *677:A1 5.41446e-06
118 *349:28 *441:152 0
119 *360:32 *441:146 3.63839e-05
120 *366:18 *441:72 0
121 *366:18 *441:81 0
122 *366:18 *441:89 3.76935e-06
123 *374:20 *441:146 0
124 *374:20 *441:152 0
125 *388:8 *441:12 7.47036e-07
126 *402:94 *441:203 7.51974e-06
127 *402:108 *441:130 2.93432e-05
128 *402:108 *441:203 4.30853e-05
129 *405:18 *441:203 0
130 *412:55 *441:142 9.22307e-06
131 *412:55 *441:146 1.54859e-05
132 *412:61 *441:146 6.86101e-06
133 *421:14 *441:146 0
134 *434:8 *441:81 0
135 *434:29 *441:98 0
136 *439:14 *441:130 1.93482e-06
137 *440:16 *441:211 3.42518e-07
*RES
1 *956:Y *441:6 33.7796 
2 *441:6 *441:12 38.7755 
3 *441:12 *441:16 38.4109 
4 *441:16 *441:22 35.4325 
5 *441:22 *441:28 39.4112 
6 *441:28 *441:30 17.2 
7 *441:30 *441:36 33.3334 
8 *441:36 *665:A1 34.4 
9 *441:30 *441:53 49.237 
10 *441:53 *653:A1 17.2 
11 *441:30 *894:A 17.2 
12 *441:22 *661:A1 17.2 
13 *441:6 *441:72 22.2685 
14 *441:72 *657:A 34.4 
15 *441:72 *441:81 18.5845 
16 *441:81 *441:89 40.9596 
17 *441:89 *658:A1 34.4 
18 *441:81 *441:98 41.6743 
19 *441:98 *441:104 40.2831 
20 *441:104 *441:106 48.9954 
21 *441:106 *441:108 17.2 
22 *441:108 *441:110 16.0448 
23 *441:110 *441:120 49.5168 
24 *441:120 *441:130 41.6396 
25 *441:130 *441:136 36.1834 
26 *441:136 *441:142 37.0647 
27 *441:142 *441:146 37.7616 
28 *441:146 *441:152 37.0467 
29 *441:152 *441:158 43.049 
30 *441:158 *670:A1 17.2 
31 *441:152 *677:A1 36.0045 
32 *441:146 *441:178 40.501 
33 *441:178 *674:A1 17.2 
34 *441:120 *683:A1 17.2 
35 *441:110 *682:A 17.2 
36 *441:108 *441:195 2.67412 
37 *441:195 *441:203 47.2791 
38 *441:203 *441:211 38.482 
39 *441:211 *688:A1 17.2 
40 *441:195 *687:A 17.2 
*END

*D_NET *442 0.000481989
*CONN
*I *935:A I *D BUFx3_ASAP7_75t_L
*I *489:B I *D OR2x2_ASAP7_75t_L
*I *949:A I *D BUFx3_ASAP7_75t_L
*I *491:A2 I *D OA21x2_ASAP7_75t_L
*I *950:Y O *D BUFx3_ASAP7_75t_L
*CAP
1 *935:A 0
2 *489:B 0
3 *949:A 0
4 *491:A2 1.46804e-05
5 *950:Y 2.96627e-06
6 *442:58 1.1728e-05
7 *442:50 3.12491e-05
8 *442:42 3.69356e-05
9 *442:34 3.04459e-05
10 *442:23 1.50965e-05
11 *442:19 5.81077e-05
12 *442:8 4.76264e-05
13 *489:A *442:58 1.29877e-05
14 *491:A1 *491:A2 2.20606e-05
15 *563:C *442:42 2.83874e-07
16 *564:A1 *442:42 1.36155e-06
17 *564:B *442:23 3.39742e-05
18 *564:B *442:42 1.26378e-06
19 *564:C *442:42 1.36155e-06
20 *950:A *442:8 1.64764e-06
21 *42:36 *442:19 3.16603e-07
22 *44:18 *491:A2 4.07523e-06
23 *44:31 *442:19 0
24 *117:19 *442:8 6.33206e-07
25 *117:19 *442:19 7.35422e-06
26 *120:14 *442:19 1.45389e-05
27 *120:33 *442:19 1.64764e-06
28 *120:33 *442:34 2.25787e-06
29 *123:10 *442:50 1.12894e-06
30 *124:26 *442:8 5.33743e-06
31 *124:26 *442:19 7.42687e-06
32 *159:56 *442:19 3.73518e-07
33 *161:35 *442:50 8.33296e-06
34 *171:37 *442:34 3.56648e-06
35 *173:12 *442:58 5.97629e-08
36 *180:18 *442:50 6.41585e-07
37 *183:8 *442:42 3.95845e-06
38 *300:31 *442:8 0
39 *422:72 *442:50 3.16951e-06
40 *422:72 *442:58 6.926e-06
41 *438:6 *442:23 6.36186e-05
42 *438:14 *442:19 1.96231e-05
43 *438:14 *442:34 3.22574e-06
44 *438:14 *442:50 0
*RES
1 *950:Y *442:8 38.3422 
2 *442:8 *491:A2 44.0269 
3 *442:8 *442:19 24.7793 
4 *442:19 *442:23 36.4537 
5 *442:23 *949:A 17.2 
6 *442:19 *442:34 27.7584 
7 *442:34 *442:42 44.7884 
8 *442:42 *442:50 49.4638 
9 *442:50 *442:58 43.0989 
10 *442:58 *489:B 17.2 
11 *442:34 *935:A 17.2 
*END

*D_NET *443 0.000244779
*CONN
*I *616:A2 I *D AO221x1_ASAP7_75t_L
*I *696:C1 I *D OA222x2_ASAP7_75t_L
*I *958:Y O *D BUFx3_ASAP7_75t_L
*CAP
1 *616:A2 4.21622e-06
2 *696:C1 0
3 *958:Y 2.61636e-05
4 *443:33 3.83212e-05
5 *443:27 4.13144e-05
6 *443:14 1.33881e-05
7 *443:8 3.23422e-05
8 *443:8 *453:127 1.52651e-06
9 *696:A2 *443:8 1.76928e-06
10 *696:A2 *443:14 3.90258e-06
11 *696:A2 *443:27 1.47193e-05
12 *696:A2 *443:33 1.40419e-08
13 *696:B1 *443:8 6.79089e-06
14 *696:B2 *443:8 1.36155e-06
15 *696:B2 *443:14 0
16 *212:144 *443:27 1.14735e-05
17 *215:22 *616:A2 4.32473e-06
18 *215:22 *443:33 7.75665e-06
19 *216:8 *616:A2 5.92153e-06
20 *279:14 *443:33 1.0189e-05
21 *412:116 *443:33 8.87763e-06
22 *417:138 *443:14 4.75337e-06
23 *417:138 *443:27 5.65247e-06
*RES
1 *958:Y *443:8 47.7706 
2 *443:8 *443:14 22.2118 
3 *443:14 *696:C1 17.2 
4 *443:14 *443:27 42.6208 
5 *443:27 *443:33 35.1893 
6 *443:33 *616:A2 38.1438 
*END

*D_NET *444 0.000692046
*CONN
*I *715:A I *D INVx1_ASAP7_75t_L
*I *686:A1 I *D OA21x2_ASAP7_75t_L
*I *685:A I *D NOR2x1_ASAP7_75t_L
*I *499:A I *D AND4x1_ASAP7_75t_L
*I *959:Y O *D BUFx3_ASAP7_75t_L
*CAP
1 *715:A 0
2 *686:A1 2.07914e-06
3 *685:A 0
4 *499:A 0
5 *959:Y 0
6 *444:67 1.94851e-05
7 *444:59 4.20638e-05
8 *444:53 5.79886e-05
9 *444:47 4.22008e-05
10 *444:39 4.6151e-05
11 *444:28 1.32303e-05
12 *444:20 3.1871e-05
13 *444:12 6.13922e-05
14 *444:6 8.00324e-05
15 *444:20 *458:63 5.56355e-06
16 *444:20 *458:87 2.67067e-06
17 *444:28 *446:41 2.90209e-08
18 *444:67 *446:14 1.49407e-08
19 *499:B *444:28 2.28976e-06
20 *637:A2 *444:12 1.51587e-05
21 *681:B *686:A1 1.36155e-06
22 *681:B *444:53 5.49212e-07
23 *685:B *444:67 5.85387e-06
24 *35:8 *444:20 1.09911e-05
25 *36:10 *444:28 6.16418e-07
26 *41:10 *444:12 1.01122e-05
27 *122:18 *444:39 2.45572e-05
28 *131:14 *444:28 8.15309e-06
29 *140:10 *444:12 2.66435e-05
30 *146:115 *444:53 5.79724e-07
31 *146:115 *444:59 3.11818e-06
32 *159:10 *444:67 3.51333e-06
33 *211:50 *444:20 3.33087e-05
34 *226:18 *444:20 3.05832e-06
35 *231:18 *444:39 0
36 *273:8 *444:53 0
37 *284:8 *444:47 0
38 *284:8 *444:53 0
39 *287:14 *444:28 3.42435e-06
40 *400:14 *444:12 6.7842e-07
41 *400:16 *444:12 5.77612e-06
42 *402:14 *444:39 0
43 *402:94 *444:39 1.91121e-05
44 *407:72 *444:39 2.26529e-05
45 *407:76 *444:12 3.16328e-06
46 *407:84 *444:12 1.66706e-05
47 *407:96 *444:20 1.36509e-05
48 *407:96 *444:28 2.11217e-06
49 *407:102 *444:28 4.30517e-07
50 *440:16 *444:53 2.15475e-05
51 *440:16 *444:59 2.60648e-05
52 *441:211 *444:53 2.12481e-06
*RES
1 *959:Y *444:6 34.4 
2 *444:6 *444:12 43.8599 
3 *444:12 *444:20 49.8121 
4 *444:20 *444:28 44.3191 
5 *444:28 *499:A 17.2 
6 *444:6 *444:39 38.4109 
7 *444:39 *444:47 38.8008 
8 *444:47 *444:53 36.3156 
9 *444:53 *444:59 33.1634 
10 *444:59 *444:67 45.2382 
11 *444:67 *685:A 17.2 
12 *444:53 *686:A1 35.4697 
13 *444:47 *715:A 17.2 
*END

*D_NET *445 0.000591045
*CONN
*I *680:A I *D NOR2x1_ASAP7_75t_L
*I *681:A1 I *D OA21x2_ASAP7_75t_L
*I *713:A I *D INVx1_ASAP7_75t_L
*I *501:A I *D AND4x1_ASAP7_75t_L
*I *960:Y O *D BUFx3_ASAP7_75t_L
*CAP
1 *680:A 0
2 *681:A1 0
3 *713:A 8.7079e-06
4 *501:A 0
5 *960:Y 0
6 *445:55 3.24107e-05
7 *445:44 1.79355e-05
8 *445:29 2.66434e-05
9 *445:27 3.61645e-05
10 *445:18 4.54831e-05
11 *445:12 7.42447e-05
12 *445:4 3.25153e-05
13 *445:18 *456:92 4.19282e-05
14 *445:18 *458:17 6.2967e-06
15 *445:18 *458:47 0
16 *445:18 *460:18 6.13548e-05
17 *46:12 *445:44 4.69545e-06
18 *46:12 *445:55 7.72307e-07
19 *112:19 *445:55 1.24644e-06
20 *113:31 *713:A 7.84037e-07
21 *113:31 *445:55 2.11555e-06
22 *266:10 *445:55 1.70708e-06
23 *267:6 *445:44 2.20728e-05
24 *271:6 *445:44 1.01102e-06
25 *349:12 *445:12 1.39221e-05
26 *349:20 *445:18 1.83683e-05
27 *375:8 *713:A 3.4804e-06
28 *375:8 *445:44 2.25787e-06
29 *375:8 *445:55 4.65993e-05
30 *402:120 *445:18 4.93044e-07
31 *405:10 *445:55 2.40076e-05
32 *414:16 *445:12 2.19448e-07
33 *417:37 *445:18 1.00837e-05
34 *441:106 *713:A 2.61039e-05
35 *441:106 *445:44 2.74194e-05
*RES
1 *960:Y *445:4 17.2 
2 *445:4 *445:12 47.9779 
3 *445:12 *445:18 40.0927 
4 *445:18 *501:A 34.4 
5 *445:4 *445:27 1.60448 
6 *445:27 *445:29 17.2 
7 *445:29 *713:A 43.4107 
8 *445:29 *445:44 33.7549 
9 *445:44 *681:A1 17.2 
10 *445:27 *445:55 44.5401 
11 *445:55 *680:A 34.4 
*END

*D_NET *446 0.00148848
*CONN
*I *739:CLK I *D DFFHQNx1_ASAP7_75t_L
*I *743:CLK I *D DFFHQNx1_ASAP7_75t_L
*I *742:CLK I *D DFFHQNx1_ASAP7_75t_L
*I *741:CLK I *D DFFHQNx1_ASAP7_75t_L
*I *758:CLK I *D DFFHQNx1_ASAP7_75t_L
*I *759:CLK I *D DFFHQNx1_ASAP7_75t_L
*I *757:CLK I *D DFFHQNx1_ASAP7_75t_L
*I *755:CLK I *D DFFHQNx1_ASAP7_75t_L
*I *951:A I *D BUFx4f_ASAP7_75t_L
*I *768:CLK I *D DFFHQNx1_ASAP7_75t_L
*I *961:Y O *D BUFx4_ASAP7_75t_L
*CAP
1 *739:CLK 0
2 *743:CLK 1.38048e-05
3 *742:CLK 4.75144e-06
4 *741:CLK 0
5 *758:CLK 0
6 *759:CLK 0
7 *757:CLK 0
8 *755:CLK 9.18966e-06
9 *951:A 0
10 *768:CLK 0
11 *961:Y 0
12 *446:95 2.6311e-05
13 *446:88 3.35197e-05
14 *446:84 7.42052e-05
15 *446:72 9.83497e-06
16 *446:64 9.83497e-06
17 *446:62 5.49187e-05
18 *446:45 2.54331e-05
19 *446:41 7.83145e-05
20 *446:28 8.93653e-05
21 *446:14 1.08544e-05
22 *446:8 0.000138255
23 *446:6 0.000172909
24 *446:4 5.08149e-05
25 *446:41 *450:30 1.16229e-05
26 *446:41 *463:16 5.51397e-07
27 *446:45 *463:10 3.79923e-06
28 *498:A1 *446:8 5.0551e-07
29 *499:B *446:41 1.12439e-05
30 *603:A *742:CLK 2.20493e-06
31 *651:A1 *446:95 1.35961e-06
32 *741:D *446:88 2.35969e-05
33 *16:10 *743:CLK 6.16774e-06
34 *16:10 *446:84 4.83862e-06
35 *16:10 *446:88 5.85387e-06
36 *16:10 *446:95 3.23959e-05
37 *16:25 *446:84 4.05386e-06
38 *25:31 *755:CLK 5.09995e-06
39 *25:31 *446:28 2.61719e-05
40 *31:21 *446:62 1.2873e-05
41 *31:21 *446:84 8.36112e-05
42 *31:29 *446:84 3.42903e-06
43 *31:33 *446:88 3.79133e-06
44 *36:16 *446:6 9.30483e-06
45 *92:14 *446:62 1.76005e-05
46 *92:14 *446:72 7.92031e-06
47 *113:54 *446:8 8.15952e-05
48 *121:24 *446:8 5.19552e-07
49 *131:12 *755:CLK 2.1014e-06
50 *133:12 *755:CLK 0
51 *148:129 *446:62 1.89962e-06
52 *148:158 *446:84 0
53 *159:10 *446:14 0
54 *220:20 *446:41 4.65486e-05
55 *231:69 *446:8 5.21445e-05
56 *231:73 *446:6 0
57 *270:10 *446:14 0
58 *285:42 *446:14 1.39984e-06
59 *287:14 *755:CLK 2.58157e-05
60 *287:14 *446:28 2.44674e-05
61 *290:24 *446:88 4.19747e-05
62 *344:14 *743:CLK 4.52838e-05
63 *344:14 *446:95 1.18509e-05
64 *397:24 *446:95 0
65 *402:33 *446:84 4.48222e-08
66 *402:41 *446:84 1.24527e-05
67 *402:51 *446:84 7.11252e-08
68 *417:153 *446:62 1.9076e-06
69 *417:161 *446:84 7.37675e-06
70 *425:64 *446:6 7.04341e-06
71 *425:64 *446:8 1.44639e-06
72 *429:12 *446:45 4.10928e-06
73 *429:12 *446:62 8.31162e-06
74 *435:8 *743:CLK 0
75 *440:16 *446:14 2.97547e-05
76 *444:28 *446:41 2.90209e-08
77 *444:67 *446:14 1.49407e-08
*RES
1 *961:Y *446:4 17.2 
2 *446:4 *446:6 17.6492 
3 *446:6 *446:8 59.3656 
4 *446:8 *446:14 44.537 
5 *446:14 *768:CLK 17.2 
6 *446:6 *951:A 17.2 
7 *446:4 *446:28 26.2107 
8 *446:28 *755:CLK 43.4107 
9 *446:28 *446:41 49.8243 
10 *446:41 *446:45 20.579 
11 *446:45 *757:CLK 34.4 
12 *446:45 *446:62 49.9136 
13 *446:62 *446:64 17.2 
14 *446:64 *446:72 43.8888 
15 *446:72 *759:CLK 17.2 
16 *446:64 *758:CLK 17.2 
17 *446:62 *446:84 34.3531 
18 *446:84 *446:88 43.4064 
19 *446:88 *741:CLK 17.2 
20 *446:84 *446:95 11.2633 
21 *446:95 *742:CLK 37.0741 
22 *446:95 *743:CLK 49.6055 
23 *446:41 *739:CLK 17.2 
*END

*D_NET *447 0.000339875
*CONN
*I *501:C I *D AND4x1_ASAP7_75t_L
*I *672:A I *D INVx1_ASAP7_75t_L
*I *962:Y O *D BUFx3_ASAP7_75t_L
*CAP
1 *501:C 0
2 *672:A 6.0783e-06
3 *962:Y 3.40674e-05
4 *447:31 2.58104e-05
5 *447:16 3.18887e-05
6 *447:14 2.64185e-05
7 *447:8 6.04859e-05
8 *672:A *458:49 3.1512e-06
9 *447:31 *451:6 2.90374e-05
10 *447:31 *451:96 2.12062e-05
11 *447:31 *458:49 1.03622e-05
12 *447:31 *460:22 3.68287e-06
13 *447:31 *460:26 1.08167e-05
14 *710:B1 *447:8 2.90269e-07
15 *710:C1 *447:8 1.02895e-05
16 *728:A *447:14 2.14755e-06
17 *764:D *447:14 2.03526e-06
18 *99:8 *672:A 2.98814e-08
19 *145:120 *672:A 1.61552e-05
20 *145:120 *447:31 3.3335e-05
21 *257:25 *447:14 5.99614e-06
22 *278:92 *447:14 2.3189e-06
23 *278:92 *447:31 0
24 *371:28 *447:8 3.24655e-06
25 *412:49 *447:31 1.02506e-06
*RES
1 *962:Y *447:8 46.701 
2 *447:8 *447:14 32.9933 
3 *447:14 *447:16 17.2 
4 *447:16 *672:A 40.0317 
5 *447:16 *447:31 42.9036 
6 *447:31 *501:C 17.2 
*END

*D_NET *448 0.00119547
*CONN
*I *753:CLK I *D DFFHQNx1_ASAP7_75t_L
*I *754:CLK I *D DFFHQNx1_ASAP7_75t_L
*I *738:CLK I *D DFFHQNx1_ASAP7_75t_L
*I *756:CLK I *D DFFHQNx1_ASAP7_75t_L
*I *740:CLK I *D DFFHQNx1_ASAP7_75t_L
*I *736:CLK I *D DFFHQNx1_ASAP7_75t_L
*I *761:CLK I *D DFFHQNx1_ASAP7_75t_L
*I *735:CLK I *D DFFHQNx1_ASAP7_75t_L
*I *745:CLK I *D DFFHQNx1_ASAP7_75t_L
*I *734:CLK I *D DFFHQNx1_ASAP7_75t_L
*I *737:CLK I *D DFFHQNx1_ASAP7_75t_L
*I *963:Y O *D BUFx4_ASAP7_75t_L
*CAP
1 *753:CLK 0
2 *754:CLK 0
3 *738:CLK 6.64609e-06
4 *756:CLK 0
5 *740:CLK 0
6 *736:CLK 0
7 *761:CLK 1.15538e-05
8 *735:CLK 0
9 *745:CLK 2.98719e-05
10 *734:CLK 8.4568e-06
11 *737:CLK 0
12 *963:Y 1.17035e-05
13 *448:127 2.07512e-05
14 *448:112 3.66501e-05
15 *448:108 4.09382e-05
16 *448:77 2.27059e-05
17 *448:71 3.42598e-05
18 *448:62 5.02542e-05
19 *448:54 4.61245e-05
20 *448:44 4.90947e-05
21 *448:31 5.70106e-05
22 *448:25 8.70412e-05
23 *448:23 7.01001e-05
24 *448:21 3.99457e-05
25 *448:14 2.11032e-05
26 *448:10 3.28067e-05
27 *448:10 *453:108 2.98814e-08
28 *448:14 *453:102 1.65732e-06
29 *448:14 *453:108 1.22514e-06
30 *448:127 *452:22 1.30795e-06
31 *731:A *761:CLK 6.6151e-06
32 *733:B *448:14 0
33 *740:D *448:25 1.90474e-05
34 *756:D *448:23 5.0551e-07
35 *958:A *448:14 0
36 *5:24 *448:14 3.60039e-06
37 *13:12 *448:77 5.41446e-06
38 *20:10 *448:31 3.05118e-08
39 *20:115 *448:31 3.38681e-06
40 *20:126 *448:31 2.58958e-06
41 *20:141 *448:31 5.49212e-07
42 *34:14 *448:10 2.12481e-06
43 *34:25 *448:10 0
44 *34:25 *448:14 0
45 *40:6 *448:127 1.3988e-05
46 *71:18 *448:14 6.33206e-07
47 *71:20 *448:44 3.83284e-05
48 *71:20 *448:54 2.20728e-05
49 *71:34 *448:62 2.19448e-07
50 *71:40 *745:CLK 5.25839e-05
51 *71:40 *448:62 2.12062e-05
52 *73:14 *738:CLK 2.52755e-07
53 *73:14 *448:127 2.68627e-06
54 *91:8 *448:14 4.1009e-06
55 *143:12 *448:31 3.01744e-05
56 *144:12 *734:CLK 0
57 *147:12 *734:CLK 2.71199e-05
58 *147:12 *448:31 2.1369e-05
59 *148:113 *448:112 1.70866e-06
60 *148:113 *448:127 1.64764e-06
61 *209:85 *448:25 5.19552e-07
62 *212:144 *448:112 5.67747e-07
63 *212:144 *448:127 5.52807e-07
64 *214:20 *448:23 2.66207e-05
65 *214:20 *448:25 2.05732e-05
66 *214:20 *448:108 9.58629e-05
67 *217:25 *448:127 2.22296e-05
68 *224:27 *448:14 0
69 *247:16 *448:54 7.6881e-06
70 *282:10 *761:CLK 1.65807e-05
71 *293:10 *448:77 6.79293e-06
72 *293:18 *448:77 0
73 *293:29 *761:CLK 8.46012e-06
74 *293:29 *448:77 1.73337e-05
75 *417:54 *761:CLK 2.19685e-06
76 *417:94 *448:14 4.26299e-06
77 *417:130 *448:108 2.03608e-06
*RES
1 *963:Y *448:10 40.5098 
2 *448:10 *448:14 34.6581 
3 *448:14 *737:CLK 17.2 
4 *448:10 *448:21 17.2 
5 *448:21 *448:23 8.02238 
6 *448:23 *448:25 35.8333 
7 *448:25 *448:31 38.3452 
8 *448:31 *734:CLK 43.4107 
9 *448:31 *448:44 28.9662 
10 *448:44 *448:54 48.4472 
11 *448:54 *448:62 46.3079 
12 *448:62 *745:CLK 32.7099 
13 *448:62 *448:71 17.2 
14 *448:71 *448:77 37.389 
15 *448:77 *735:CLK 17.2 
16 *448:71 *761:CLK 47.3528 
17 *448:44 *736:CLK 17.2 
18 *448:25 *740:CLK 17.2 
19 *448:23 *756:CLK 17.2 
20 *448:21 *448:108 28.3457 
21 *448:108 *448:112 22.8317 
22 *448:112 *738:CLK 38.1438 
23 *448:112 *448:127 33.3334 
24 *448:127 *754:CLK 17.2 
25 *448:108 *753:CLK 17.2 
*END

*D_NET *449 0.00057072
*CONN
*I *655:A I *D NOR2x1_ASAP7_75t_L
*I *656:A1 I *D OA21x2_ASAP7_75t_L
*I *706:A I *D INVx1_ASAP7_75t_L
*I *502:D I *D AND5x1_ASAP7_75t_L
*I *964:Y O *D BUFx3_ASAP7_75t_L
*CAP
1 *655:A 0
2 *656:A1 1.21096e-05
3 *706:A 0
4 *502:D 3.34953e-05
5 *964:Y 2.37214e-06
6 *449:60 3.09748e-05
7 *449:38 5.69244e-05
8 *449:30 3.46225e-05
9 *449:26 3.67397e-05
10 *449:18 5.58432e-05
11 *449:12 2.876e-05
12 *449:8 1.97005e-05
13 *449:30 *527:A2 9.5653e-06
14 *449:38 *527:A2 7.42565e-06
15 *478:A1 *502:D 5.56015e-06
16 *731:B *449:12 1.33022e-05
17 *964:A *449:12 8.19503e-06
18 *4:87 *449:8 5.85387e-06
19 *57:12 *502:D 1.05376e-05
20 *57:20 *502:D 1.484e-05
21 *62:23 *449:38 0
22 *63:39 *449:38 0
23 *65:10 *449:12 3.05118e-08
24 *110:6 *502:D 1.85506e-06
25 *111:8 *449:38 1.05031e-05
26 *113:12 *449:26 1.83502e-06
27 *136:12 *449:26 2.75325e-06
28 *158:10 *449:18 1.49407e-08
29 *212:14 *449:26 2.39614e-05
30 *212:16 *449:12 0
31 *212:35 *449:26 4.60604e-05
32 *231:30 *449:60 5.27185e-06
33 *275:122 *449:60 1.26585e-05
34 *282:10 *449:60 1.23156e-05
35 *401:29 *449:12 5.79282e-05
36 *401:29 *449:18 7.63844e-07
37 *405:10 *449:12 0
38 *412:12 *449:26 7.94643e-06
*RES
1 *964:Y *449:8 36.0045 
2 *449:8 *449:12 36.9108 
3 *449:12 *449:18 22.2773 
4 *449:18 *449:26 47.1776 
5 *449:26 *449:30 23.0831 
6 *449:30 *449:38 49.3504 
7 *449:38 *502:D 38.0582 
8 *449:30 *706:A 17.2 
9 *449:18 *449:60 44.7884 
10 *449:60 *656:A1 39.7482 
11 *449:12 *655:A 17.2 
*END

*D_NET *450 0.000702639
*CONN
*I *701:A I *D INVx1_ASAP7_75t_L
*I *639:A1 I *D OA21x2_ASAP7_75t_L
*I *637:A1 I *D OA211x2_ASAP7_75t_L
*I *499:D I *D AND4x1_ASAP7_75t_L
*I *965:Y O *D BUFx3_ASAP7_75t_L
*CAP
1 *701:A 2.23478e-06
2 *639:A1 0
3 *637:A1 8.54985e-06
4 *499:D 0
5 *965:Y 1.42505e-05
6 *450:51 2.93805e-05
7 *450:45 2.96898e-05
8 *450:30 2.27746e-05
9 *450:22 7.18661e-05
10 *450:18 9.21785e-05
11 *450:10 5.62144e-05
12 *450:8 3.40021e-05
13 *637:A1 *453:40 2.79851e-06
14 *637:A1 *453:47 2.71368e-06
15 *450:8 *452:10 2.30405e-06
16 *625:A *450:10 4.76577e-06
17 *639:A2 *450:45 1.44167e-06
18 *639:A2 *450:51 7.42543e-06
19 *967:A *450:8 4.7125e-06
20 *18:10 *450:18 2.66797e-07
21 *18:39 *450:10 4.00911e-05
22 *18:39 *450:18 5.0551e-07
23 *25:31 *450:51 3.91296e-05
24 *27:10 *450:30 3.9208e-06
25 *28:51 *450:45 6.79307e-06
26 *37:12 *450:30 3.67434e-06
27 *131:12 *450:51 3.87376e-05
28 *146:75 *637:A1 5.85387e-06
29 *218:20 *450:10 0
30 *221:14 *450:8 2.47522e-06
31 *222:8 *450:10 1.95278e-06
32 *223:12 *450:22 1.28539e-05
33 *226:18 *450:22 8.49704e-05
34 *232:10 *701:A 4.10928e-06
35 *232:10 *450:10 5.26936e-06
36 *233:12 *450:22 0
37 *233:16 *450:18 5.86714e-06
38 *234:10 *450:10 0
39 *287:33 *637:A1 7.14604e-06
40 *339:41 *450:22 2.55196e-06
41 *401:88 *450:45 0
42 *402:14 *450:22 0
43 *402:75 *701:A 8.33296e-06
44 *402:75 *450:10 2.92116e-05
45 *446:41 *450:30 1.16229e-05
*RES
1 *965:Y *450:8 43.492 
2 *450:8 *450:10 20.8371 
3 *450:10 *450:18 48.6721 
4 *450:18 *450:22 39.0602 
5 *450:22 *450:30 44.3651 
6 *450:30 *499:D 17.2 
7 *450:30 *450:45 41.1013 
8 *450:45 *450:51 36.0642 
9 *450:51 *637:A1 39.7482 
10 *450:45 *639:A1 17.2 
11 *450:10 *701:A 37.779 
*END

*D_NET *451 0.00128023
*CONN
*I *752:CLK I *D DFFHQNx1_ASAP7_75t_L
*I *751:CLK I *D DFFHQNx1_ASAP7_75t_L
*I *767:CLK I *D DFFHQNx2_ASAP7_75t_L
*I *953:A I *D BUFx4f_ASAP7_75t_L
*I *766:CLK I *D DFFHQNx1_ASAP7_75t_L
*I *750:CLK I *D DFFHQNx1_ASAP7_75t_L
*I *749:CLK I *D DFFHQNx1_ASAP7_75t_L
*I *748:CLK I *D DFFHQNx1_ASAP7_75t_L
*I *765:CLK I *D DFFHQNx1_ASAP7_75t_L
*I *764:CLK I *D DFFHQNx1_ASAP7_75t_L
*I *966:Y O *D BUFx4_ASAP7_75t_L
*CAP
1 *752:CLK 0
2 *751:CLK 2.62145e-05
3 *767:CLK 1.62947e-06
4 *953:A 0
5 *766:CLK 0
6 *750:CLK 0
7 *749:CLK 0
8 *748:CLK 0
9 *765:CLK 1.26928e-05
10 *764:CLK 1.21542e-05
11 *966:Y 0
12 *451:129 7.91319e-05
13 *451:120 0.000136399
14 *451:107 7.65182e-05
15 *451:96 6.76592e-05
16 *451:83 1.03621e-05
17 *451:72 3.13744e-05
18 *451:61 4.54261e-05
19 *451:50 2.18805e-05
20 *451:46 6.73066e-05
21 *451:44 4.21666e-05
22 *451:40 6.88028e-05
23 *451:32 5.98101e-05
24 *451:21 1.89798e-05
25 *451:10 2.28464e-05
26 *451:6 5.14116e-05
27 *451:4 5.86684e-05
28 *451:40 *456:115 2.48464e-06
29 *451:50 *456:75 4.10445e-06
30 *451:96 *460:30 0
31 *501:D *451:96 1.04475e-06
32 *673:B *451:40 1.89667e-07
33 *684:A1 *451:120 0
34 *712:C2 *451:72 1.2117e-05
35 *49:25 *451:120 0
36 *56:10 *451:96 0
37 *84:12 *451:72 5.0551e-07
38 *100:10 *451:32 8.29207e-07
39 *100:10 *451:72 8.75155e-06
40 *145:120 *451:83 0
41 *159:16 *451:129 0
42 *212:120 *451:72 1.12901e-05
43 *257:25 *764:CLK 3.59606e-06
44 *260:22 *765:CLK 1.35684e-06
45 *260:22 *451:83 3.6269e-06
46 *260:28 *451:21 1.41724e-06
47 *260:28 *451:32 3.70348e-06
48 *260:28 *451:72 1.74049e-06
49 *260:35 *451:83 9.60838e-06
50 *264:16 *451:40 5.08164e-08
51 *264:28 *451:72 0
52 *267:12 *451:120 0
53 *269:12 *451:120 0
54 *275:103 *451:72 1.49407e-08
55 *275:111 *451:72 2.31519e-06
56 *278:92 *764:CLK 8.30365e-06
57 *278:92 *451:10 3.56648e-06
58 *278:100 *764:CLK 7.53304e-06
59 *278:100 *765:CLK 5.85387e-06
60 *278:100 *451:21 1.09066e-05
61 *278:104 *451:21 4.83862e-06
62 *278:104 *451:32 1.09796e-05
63 *278:104 *451:72 3.6985e-05
64 *278:104 *451:83 2.71662e-05
65 *278:112 *451:72 1.44317e-05
66 *296:20 *451:50 1.07573e-06
67 *297:23 *451:72 1.63733e-06
68 *299:12 *451:129 5.62196e-06
69 *299:23 *451:129 1.27802e-05
70 *349:43 *451:50 1.46576e-05
71 *350:36 *451:61 0
72 *351:42 *451:72 4.81662e-06
73 *360:32 *451:40 2.52717e-05
74 *360:36 *767:CLK 2.72334e-07
75 *360:36 *451:107 0
76 *360:44 *451:120 1.5524e-05
77 *374:20 *451:40 9.97376e-08
78 *412:74 *451:72 1.37342e-05
79 *421:31 *451:72 0
80 *439:6 *751:CLK 4.67476e-06
81 *439:6 *451:129 1.84973e-05
82 *439:14 *451:107 0
83 *439:14 *451:120 0
84 *441:120 *451:120 5.79724e-07
85 *447:31 *451:6 2.90374e-05
86 *447:31 *451:96 2.12062e-05
*RES
1 *966:Y *451:4 17.2 
2 *451:4 *451:6 14.4403 
3 *451:6 *451:10 19.8741 
4 *451:10 *764:CLK 44.537 
5 *451:10 *451:21 5.63166 
6 *451:21 *765:CLK 41.3527 
7 *451:21 *451:32 3.66058 
8 *451:32 *451:40 46.0667 
9 *451:40 *451:44 33.7796 
10 *451:44 *451:46 17.2 
11 *451:46 *451:50 35.7845 
12 *451:50 *748:CLK 17.2 
13 *451:46 *451:61 45.7231 
14 *451:61 *749:CLK 17.2 
15 *451:32 *451:72 48.9339 
16 *451:72 *750:CLK 17.2 
17 *451:6 *451:83 47.3528 
18 *451:83 *766:CLK 17.2 
19 *451:4 *451:96 46.871 
20 *451:96 *953:A 17.2 
21 *451:96 *451:107 36.5387 
22 *451:107 *767:CLK 36.0045 
23 *451:107 *451:120 39.1635 
24 *451:120 *751:CLK 26.292 
25 *451:120 *451:129 33.694 
26 *451:129 *752:CLK 17.2 
*END

*D_NET *452 0.000518394
*CONN
*I *624:B I *D AND3x1_ASAP7_75t_L
*I *500:B I *D AND4x1_ASAP7_75t_L
*I *698:A I *D INVx1_ASAP7_75t_L
*I *967:Y O *D BUFx3_ASAP7_75t_L
*CAP
1 *624:B 2.146e-06
2 *500:B 0
3 *698:A 0
4 *967:Y 1.28553e-05
5 *452:30 1.44433e-05
6 *452:24 2.94e-05
7 *452:22 2.11477e-05
8 *452:16 3.88516e-05
9 *452:10 4.7662e-05
10 *624:B *624:A 2.97289e-06
11 *452:10 *453:163 0
12 *452:10 *453:169 0
13 *452:16 *453:163 0
14 *452:30 *453:108 0
15 *452:30 *458:91 1.68037e-06
16 *34:12 *452:24 3.13899e-05
17 *34:12 *452:30 6.92634e-06
18 *34:14 *452:30 3.82391e-05
19 *134:6 *452:24 2.38044e-05
20 *134:6 *452:30 3.39109e-05
21 *134:12 *452:30 1.09842e-06
22 *146:48 *452:16 2.55245e-05
23 *146:56 *624:B 1.02895e-05
24 *146:56 *452:10 3.14574e-06
25 *146:56 *452:16 8.5732e-06
26 *148:113 *452:22 1.852e-05
27 *148:213 *452:16 0
28 *209:79 *452:30 0
29 *217:14 *452:24 3.73144e-06
30 *217:25 *452:22 1.22828e-05
31 *217:25 *452:24 4.2449e-06
32 *218:20 *452:10 0
33 *222:8 *452:10 0
34 *276:12 *452:16 0.000108681
35 *401:73 *452:30 1.32602e-05
36 *448:127 *452:22 1.30795e-06
37 *450:8 *452:10 2.30405e-06
*RES
1 *967:Y *452:10 41.6361 
2 *452:10 *452:16 38.7234 
3 *452:16 *452:22 41.0641 
4 *452:22 *452:24 14.9751 
5 *452:24 *452:30 35.6675 
6 *452:30 *698:A 34.4 
7 *452:24 *500:B 17.2 
8 *452:10 *624:B 37.0741 
*END

*D_NET *453 0.00157379
*CONN
*I *623:A I *D NOR2x1_ASAP7_75t_L
*I *624:A I *D AND3x1_ASAP7_75t_L
*I *696:A1 I *D OA222x2_ASAP7_75t_L
*I *697:A1 I *D OA222x2_ASAP7_75t_L
*I *703:A1 I *D OA222x2_ASAP7_75t_L
*I *704:A1 I *D OA222x2_ASAP7_75t_L
*I *702:A1 I *D OA222x2_ASAP7_75t_L
*I *637:C I *D OA211x2_ASAP7_75t_L
*I *699:A1 I *D OA222x2_ASAP7_75t_L
*I *700:A1 I *D OA222x2_ASAP7_75t_L
*I *968:Y O *D BUFx3_ASAP7_75t_L
*CAP
1 *623:A 0
2 *624:A 9.19042e-06
3 *696:A1 0
4 *697:A1 2.56617e-06
5 *703:A1 9.57488e-06
6 *704:A1 9.21107e-06
7 *702:A1 5.41578e-06
8 *637:C 0
9 *699:A1 1.08822e-05
10 *700:A1 0
11 *968:Y 0
12 *453:169 2.26439e-05
13 *453:163 3.30687e-05
14 *453:146 4.95084e-05
15 *453:144 4.68424e-05
16 *453:140 5.7446e-05
17 *453:127 1.98527e-06
18 *453:119 6.6598e-05
19 *453:108 3.81111e-05
20 *453:104 7.48091e-05
21 *453:102 3.5252e-05
22 *453:78 1.81146e-05
23 *453:70 2.67789e-05
24 *453:51 3.56624e-05
25 *453:47 3.77852e-05
26 *453:40 3.21636e-05
27 *453:36 5.29863e-05
28 *453:25 8.57541e-05
29 *453:16 4.09432e-05
30 *453:12 1.92228e-05
31 *453:4 3.65937e-05
32 *497:A1 *702:A1 5.62196e-06
33 *497:A1 *453:70 5.85387e-06
34 *615:B *453:146 1.12894e-06
35 *619:A1 *453:163 6.7842e-07
36 *624:B *624:A 2.97289e-06
37 *637:A1 *453:40 2.79851e-06
38 *637:A1 *453:47 2.71368e-06
39 *637:A2 *453:40 2.59754e-05
40 *696:B1 *453:127 3.68287e-06
41 *702:A2 *453:70 5.22376e-07
42 *723:A *453:25 7.93084e-06
43 *5:14 *453:119 1.08465e-06
44 *5:14 *453:140 3.66536e-06
45 *5:24 *453:104 4.61286e-07
46 *5:24 *453:108 1.42054e-05
47 *5:24 *453:119 3.9147e-06
48 *17:12 *453:16 1.67893e-05
49 *17:12 *453:25 2.04071e-05
50 *25:31 *453:51 0
51 *25:31 *453:70 0
52 *27:10 *453:51 8.63628e-06
53 *27:10 *453:70 1.26641e-06
54 *35:8 *453:25 4.07351e-07
55 *35:8 *453:36 5.86719e-06
56 *40:31 *453:25 9.434e-06
57 *42:10 *453:25 4.94184e-06
58 *42:10 *453:36 2.33148e-05
59 *71:18 *453:102 4.83862e-06
60 *71:20 *453:12 2.35847e-05
61 *71:20 *453:102 2.40241e-05
62 *130:8 *453:70 0
63 *131:12 *453:51 0
64 *134:12 *453:108 5.12128e-06
65 *146:56 *624:A 1.56713e-06
66 *146:56 *453:146 0
67 *146:75 *453:40 5.85387e-06
68 *148:109 *453:104 0
69 *148:213 *453:146 3.09138e-06
70 *186:28 *453:36 7.80074e-06
71 *186:34 *453:36 1.11551e-05
72 *209:91 *453:12 8.06436e-06
73 *211:50 *453:40 2.40241e-05
74 *214:12 *453:144 4.17117e-05
75 *214:28 *453:25 3.3563e-06
76 *222:8 *453:169 1.27917e-05
77 *224:6 *453:102 5.51397e-07
78 *224:14 *453:102 1.07377e-06
79 *224:27 *453:102 2.86811e-06
80 *225:12 *453:16 1.67893e-05
81 *225:12 *453:25 5.00235e-05
82 *229:10 *453:25 0
83 *230:10 *453:25 0
84 *235:12 *453:70 1.26641e-06
85 *279:14 *453:144 9.74885e-05
86 *286:20 *453:108 5.33047e-06
87 *287:8 *453:40 2.88806e-06
88 *287:8 *453:47 1.23061e-05
89 *287:33 *453:40 2.66992e-06
90 *288:10 *453:12 3.31686e-06
91 *288:29 *453:25 1.94229e-07
92 *288:46 *453:25 5.97629e-08
93 *289:25 *453:70 3.05118e-08
94 *289:25 *453:78 7.64007e-06
95 *290:30 *453:70 1.4825e-05
96 *290:30 *453:78 1.707e-06
97 *290:38 *453:70 1.48586e-06
98 *335:101 *453:146 1.22047e-05
99 *335:101 *453:163 6.10236e-08
100 *335:101 *453:169 7.63354e-06
101 *335:118 *453:169 7.79246e-06
102 *335:120 *453:169 5.32544e-06
103 *341:8 *453:25 6.77554e-06
104 *341:8 *453:36 1.58568e-05
105 *401:65 *453:108 2.98814e-06
106 *401:92 *703:A1 5.43207e-06
107 *401:119 *704:A1 2.03526e-06
108 *407:84 *453:40 5.85387e-06
109 *407:90 *453:36 4.07024e-05
110 *412:108 *453:140 4.29278e-06
111 *417:6 *699:A1 5.27185e-06
112 *417:65 *699:A1 1.35684e-06
113 *417:84 *697:A1 1.40419e-08
114 *417:94 *453:108 2.71688e-06
115 *419:14 *704:A1 3.48165e-06
116 *419:14 *453:78 5.31517e-07
117 *425:58 *453:36 1.26641e-06
118 *425:82 *699:A1 2.90209e-08
119 *429:24 *453:70 4.83862e-06
120 *443:8 *453:127 1.52651e-06
121 *448:10 *453:108 2.98814e-08
122 *448:14 *453:102 1.65732e-06
123 *448:14 *453:108 1.22514e-06
124 *452:10 *453:163 0
125 *452:10 *453:169 0
126 *452:16 *453:163 0
127 *452:30 *453:108 0
*RES
1 *968:Y *453:4 17.2 
2 *453:4 *453:12 44.1686 
3 *453:12 *453:16 22.8317 
4 *453:16 *700:A1 34.4 
5 *453:16 *453:25 35.4795 
6 *453:25 *699:A1 39.7482 
7 *453:25 *453:36 33.2268 
8 *453:36 *453:40 32.1751 
9 *453:40 *637:C 17.2 
10 *453:40 *453:47 11.7662 
11 *453:47 *453:51 26.2107 
12 *453:51 *702:A1 38.1438 
13 *453:51 *453:70 47.6042 
14 *453:70 *453:78 39.89 
15 *453:78 *704:A1 40.2831 
16 *453:47 *703:A1 22.5483 
17 *453:4 *453:102 49.3309 
18 *453:102 *453:104 4.97807 
19 *453:104 *453:108 41.8854 
20 *453:108 *697:A1 35.4697 
21 *453:104 *453:119 8.87396 
22 *453:119 *453:127 36.1267 
23 *453:127 *696:A1 17.2 
24 *453:119 *453:140 46.8175 
25 *453:140 *453:144 44.4761 
26 *453:144 *453:146 23.653 
27 *453:146 *624:A 40.8179 
28 *453:146 *453:163 39.89 
29 *453:163 *453:169 35.0796 
30 *453:169 *623:A 17.2 
*END

*D_NET *454 0.000253179
*CONN
*I *641:A1 I *D AOI22x1_ASAP7_75t_L
*I *969:Y O *D BUFx3_ASAP7_75t_L
*CAP
1 *641:A1 3.57124e-06
2 *969:Y 1.98559e-05
3 *454:16 2.31845e-05
4 *454:10 3.94692e-05
5 *969:A *454:10 1.46661e-05
6 *16:25 *454:10 3.9563e-06
7 *25:25 *454:16 7.38573e-08
8 *148:145 *641:A1 2.48278e-06
9 *148:145 *454:16 4.31093e-06
10 *148:158 *454:16 3.02352e-06
11 *213:32 *454:16 8.09049e-05
12 *241:6 *454:10 4.31048e-06
13 *289:25 *641:A1 1.42601e-06
14 *290:30 *641:A1 1.43437e-05
15 *339:14 *454:16 2.94057e-05
16 *402:51 *454:16 4.33455e-06
17 *402:64 *454:16 3.8589e-06
*RES
1 *969:Y *454:10 42.7606 
2 *454:10 *454:16 48.4685 
3 *454:16 *641:A1 39.1869 
*END

*D_NET *455 0.000407017
*CONN
*I *626:A1 I *D AOI22x1_ASAP7_75t_L
*I *970:Y O *D BUFx3_ASAP7_75t_L
*CAP
1 *626:A1 0
2 *970:Y 5.9376e-06
3 *455:18 1.14325e-05
4 *455:12 6.20383e-05
5 *455:8 5.65434e-05
6 *37:39 *455:12 9.06457e-05
7 *148:113 *455:18 1.95317e-06
8 *209:106 *455:12 4.28451e-05
9 *221:8 *455:8 1.15207e-05
10 *232:18 *455:12 1.30404e-06
11 *234:14 *455:12 8.21294e-06
12 *274:12 *455:12 3.37384e-05
13 *275:145 *455:18 4.06013e-06
14 *335:120 *455:8 2.3866e-06
15 *335:128 *455:12 4.26765e-05
16 *339:24 *455:18 1.60932e-05
17 *339:32 *455:18 1.56288e-05
*RES
1 *970:Y *455:8 39.5624 
2 *455:8 *455:12 47.5013 
3 *455:12 *455:18 45.0063 
4 *455:18 *626:A1 17.2 
*END

*D_NET *456 0.00170163
*CONN
*I *707:A1 I *D OA222x2_ASAP7_75t_L
*I *705:A1 I *D OA222x2_ASAP7_75t_L
*I *708:A1 I *D OA222x2_ASAP7_75t_L
*I *709:A1 I *D OA222x2_ASAP7_75t_L
*I *710:A1 I *D OA222x2_ASAP7_75t_L
*I *673:A I *D AND3x1_ASAP7_75t_L
*I *712:A1 I *D OA222x2_ASAP7_75t_L
*I *711:A1 I *D OA222x2_ASAP7_75t_L
*I *714:A1 I *D OA222x2_ASAP7_75t_L
*I *669:A I *D AND3x1_ASAP7_75t_L
*I *652:A I *D AND3x1_ASAP7_75t_L
*I *971:Y O *D BUFx3_ASAP7_75t_L
*CAP
1 *707:A1 1.02601e-05
2 *705:A1 0
3 *708:A1 0
4 *709:A1 9.02206e-06
5 *710:A1 1.01626e-05
6 *673:A 2.7467e-06
7 *712:A1 1.1063e-05
8 *711:A1 1.35364e-06
9 *714:A1 0
10 *669:A 2.04254e-06
11 *652:A 1.17154e-05
12 *971:Y 0
13 *456:194 4.10678e-05
14 *456:183 3.47224e-06
15 *456:132 2.69757e-05
16 *456:115 3.15677e-05
17 *456:109 2.77048e-05
18 *456:100 3.74513e-06
19 *456:92 4.9579e-05
20 *456:88 6.60443e-05
21 *456:75 3.15325e-05
22 *456:69 6.04857e-05
23 *456:63 3.24029e-05
24 *456:57 3.35134e-05
25 *456:55 2.35244e-05
26 *456:49 4.95096e-05
27 *456:43 2.99068e-05
28 *456:39 2.31122e-05
29 *456:20 6.57704e-05
30 *456:14 8.07383e-05
31 *456:10 0.000105822
32 *456:4 9.08601e-05
33 *709:A1 *457:61 1.29102e-05
34 *456:49 *457:76 0
35 *456:55 *457:55 7.80516e-06
36 *456:55 *457:61 1.96943e-05
37 *456:92 *458:47 0
38 *529:A1 *456:194 2.90209e-08
39 *529:B *456:194 9.31704e-06
40 *673:B *456:115 6.42451e-07
41 *677:A2 *669:A 5.22376e-07
42 *677:B *456:69 2.43869e-07
43 *705:A2 *456:183 1.52651e-06
44 *707:A2 *707:A1 6.7842e-07
45 *709:A2 *709:A1 6.7842e-07
46 *709:C1 *456:57 8.27207e-06
47 *712:A2 *712:A1 2.71368e-06
48 *4:87 *456:10 2.02204e-06
49 *4:87 *456:194 1.53057e-06
50 *10:8 *456:69 4.32973e-06
51 *10:8 *456:75 3.48165e-06
52 *20:40 *456:14 0
53 *20:40 *456:20 0
54 *20:48 *652:A 1.3295e-05
55 *20:48 *456:20 1.76072e-05
56 *20:52 *456:92 2.94057e-05
57 *20:62 *456:92 2.08254e-05
58 *20:75 *456:109 0
59 *52:24 *710:A1 5.63702e-07
60 *55:22 *710:A1 3.04043e-06
61 *56:10 *456:100 1.70708e-06
62 *62:8 *456:10 0
63 *63:12 *456:10 1.08708e-05
64 *65:24 *456:194 2.19685e-06
65 *67:8 *456:10 0
66 *67:14 *456:14 4.59335e-07
67 *83:14 *456:75 8.38704e-06
68 *104:16 *456:88 2.05419e-05
69 *145:143 *456:183 0
70 *212:73 *652:A 1.67815e-06
71 *254:18 *710:A1 5.20363e-06
72 *254:18 *456:57 1.40926e-06
73 *255:18 *456:183 3.88115e-06
74 *258:12 *456:69 2.15628e-05
75 *258:12 *456:88 2.88655e-05
76 *258:12 *456:109 7.55992e-06
77 *259:14 *710:A1 9.97906e-07
78 *259:14 *456:69 4.04838e-05
79 *261:8 *712:A1 7.31606e-07
80 *261:16 *456:132 3.05118e-08
81 *262:10 *712:A1 5.05266e-06
82 *264:22 *712:A1 9.25042e-07
83 *264:22 *456:109 5.52807e-07
84 *264:22 *456:115 0
85 *264:22 *456:132 5.14601e-06
86 *275:22 *456:14 0
87 *275:53 *456:57 1.63973e-05
88 *275:64 *456:20 1.49407e-07
89 *275:64 *456:49 0
90 *275:73 *710:A1 3.26877e-06
91 *275:73 *456:57 1.67815e-06
92 *292:18 *456:14 1.00987e-05
93 *292:18 *456:20 1.46199e-05
94 *292:35 *456:14 9.48684e-06
95 *294:40 *456:20 9.01537e-06
96 *294:40 *456:39 2.02204e-06
97 *295:38 *710:A1 8.89433e-07
98 *295:38 *456:57 3.56395e-06
99 *295:38 *456:63 5.80001e-06
100 *295:38 *456:69 8.07536e-06
101 *296:12 *456:75 0
102 *296:20 *456:75 1.27097e-05
103 *296:48 *456:92 3.05126e-06
104 *349:20 *456:92 0.000171394
105 *360:20 *711:A1 1.35684e-06
106 *360:26 *456:115 8.49288e-06
107 *360:26 *456:132 7.6881e-06
108 *369:20 *456:39 5.51397e-07
109 *369:20 *456:43 3.68287e-06
110 *369:20 *456:49 1.08167e-05
111 *370:10 *709:A1 1.06925e-05
112 *370:10 *456:57 0
113 *372:22 *711:A1 3.90258e-06
114 *421:22 *712:A1 1.89311e-05
115 *421:31 *712:A1 3.06582e-06
116 *434:37 *456:194 4.2449e-06
117 *437:10 *712:A1 4.48222e-08
118 *441:98 *456:194 1.31716e-05
119 *441:146 *456:132 1.28292e-05
120 *441:152 *456:88 1.49407e-08
121 *441:152 *456:109 5.82688e-07
122 *441:152 *456:115 5.55315e-06
123 *441:152 *456:132 7.11252e-08
124 *441:178 *456:132 1.0122e-05
125 *445:18 *456:92 4.19282e-05
126 *451:40 *456:115 2.48464e-06
127 *451:50 *456:75 4.10445e-06
*RES
1 *971:Y *456:4 17.2 
2 *456:4 *456:10 42.7884 
3 *456:10 *456:14 33.2164 
4 *456:14 *456:20 33.2858 
5 *456:20 *652:A 43.8888 
6 *456:20 *456:39 46.3079 
7 *456:39 *456:43 18.2696 
8 *456:43 *456:49 40.1198 
9 *456:49 *456:55 42.4224 
10 *456:55 *456:57 12.9528 
11 *456:57 *456:63 39.2134 
12 *456:63 *456:69 40.6546 
13 *456:69 *456:75 38.4549 
14 *456:75 *669:A 35.4697 
15 *456:69 *456:88 27.2431 
16 *456:88 *456:92 46.2027 
17 *456:92 *456:100 36.1267 
18 *456:100 *714:A1 17.2 
19 *456:88 *456:109 24.0519 
20 *456:109 *456:115 28.9415 
21 *456:115 *711:A1 35.4697 
22 *456:115 *456:132 44.2511 
23 *456:132 *712:A1 44.142 
24 *456:109 *673:A 18.8045 
25 *456:57 *710:A1 44.537 
26 *456:49 *709:A1 41.6361 
27 *456:43 *708:A1 17.2 
28 *456:14 *456:183 36.8776 
29 *456:183 *705:A1 17.2 
30 *456:4 *456:194 34.0063 
31 *456:194 *707:A1 39.2134 
*END

*D_NET *457 0.000893041
*CONN
*I *763:CLK I *D DFFHQNx1_ASAP7_75t_L
*I *747:CLK I *D DFFHQNx1_ASAP7_75t_L
*I *762:CLK I *D DFFHQNx1_ASAP7_75t_L
*I *957:A I *D INVx4_ASAP7_75t_L
*I *760:CLK I *D DFFHQNx1_ASAP7_75t_L
*I *746:CLK I *D DFFHQNx1_ASAP7_75t_L
*I *744:CLK I *D DFFHQNx1_ASAP7_75t_L
*I *972:Y O *D BUFx4_ASAP7_75t_L
*CAP
1 *763:CLK 0
2 *747:CLK 0
3 *762:CLK 0
4 *957:A 2.75489e-05
5 *760:CLK 0
6 *746:CLK 0
7 *744:CLK 1.48551e-05
8 *972:Y 2.13175e-05
9 *457:76 9.84239e-06
10 *457:61 5.52454e-05
11 *457:55 5.55615e-05
12 *457:53 1.80227e-05
13 *457:51 2.13001e-05
14 *457:45 5.71446e-05
15 *457:27 3.11677e-05
16 *457:12 6.45808e-05
17 *457:10 2.71113e-05
18 *457:8 6.57153e-05
19 *597:A *457:8 2.0561e-05
20 *705:B2 *457:12 8.08836e-06
21 *705:C1 *457:12 4.10928e-06
22 *709:A1 *457:61 1.29102e-05
23 *709:C2 *457:51 1.17077e-05
24 *763:D *457:45 1.84236e-05
25 *763:D *457:51 2.25324e-05
26 *905:A *957:A 1.17291e-05
27 *10:14 *457:61 1.2583e-05
28 *12:6 *457:27 4.74894e-06
29 *20:48 *457:51 2.33701e-05
30 *61:21 *457:10 3.56988e-06
31 *61:21 *457:45 2.49557e-06
32 *245:10 *744:CLK 1.63973e-05
33 *245:10 *457:12 3.62059e-05
34 *275:26 *457:10 3.10495e-06
35 *275:32 *457:10 4.7341e-06
36 *275:32 *457:12 1.00828e-05
37 *275:41 *457:55 0
38 *275:43 *457:55 0
39 *275:53 *457:76 1.87869e-05
40 *275:64 *457:76 3.32524e-06
41 *275:73 *457:51 2.3131e-05
42 *278:67 *457:12 2.34423e-05
43 *292:10 *744:CLK 1.6528e-05
44 *292:10 *457:12 4.99607e-05
45 *294:8 *744:CLK 1.32196e-05
46 *295:14 *457:45 3.59474e-06
47 *295:14 *457:51 2.03608e-06
48 *370:10 *457:61 3.06506e-06
49 *412:20 *457:10 6.85051e-06
50 *412:20 *457:12 1.64764e-06
51 *412:20 *457:45 1.94636e-06
52 *412:24 *457:12 0
53 *441:158 *957:A 1.24033e-06
54 *456:49 *457:76 0
55 *456:55 *457:55 7.80516e-06
56 *456:55 *457:61 1.96943e-05
*RES
1 *972:Y *457:8 43.492 
2 *457:8 *457:10 10.137 
3 *457:10 *457:12 28.1583 
4 *457:12 *744:CLK 44.8451 
5 *457:12 *457:27 33.7796 
6 *457:27 *746:CLK 17.2 
7 *457:10 *760:CLK 34.4 
8 *457:8 *457:45 39.5246 
9 *457:45 *457:51 36.3156 
10 *457:51 *457:53 17.2 
11 *457:53 *457:55 6.95272 
12 *457:55 *457:61 35.9792 
13 *457:61 *957:A 46.701 
14 *457:55 *457:76 43.4107 
15 *457:76 *762:CLK 17.2 
16 *457:53 *747:CLK 17.2 
17 *457:45 *763:CLK 17.2 
*END

*D_NET *458 0.00105196
*CONN
*I *963:A I *D BUFx4_ASAP7_75t_L
*I *961:A I *D BUFx4_ASAP7_75t_L
*I *966:A I *D BUFx4_ASAP7_75t_L
*I *972:A I *D BUFx4_ASAP7_75t_L
*I *973:Y O *D BUFx4_ASAP7_75t_L
*CAP
1 *963:A 0
2 *961:A 0
3 *966:A 0
4 *972:A 0
5 *973:Y 0
6 *458:91 1.00368e-06
7 *458:87 7.87652e-05
8 *458:67 4.02919e-06
9 *458:63 0.000197208
10 *458:61 0.000115417
11 *458:49 1.09394e-05
12 *458:47 4.17668e-05
13 *458:31 3.59642e-06
14 *458:29 6.43329e-05
15 *458:21 9.78833e-05
16 *458:17 0.000103881
17 *458:15 0.000101726
18 *458:11 4.99576e-06
19 *458:6 8.31395e-07
20 *458:17 *460:18 1.21124e-05
21 *458:47 *460:18 0
22 *672:A *458:49 3.1512e-06
23 *36:10 *458:67 1.61163e-06
24 *40:31 *458:87 1.64152e-06
25 *58:14 *458:17 1.24672e-08
26 *58:14 *458:47 4.14708e-06
27 *58:20 *458:47 1.93317e-05
28 *61:27 *458:31 4.84393e-06
29 *99:8 *458:49 1.15762e-06
30 *146:67 *458:87 1.11663e-05
31 *146:115 *458:11 1.17606e-06
32 *146:115 *458:15 6.4908e-06
33 *148:62 *458:49 1.75184e-06
34 *209:14 *458:29 1.53894e-07
35 *209:33 *458:29 0
36 *209:56 *458:21 0
37 *209:56 *458:29 0
38 *209:79 *458:91 0
39 *226:18 *458:87 6.93469e-07
40 *231:18 *458:17 0
41 *231:18 *458:63 7.74213e-06
42 *231:79 *458:67 1.61163e-06
43 *275:22 *458:29 1.074e-06
44 *278:92 *458:49 2.25904e-06
45 *284:10 *458:11 1.07368e-06
46 *284:10 *458:15 3.43278e-06
47 *401:33 *458:17 6.56944e-05
48 *402:14 *458:63 5.07415e-06
49 *402:14 *458:87 4.23885e-07
50 *407:72 *458:63 0
51 *407:96 *458:63 3.89232e-06
52 *412:20 *458:31 5.57429e-06
53 *417:37 *458:17 3.17186e-05
54 *444:20 *458:63 5.56355e-06
55 *444:20 *458:87 2.67067e-06
56 *445:18 *458:17 6.2967e-06
57 *445:18 *458:47 0
58 *447:31 *458:49 1.03622e-05
59 *452:30 *458:91 1.68037e-06
60 *456:92 *458:47 0
*RES
1 *973:Y *458:6 34.4 
2 *458:6 *458:11 1.40791 
3 *458:11 *458:15 22.2685 
4 *458:15 *458:17 40.2034 
5 *458:17 *458:21 14.9909 
6 *458:21 *458:29 47.373 
7 *458:29 *458:31 4.41147 
8 *458:31 *972:A 34.4 
9 *458:21 *458:47 40.3089 
10 *458:47 *458:49 10.4186 
11 *458:49 *966:A 34.4 
12 *458:11 *458:61 17.2 
13 *458:61 *458:63 39.3917 
14 *458:63 *458:67 19.7342 
15 *458:67 *961:A 34.4 
16 *458:63 *458:87 49.6616 
17 *458:87 *458:91 18.2325 
18 *458:91 *963:A 34.4 
*END

*D_NET *459 0.00020594
*CONN
*I *679:A1 I *D OA21x2_ASAP7_75t_L
*I *712:B2 I *D OA222x2_ASAP7_75t_L
*I *977:Y O *D BUFx3_ASAP7_75t_L
*CAP
1 *679:A1 0
2 *712:B2 0
3 *977:Y 5.33713e-06
4 *459:30 7.6506e-06
5 *459:22 2.94887e-05
6 *459:12 6.58092e-05
7 *459:8 4.93083e-05
8 *930:A *459:12 1.02506e-06
9 *52:33 *459:8 0
10 *56:10 *459:8 5.52807e-07
11 *209:60 *459:22 3.59323e-06
12 *212:112 *459:22 4.74168e-07
13 *264:28 *459:30 0
14 *275:103 *459:30 1.40419e-08
15 *275:111 *459:30 2.20493e-06
16 *350:14 *459:22 0
17 *351:42 *459:22 0
18 *421:8 *459:12 0
19 *421:14 *459:22 4.04821e-05
*RES
1 *977:Y *459:8 37.779 
2 *459:8 *459:12 34.8492 
3 *459:12 *459:22 44.1507 
4 *459:22 *459:30 38.6414 
5 *459:30 *712:B2 17.2 
6 *459:12 *679:A1 17.2 
*END

*D_NET *460 0.000371767
*CONN
*I *501:B I *D AND4x1_ASAP7_75t_L
*I *676:A I *D INVx1_ASAP7_75t_L
*I *978:Y O *D BUFx3_ASAP7_75t_L
*CAP
1 *501:B 0
2 *676:A 0
3 *978:Y 3.32067e-05
4 *460:30 4.09108e-05
5 *460:26 4.29469e-05
6 *460:22 3.05846e-06
7 *460:18 2.48371e-05
8 *460:8 5.70215e-05
9 *52:33 *460:30 1.18544e-05
10 *85:8 *460:30 1.34329e-05
11 *145:114 *460:30 0
12 *212:112 *460:30 0
13 *265:8 *460:30 3.32579e-06
14 *283:12 *460:18 1.49407e-08
15 *401:39 *460:18 1.04612e-06
16 *402:120 *460:18 0
17 *402:120 *460:30 2.06037e-06
18 *412:45 *460:18 7.31606e-07
19 *412:49 *460:26 3.13426e-06
20 *412:55 *460:30 0
21 *417:45 *460:8 4.62036e-05
22 *441:142 *460:30 1.49407e-08
23 *445:18 *460:18 6.13548e-05
24 *447:31 *460:22 3.68287e-06
25 *447:31 *460:26 1.08167e-05
26 *451:96 *460:30 0
27 *458:17 *460:18 1.21124e-05
28 *458:47 *460:18 0
*RES
1 *978:Y *460:8 49.9099 
2 *460:8 *460:18 49.0779 
3 *460:18 *460:22 18.2696 
4 *460:22 *460:26 20.409 
5 *460:26 *460:30 48.1741 
6 *460:30 *676:A 17.2 
7 *460:22 *501:B 17.2 
*END

*D_NET *461 0.000698569
*CONN
*I *909:A I *D BUFx2_ASAP7_75t_L
*I *979:Y O *D BUFx3_ASAP7_75t_L
*CAP
1 *909:A 0
2 *979:Y 1.49863e-05
3 *461:36 1.18706e-06
4 *461:30 6.89206e-05
5 *461:28 7.34773e-05
6 *461:22 7.8314e-05
7 *461:18 0.000138713
8 *461:10 8.11293e-05
9 *543:B *461:10 1.82258e-05
10 *285:22 *461:22 1.24672e-08
11 *285:22 *461:30 9.61757e-05
12 *285:30 *461:18 0
13 *285:30 *461:22 3.8512e-05
14 *297:31 *461:22 4.77712e-05
15 *332:5 *461:30 8.11615e-06
16 *350:14 *461:22 2.58803e-05
17 *352:12 *461:18 1.38694e-06
18 *416:26 *461:10 0
19 *430:35 *461:18 4.73754e-07
20 *436:21 *461:10 5.28647e-06
*RES
1 *979:Y *461:10 41.1845 
2 *461:10 *461:18 49.7274 
3 *461:18 *461:22 48.5945 
4 *461:22 *461:28 25.8792 
5 *461:28 *461:30 50.4842 
6 *461:30 *461:36 35.057 
7 *461:36 *909:A 17.2 
*END

*D_NET *462 2.10262e-05
*CONN
*I *917:A I *D BUFx3_ASAP7_75t_L
*I *980:Y O *D BUFx3_ASAP7_75t_L
*CAP
1 *917:A 0
2 *980:Y 9.94864e-06
3 *462:10 9.94864e-06
4 *23:12 *462:10 1.12894e-06
5 *24:6 *462:10 0
6 *345:14 *462:10 0
*RES
1 *980:Y *462:10 39.89 
2 *462:10 *917:A 34.4 
*END

*D_NET *463 0.000203554
*CONN
*I *622:B I *D NAND2x1_ASAP7_75t_L
*I *981:Y O *D BUFx3_ASAP7_75t_L
*CAP
1 *622:B 1.24751e-05
2 *981:Y 1.40028e-05
3 *463:16 3.24397e-05
4 *463:10 3.39673e-05
5 *739:D *463:16 1.52651e-06
6 *209:116 *463:16 6.4633e-06
7 *220:8 *622:B 1.9334e-05
8 *220:14 *463:16 4.92772e-05
9 *220:20 *463:10 7.53304e-06
10 *220:20 *463:16 2.03526e-06
11 *233:16 *622:B 9.73205e-07
12 *417:153 *463:10 1.91607e-05
13 *429:12 *463:10 1.49407e-08
14 *446:41 *463:16 5.51397e-07
15 *446:45 *463:10 3.79923e-06
*RES
1 *981:Y *463:10 43.8321 
2 *463:10 *463:16 49.9099 
3 *463:16 *622:B 43.354 
*END

*D_NET *464 0.000123214
*CONN
*I *533:B I *D XOR2x2_ASAP7_75t_L
*I *982:Y O *D BUFx3_ASAP7_75t_L
*CAP
1 *533:B 3.45636e-06
2 *982:Y 3.69644e-05
3 *464:8 4.04208e-05
4 *982:A *464:8 1.07377e-06
5 *266:18 *533:B 8.02373e-06
6 *283:6 *464:8 3.29017e-05
7 *349:8 *533:B 3.73518e-07
*RES
1 *982:Y *464:8 49.9099 
2 *464:8 *533:B 37.2158 
*END

*D_NET *465 0.000256248
*CONN
*I *527:A2 I *D OA21x2_ASAP7_75t_L
*I *983:Y O *D BUFx3_ASAP7_75t_L
*CAP
1 *527:A2 2.37221e-05
2 *983:Y 5.95889e-06
3 *465:20 2.74333e-05
4 *465:14 4.08317e-05
5 *465:8 4.30794e-05
6 *983:A *465:14 1.49407e-08
7 *62:23 *527:A2 1.06023e-05
8 *65:16 *465:8 3.48165e-06
9 *65:18 *465:14 8.28849e-06
10 *65:59 *465:14 2.50306e-05
11 *109:12 *465:20 7.53304e-06
12 *113:12 *465:20 8.89433e-07
13 *154:6 *527:A2 3.11897e-06
14 *155:8 *465:14 2.95527e-05
15 *212:35 *465:14 1.49407e-08
16 *282:6 *527:A2 4.88615e-06
17 *282:6 *465:14 0
18 *441:98 *465:14 8.60306e-07
19 *441:106 *465:14 3.95816e-06
20 *449:30 *527:A2 9.5653e-06
21 *449:38 *527:A2 7.42565e-06
*RES
1 *983:Y *465:8 37.0741 
2 *465:8 *465:14 41.6109 
3 *465:14 *465:20 37.2158 
4 *465:20 *527:A2 33.7796 
*END

*D_NET *466 0.00018023
*CONN
*I *900:A I *D BUFx2_ASAP7_75t_L
*I *984:Y O *D BUFx3_ASAP7_75t_L
*CAP
1 *900:A 0
2 *984:Y 3.35933e-05
3 *466:14 4.26756e-05
4 *466:8 7.62689e-05
5 *646:B *466:14 1.4252e-05
6 *14:10 *466:14 1.34402e-05
*RES
1 *984:Y *466:8 49.9099 
2 *466:8 *466:14 48.8717 
3 *466:14 *900:A 17.2 
*END
