*SPEF "ieee 1481-1999"
*DESIGN "gcd"
*DATE "00:01:06 Friday January 16, 2026"
*VENDOR "The OpenROAD Project"
*PROGRAM "OpenROAD"
*VERSION "26Q1-54-gb42159587e"
*DESIGN_FLOW "NAME_SCOPE LOCAL" "PIN_CAP NONE"
*DIVIDER /
*DELIMITER :
*BUS_DELIMITER []
*T_UNIT 1 NS
*C_UNIT 1 PF
*R_UNIT 1 OHM
*L_UNIT 1 HENRY

*NAME_MAP
*1 _000_
*2 _001_
*3 _002_
*4 _003_
*5 _004_
*6 _005_
*7 _006_
*8 _007_
*9 _008_
*10 _009_
*11 _010_
*12 _011_
*13 _012_
*14 _013_
*15 _014_
*16 _015_
*17 _016_
*18 _017_
*19 _018_
*20 _019_
*21 _020_
*22 _021_
*23 _022_
*24 _023_
*25 _024_
*26 _025_
*27 _026_
*28 _027_
*29 _028_
*30 _029_
*31 _030_
*32 _031_
*33 _032_
*34 _033_
*35 _034_
*36 _035_
*37 _036_
*38 _037_
*39 _038_
*40 _039_
*41 _040_
*42 _041_
*43 _042_
*44 _043_
*45 _044_
*46 _045_
*47 _046_
*48 _047_
*49 _048_
*50 _049_
*51 _050_
*52 _051_
*53 _052_
*54 _053_
*55 _054_
*56 _055_
*57 _056_
*58 _057_
*59 _058_
*60 _059_
*61 _060_
*62 _061_
*63 _062_
*64 _063_
*65 _064_
*66 _065_
*67 _066_
*68 _067_
*69 _068_
*70 _069_
*71 _070_
*72 _071_
*73 _072_
*74 _073_
*75 _074_
*76 _075_
*77 _076_
*78 _077_
*79 _078_
*80 _079_
*81 _080_
*82 _081_
*83 _082_
*84 _083_
*85 _084_
*86 _085_
*87 _086_
*88 _087_
*89 _088_
*90 _089_
*91 _090_
*92 _091_
*93 _092_
*94 _093_
*95 _094_
*96 _095_
*97 _096_
*98 _097_
*99 _098_
*100 _099_
*101 _100_
*102 _101_
*103 _102_
*104 req_msg[22]
*105 req_msg[21]
*106 _105_
*107 req_msg[20]
*108 _107_
*109 _108_
*110 _109_
*111 _110_
*112 _111_
*113 _112_
*114 _113_
*115 req_msg[1]
*116 _115_
*117 _116_
*118 _117_
*119 req_msg[19]
*120 req_msg[18]
*121 _120_
*122 _121_
*123 _122_
*124 _123_
*125 _124_
*126 _125_
*127 _126_
*128 _127_
*129 req_msg[17]
*130 _129_
*131 _130_
*132 _131_
*133 _132_
*134 _133_
*135 _134_
*136 _135_
*137 _136_
*138 _137_
*139 _138_
*140 _139_
*141 _140_
*142 _141_
*143 req_msg[16]
*144 _143_
*145 _144_
*146 _145_
*147 _146_
*148 _147_
*149 _148_
*150 req_msg[15]
*151 _150_
*152 _151_
*153 _152_
*154 _153_
*155 _154_
*156 _155_
*157 _156_
*158 _157_
*159 _158_
*160 _159_
*161 _160_
*162 _161_
*163 _162_
*164 _163_
*165 _164_
*166 _165_
*167 _166_
*168 _167_
*169 _168_
*170 _169_
*171 _170_
*172 _171_
*173 _172_
*174 _173_
*175 _174_
*176 _175_
*177 _176_
*178 _177_
*179 _178_
*180 _179_
*181 _180_
*182 _181_
*183 _182_
*184 _183_
*185 _184_
*186 _185_
*187 _186_
*188 _187_
*189 _188_
*190 _189_
*191 _190_
*192 _191_
*193 _192_
*194 _193_
*195 _194_
*196 _195_
*197 _196_
*198 _197_
*199 _198_
*200 _199_
*201 _200_
*202 _201_
*203 _202_
*204 _203_
*205 _204_
*206 _205_
*207 _206_
*208 _207_
*209 _208_
*210 _209_
*211 req_msg[14]
*212 _211_
*213 _212_
*214 req_msg[13]
*215 req_msg[12]
*216 _215_
*217 _216_
*218 _217_
*219 _218_
*220 _219_
*221 _220_
*222 _221_
*223 _222_
*224 _223_
*225 _224_
*226 _225_
*227 _226_
*228 _227_
*229 _228_
*230 _229_
*231 _230_
*232 _231_
*233 _232_
*234 _233_
*235 _234_
*236 _235_
*237 _236_
*238 _237_
*239 _238_
*240 _239_
*241 _240_
*242 _241_
*243 _242_
*244 _243_
*245 _244_
*246 _245_
*247 _246_
*248 _247_
*249 _248_
*250 _249_
*251 _250_
*252 _251_
*253 _252_
*254 _253_
*255 _254_
*256 _255_
*257 _256_
*258 _257_
*259 _258_
*260 _259_
*261 _260_
*262 _261_
*263 _262_
*264 _263_
*265 _264_
*266 _265_
*267 _266_
*268 _267_
*269 _268_
*270 _269_
*271 _270_
*272 _271_
*273 _272_
*274 _273_
*275 req_msg[11]
*276 _275_
*277 req_msg[10]
*278 _277_
*279 _278_
*280 req_msg[0]
*281 _280_
*282 _281_
*283 _282_
*284 _283_
*285 _284_
*286 clk
*287 dpath\.a_lt_b\$in0\[10\]
*288 dpath\.a_lt_b\$in0\[11\]
*289 dpath\.a_lt_b\$in0\[12\]
*290 dpath\.a_lt_b\$in0\[13\]
*291 dpath\.a_lt_b\$in0\[14\]
*292 dpath\.a_lt_b\$in0\[15\]
*293 dpath\.a_lt_b\$in0\[1\]
*294 dpath\.a_lt_b\$in0\[2\]
*295 dpath\.a_lt_b\$in0\[3\]
*296 dpath\.a_lt_b\$in0\[4\]
*297 dpath\.a_lt_b\$in0\[5\]
*298 dpath\.a_lt_b\$in0\[6\]
*299 dpath\.a_lt_b\$in0\[7\]
*300 dpath\.a_lt_b\$in0\[8\]
*301 dpath\.a_lt_b\$in0\[9\]
*302 dpath\.a_lt_b\$in1\[0\]
*303 dpath\.a_lt_b\$in1\[1\]
*304 net1
*305 net2
*306 net3
*307 net4
*308 net5
*309 net6
*310 net7
*311 net8
*312 net9
*313 net10
*314 net11
*315 net12
*316 net13
*317 net14
*318 net15
*319 net16
*320 net17
*321 net18
*322 net19
*323 net20
*324 net21
*325 net22
*326 net23
*327 net24
*328 net25
*329 net26
*330 net27
*331 net28
*332 net29
*333 net30
*334 net31
*335 net32
*336 net36
*337 net33
*338 net34
*339 net37
*340 net38
*341 net39
*342 net40
*343 net41
*344 net42
*345 net43
*346 net44
*347 net45
*348 net46
*349 net47
*350 net48
*351 net49
*352 net50
*353 net51
*354 net52
*355 net35
*356 net53
*359 req_msg[23]
*360 req_msg[24]
*361 req_msg[25]
*362 req_msg[26]
*363 req_msg[27]
*364 req_msg[28]
*365 req_msg[29]
*366 req_msg[2]
*367 req_msg[30]
*368 req_msg[31]
*369 req_msg[3]
*370 req_msg[4]
*371 req_msg[5]
*372 req_msg[6]
*373 req_msg[7]
*374 req_msg[8]
*375 req_msg[9]
*376 req_val
*377 reset
*378 resp_rdy
*379 req_rdy
*380 resp_msg[0]
*381 resp_msg[10]
*382 resp_msg[11]
*383 resp_msg[12]
*384 resp_msg[13]
*385 resp_msg[14]
*386 resp_msg[15]
*387 resp_msg[1]
*388 resp_msg[2]
*389 resp_msg[3]
*390 resp_msg[4]
*391 resp_msg[5]
*392 resp_msg[6]
*393 resp_msg[7]
*394 resp_msg[8]
*395 resp_msg[9]
*396 resp_val
*397 clknet_2_3__leaf_clk
*398 clknet_2_2__leaf_clk
*399 clknet_2_1__leaf_clk
*400 clknet_2_0__leaf_clk
*401 net61
*402 net62
*403 clknet_0_clk
*404 net63
*405 net64
*406 net65
*407 net66
*408 net67
*409 net68
*410 _285_
*411 _286_
*412 input15
*413 _288_
*414 input14
*415 _290_
*416 input13
*417 _292_
*418 _293_
*419 _294_
*420 _295_
*421 _296_
*422 _297_
*423 _298_
*424 input12
*425 _300_
*426 _301_
*427 _302_
*428 input11
*429 input10
*430 _305_
*431 _306_
*432 _307_
*433 _308_
*434 _309_
*435 _310_
*436 _311_
*437 _312_
*438 input9
*439 _314_
*440 _315_
*441 _316_
*442 _317_
*443 _318_
*444 _319_
*445 _320_
*446 _321_
*447 _322_
*448 _323_
*449 _324_
*450 _325_
*451 _326_
*452 input8
*453 _328_
*454 _329_
*455 _330_
*456 _331_
*457 _332_
*458 _333_
*459 _334_
*460 _335_
*461 input7
*462 _337_
*463 _338_
*464 _339_
*465 _340_
*466 _341_
*467 _342_
*468 _343_
*469 _344_
*470 _345_
*471 _346_
*472 _347_
*473 _348_
*474 _349_
*475 _350_
*476 _351_
*477 _352_
*478 _353_
*479 _354_
*480 _355_
*481 _356_
*482 _357_
*483 _358_
*484 _359_
*485 _360_
*486 _361_
*487 _362_
*488 _363_
*489 _364_
*490 _365_
*491 _366_
*492 _367_
*493 _368_
*494 _369_
*495 _370_
*496 _371_
*497 _372_
*498 _373_
*499 _374_
*500 _375_
*501 _376_
*502 _377_
*503 _378_
*504 _379_
*505 _380_
*506 _381_
*507 _382_
*508 _383_
*509 _384_
*510 _385_
*511 _386_
*512 _387_
*513 _388_
*514 _389_
*515 _390_
*516 _391_
*517 _392_
*518 _393_
*519 _394_
*520 _395_
*521 _396_
*522 _397_
*523 _398_
*524 _399_
*525 _400_
*526 _401_
*527 _402_
*528 _403_
*529 _404_
*530 _405_
*531 _406_
*532 _407_
*533 _408_
*534 _409_
*535 _410_
*536 _411_
*537 _412_
*538 _413_
*539 _414_
*540 _415_
*541 _416_
*542 _417_
*543 _418_
*544 _419_
*545 _420_
*546 _421_
*547 _422_
*548 _423_
*549 _424_
*550 _425_
*551 _426_
*552 _427_
*553 _428_
*554 input6
*555 _430_
*556 _431_
*557 input5
*558 input4
*559 _434_
*560 _435_
*561 _436_
*562 _437_
*563 _438_
*564 _439_
*565 _440_
*566 _441_
*567 _442_
*568 _443_
*569 _444_
*570 _445_
*571 _446_
*572 _447_
*573 _448_
*574 _449_
*575 _450_
*576 _451_
*577 _452_
*578 _453_
*579 _454_
*580 _455_
*581 _456_
*582 _457_
*583 _458_
*584 _459_
*585 _460_
*586 _461_
*587 _462_
*588 _463_
*589 _464_
*590 _465_
*591 _466_
*592 _467_
*593 _468_
*594 _469_
*595 _470_
*596 _471_
*597 _472_
*598 _473_
*599 _474_
*600 _475_
*601 _476_
*602 _477_
*603 _478_
*604 _479_
*605 _480_
*606 _481_
*607 _482_
*608 _483_
*609 _484_
*610 _485_
*611 _486_
*612 _487_
*613 _488_
*614 _489_
*615 _490_
*616 _491_
*617 _492_
*618 _493_
*619 _494_
*620 _495_
*621 _496_
*622 _497_
*623 _498_
*624 _499_
*625 _500_
*626 _501_
*627 _502_
*628 _503_
*629 _504_
*630 _505_
*631 _506_
*632 _507_
*633 _508_
*634 input3
*635 _510_
*636 input2
*637 _512_
*638 _513_
*639 input1
*640 _515_
*641 _516_
*642 _517_
*643 _518_
*644 _519_
*645 _520_
*646 _521_
*647 _522_
*648 _523_
*649 _524_
*650 _525_
*651 _526_
*652 _527_
*653 _528_
*654 _529_
*655 _530_
*656 _531_
*657 _532_
*658 _533_
*659 _534_
*660 _535_
*661 _536_
*662 _537_
*663 _538_
*664 _539_
*665 _540_
*666 _541_
*667 _542_
*668 _543_
*669 _544_
*670 _545_
*671 _546_
*672 _547_
*673 _548_
*674 _549_
*675 _550_
*676 _551_
*677 _552_
*678 ctrl\.state\.out\[0\]\$_DFF_P_
*679 ctrl\.state\.out\[1\]\$_DFF_P_
*680 ctrl\.state\.out\[2\]\$_DFF_P_
*681 dpath\.a_reg\.out\[0\]\$_DFFE_PP_
*682 dpath\.a_reg\.out\[10\]\$_DFFE_PP_
*683 dpath\.a_reg\.out\[11\]\$_DFFE_PP_
*684 dpath\.a_reg\.out\[12\]\$_DFFE_PP_
*685 dpath\.a_reg\.out\[13\]\$_DFFE_PP_
*686 dpath\.a_reg\.out\[14\]\$_DFFE_PP_
*687 dpath\.a_reg\.out\[15\]\$_DFFE_PP_
*688 dpath\.a_reg\.out\[1\]\$_DFFE_PP_
*689 dpath\.a_reg\.out\[2\]\$_DFFE_PP_
*690 dpath\.a_reg\.out\[3\]\$_DFFE_PP_
*691 dpath\.a_reg\.out\[4\]\$_DFFE_PP_
*692 dpath\.a_reg\.out\[5\]\$_DFFE_PP_
*693 dpath\.a_reg\.out\[6\]\$_DFFE_PP_
*694 dpath\.a_reg\.out\[7\]\$_DFFE_PP_
*695 dpath\.a_reg\.out\[8\]\$_DFFE_PP_
*696 dpath\.a_reg\.out\[9\]\$_DFFE_PP_
*697 dpath\.b_reg\.out\[0\]\$_DFFE_PP_
*698 dpath\.b_reg\.out\[10\]\$_DFFE_PP_
*699 dpath\.b_reg\.out\[11\]\$_DFFE_PP_
*700 dpath\.b_reg\.out\[12\]\$_DFFE_PP_
*701 dpath\.b_reg\.out\[13\]\$_DFFE_PP_
*702 dpath\.b_reg\.out\[14\]\$_DFFE_PP_
*703 dpath\.b_reg\.out\[15\]\$_DFFE_PP_
*704 dpath\.b_reg\.out\[1\]\$_DFFE_PP_
*705 dpath\.b_reg\.out\[2\]\$_DFFE_PP_
*706 dpath\.b_reg\.out\[3\]\$_DFFE_PP_
*707 dpath\.b_reg\.out\[4\]\$_DFFE_PP_
*708 dpath\.b_reg\.out\[5\]\$_DFFE_PP_
*709 dpath\.b_reg\.out\[6\]\$_DFFE_PP_
*710 dpath\.b_reg\.out\[7\]\$_DFFE_PP_
*711 dpath\.b_reg\.out\[8\]\$_DFFE_PP_
*712 dpath\.b_reg\.out\[9\]\$_DFFE_PP_
*713 PHY_EDGE_ROW_0_Right_0
*714 PHY_EDGE_ROW_1_Right_1
*715 PHY_EDGE_ROW_2_Right_2
*716 PHY_EDGE_ROW_3_Right_3
*717 PHY_EDGE_ROW_4_Right_4
*718 PHY_EDGE_ROW_5_Right_5
*719 PHY_EDGE_ROW_6_Right_6
*720 PHY_EDGE_ROW_7_Right_7
*721 PHY_EDGE_ROW_8_Right_8
*722 PHY_EDGE_ROW_9_Right_9
*723 PHY_EDGE_ROW_10_Right_10
*724 PHY_EDGE_ROW_11_Right_11
*725 PHY_EDGE_ROW_12_Right_12
*726 PHY_EDGE_ROW_13_Right_13
*727 PHY_EDGE_ROW_14_Right_14
*728 PHY_EDGE_ROW_15_Right_15
*729 PHY_EDGE_ROW_16_Right_16
*730 PHY_EDGE_ROW_17_Right_17
*731 PHY_EDGE_ROW_18_Right_18
*732 PHY_EDGE_ROW_19_Right_19
*733 PHY_EDGE_ROW_20_Right_20
*734 PHY_EDGE_ROW_21_Right_21
*735 PHY_EDGE_ROW_22_Right_22
*736 PHY_EDGE_ROW_23_Right_23
*737 PHY_EDGE_ROW_24_Right_24
*738 PHY_EDGE_ROW_25_Right_25
*739 PHY_EDGE_ROW_26_Right_26
*740 PHY_EDGE_ROW_27_Right_27
*741 PHY_EDGE_ROW_28_Right_28
*742 PHY_EDGE_ROW_29_Right_29
*743 PHY_EDGE_ROW_30_Right_30
*744 PHY_EDGE_ROW_31_Right_31
*745 PHY_EDGE_ROW_32_Right_32
*746 PHY_EDGE_ROW_33_Right_33
*747 PHY_EDGE_ROW_34_Right_34
*748 PHY_EDGE_ROW_35_Right_35
*749 PHY_EDGE_ROW_36_Right_36
*750 PHY_EDGE_ROW_37_Right_37
*751 PHY_EDGE_ROW_38_Right_38
*752 PHY_EDGE_ROW_39_Right_39
*753 PHY_EDGE_ROW_40_Right_40
*754 PHY_EDGE_ROW_41_Right_41
*755 PHY_EDGE_ROW_42_Right_42
*756 PHY_EDGE_ROW_43_Right_43
*757 PHY_EDGE_ROW_44_Right_44
*758 PHY_EDGE_ROW_45_Right_45
*759 PHY_EDGE_ROW_46_Right_46
*760 PHY_EDGE_ROW_47_Right_47
*761 PHY_EDGE_ROW_48_Right_48
*762 PHY_EDGE_ROW_49_Right_49
*763 PHY_EDGE_ROW_50_Right_50
*764 PHY_EDGE_ROW_51_Right_51
*765 PHY_EDGE_ROW_0_Left_52
*766 PHY_EDGE_ROW_1_Left_53
*767 PHY_EDGE_ROW_2_Left_54
*768 PHY_EDGE_ROW_3_Left_55
*769 PHY_EDGE_ROW_4_Left_56
*770 PHY_EDGE_ROW_5_Left_57
*771 PHY_EDGE_ROW_6_Left_58
*772 PHY_EDGE_ROW_7_Left_59
*773 PHY_EDGE_ROW_8_Left_60
*774 PHY_EDGE_ROW_9_Left_61
*775 PHY_EDGE_ROW_10_Left_62
*776 PHY_EDGE_ROW_11_Left_63
*777 PHY_EDGE_ROW_12_Left_64
*778 PHY_EDGE_ROW_13_Left_65
*779 PHY_EDGE_ROW_14_Left_66
*780 PHY_EDGE_ROW_15_Left_67
*781 PHY_EDGE_ROW_16_Left_68
*782 PHY_EDGE_ROW_17_Left_69
*783 PHY_EDGE_ROW_18_Left_70
*784 PHY_EDGE_ROW_19_Left_71
*785 PHY_EDGE_ROW_20_Left_72
*786 PHY_EDGE_ROW_21_Left_73
*787 PHY_EDGE_ROW_22_Left_74
*788 PHY_EDGE_ROW_23_Left_75
*789 PHY_EDGE_ROW_24_Left_76
*790 PHY_EDGE_ROW_25_Left_77
*791 PHY_EDGE_ROW_26_Left_78
*792 PHY_EDGE_ROW_27_Left_79
*793 PHY_EDGE_ROW_28_Left_80
*794 PHY_EDGE_ROW_29_Left_81
*795 PHY_EDGE_ROW_30_Left_82
*796 PHY_EDGE_ROW_31_Left_83
*797 PHY_EDGE_ROW_32_Left_84
*798 PHY_EDGE_ROW_33_Left_85
*799 PHY_EDGE_ROW_34_Left_86
*800 PHY_EDGE_ROW_35_Left_87
*801 PHY_EDGE_ROW_36_Left_88
*802 PHY_EDGE_ROW_37_Left_89
*803 PHY_EDGE_ROW_38_Left_90
*804 PHY_EDGE_ROW_39_Left_91
*805 PHY_EDGE_ROW_40_Left_92
*806 PHY_EDGE_ROW_41_Left_93
*807 PHY_EDGE_ROW_42_Left_94
*808 PHY_EDGE_ROW_43_Left_95
*809 PHY_EDGE_ROW_44_Left_96
*810 PHY_EDGE_ROW_45_Left_97
*811 PHY_EDGE_ROW_46_Left_98
*812 PHY_EDGE_ROW_47_Left_99
*813 PHY_EDGE_ROW_48_Left_100
*814 PHY_EDGE_ROW_49_Left_101
*815 PHY_EDGE_ROW_50_Left_102
*816 PHY_EDGE_ROW_51_Left_103
*817 input16
*818 input17
*819 input18
*820 input19
*821 input20
*822 input21
*823 input22
*824 input23
*825 input24
*826 input25
*827 input26
*828 input27
*829 input28
*830 input29
*831 input30
*832 input31
*833 input32
*834 input33
*835 input34
*836 input35
*837 output36
*838 output37
*839 output38
*840 output39
*841 output40
*842 output41
*843 output42
*844 output43
*845 output44
*846 output45
*847 output46
*848 output47
*849 output48
*850 output49
*851 output50
*852 output51
*853 output52
*854 output53
*855 clkbuf_2_3__f_clk
*856 clkbuf_2_2__f_clk
*857 clkbuf_2_1__f_clk
*858 clkbuf_2_0__f_clk
*859 place61
*860 place62
*861 clkbuf_0_clk
*862 clkload0
*863 clkload1
*864 clkload2
*865 rebuffer63
*866 rebuffer64
*867 rebuffer65
*868 rebuffer66
*869 rebuffer67
*870 rebuffer68
*871 FILLER_0_2
*872 FILLER_0_24
*873 FILLER_0_46
*874 FILLER_0_68
*875 FILLER_0_90
*876 FILLER_0_104
*877 FILLER_0_110
*878 FILLER_0_132
*879 FILLER_0_154
*880 FILLER_0_160
*881 FILLER_0_171
*882 FILLER_0_193
*883 FILLER_0_215
*884 FILLER_0_237
*885 FILLER_0_251
*886 FILLER_0_257
*887 FILLER_1_2
*888 FILLER_1_24
*889 FILLER_1_46
*890 FILLER_1_52
*891 FILLER_1_58
*892 FILLER_1_72
*893 FILLER_1_76
*894 FILLER_1_82
*895 FILLER_1_101
*896 FILLER_1_107
*897 FILLER_1_113
*898 FILLER_1_135
*899 FILLER_1_157
*900 FILLER_1_163
*901 FILLER_1_169
*902 FILLER_1_191
*903 FILLER_1_206
*904 FILLER_1_228
*905 FILLER_1_250
*906 FILLER_1_256
*907 FILLER_2_2
*908 FILLER_2_24
*909 FILLER_2_46
*910 FILLER_2_68
*911 FILLER_2_82
*912 FILLER_2_91
*913 FILLER_2_105
*914 FILLER_2_109
*915 FILLER_2_115
*916 FILLER_2_137
*917 FILLER_2_159
*918 FILLER_2_163
*919 FILLER_2_172
*920 FILLER_2_194
*921 FILLER_2_198
*922 FILLER_2_204
*923 FILLER_2_226
*924 FILLER_2_248
*925 FILLER_3_2
*926 FILLER_3_24
*927 FILLER_3_46
*928 FILLER_3_60
*929 FILLER_3_66
*930 FILLER_3_88
*931 FILLER_3_98
*932 FILLER_3_108
*933 FILLER_3_120
*934 FILLER_3_130
*935 FILLER_3_136
*936 FILLER_3_146
*937 FILLER_3_170
*938 FILLER_3_192
*939 FILLER_3_214
*940 FILLER_3_236
*941 FILLER_4_2
*942 FILLER_4_24
*943 FILLER_4_46
*944 FILLER_4_56
*945 FILLER_4_90
*946 FILLER_4_104
*947 FILLER_4_114
*948 FILLER_4_136
*949 FILLER_4_142
*950 FILLER_4_183
*951 FILLER_4_206
*952 FILLER_4_228
*953 FILLER_4_250
*954 FILLER_4_256
*955 FILLER_5_2
*956 FILLER_5_24
*957 FILLER_5_38
*958 FILLER_5_42
*959 FILLER_5_55
*960 FILLER_5_77
*961 FILLER_5_86
*962 FILLER_5_108
*963 FILLER_5_130
*964 FILLER_5_152
*965 FILLER_5_180
*966 FILLER_5_194
*967 FILLER_5_196
*968 FILLER_5_212
*969 FILLER_5_234
*970 FILLER_5_256
*971 FILLER_6_2
*972 FILLER_6_24
*973 FILLER_6_46
*974 FILLER_6_70
*975 FILLER_6_92
*976 FILLER_6_130
*977 FILLER_6_136
*978 FILLER_6_138
*979 FILLER_6_142
*980 FILLER_6_156
*981 FILLER_6_160
*982 FILLER_6_167
*983 FILLER_6_181
*984 FILLER_6_187
*985 FILLER_6_208
*986 FILLER_6_230
*987 FILLER_6_252
*988 FILLER_7_2
*989 FILLER_7_24
*990 FILLER_7_46
*991 FILLER_7_60
*992 FILLER_7_67
*993 FILLER_7_81
*994 FILLER_7_91
*995 FILLER_7_105
*996 FILLER_7_118
*997 FILLER_7_140
*998 FILLER_7_154
*999 FILLER_7_159
*1000 FILLER_7_181
*1001 FILLER_7_191
*1002 FILLER_7_193
*1003 FILLER_7_231
*1004 FILLER_7_253
*1005 FILLER_7_257
*1006 FILLER_8_2
*1007 FILLER_8_24
*1008 FILLER_8_49
*1009 FILLER_8_71
*1010 FILLER_8_81
*1011 FILLER_8_98
*1012 FILLER_8_120
*1013 FILLER_8_142
*1014 FILLER_8_156
*1015 FILLER_8_162
*1016 FILLER_8_169
*1017 FILLER_8_191
*1018 FILLER_8_204
*1019 FILLER_8_226
*1020 FILLER_8_248
*1021 FILLER_9_2
*1022 FILLER_9_24
*1023 FILLER_9_34
*1024 FILLER_9_64
*1025 FILLER_9_76
*1026 FILLER_9_108
*1027 FILLER_9_142
*1028 FILLER_9_152
*1029 FILLER_9_154
*1030 FILLER_9_170
*1031 FILLER_9_192
*1032 FILLER_9_214
*1033 FILLER_9_224
*1034 FILLER_9_231
*1035 FILLER_9_253
*1036 FILLER_9_257
*1037 FILLER_10_2
*1038 FILLER_10_21
*1039 FILLER_10_33
*1040 FILLER_10_50
*1041 FILLER_10_60
*1042 FILLER_10_62
*1043 FILLER_10_72
*1044 FILLER_10_86
*1045 FILLER_10_90
*1046 FILLER_10_101
*1047 FILLER_10_122
*1048 FILLER_10_128
*1049 FILLER_10_173
*1050 FILLER_10_195
*1051 FILLER_10_234
*1052 FILLER_10_256
*1053 FILLER_11_2
*1054 FILLER_11_24
*1055 FILLER_11_46
*1056 FILLER_11_68
*1057 FILLER_11_90
*1058 FILLER_11_92
*1059 FILLER_11_102
*1060 FILLER_11_112
*1061 FILLER_11_136
*1062 FILLER_11_158
*1063 FILLER_11_180
*1064 FILLER_11_202
*1065 FILLER_11_212
*1066 FILLER_11_223
*1067 FILLER_11_245
*1068 FILLER_11_255
*1069 FILLER_11_257
*1070 FILLER_12_2
*1071 FILLER_12_24
*1072 FILLER_12_46
*1073 FILLER_12_68
*1074 FILLER_12_76
*1075 FILLER_12_84
*1076 FILLER_12_92
*1077 FILLER_12_124
*1078 FILLER_12_146
*1079 FILLER_12_168
*1080 FILLER_12_190
*1081 FILLER_12_218
*1082 FILLER_12_240
*1083 FILLER_12_254
*1084 FILLER_13_2
*1085 FILLER_13_24
*1086 FILLER_13_54
*1087 FILLER_13_68
*1088 FILLER_13_76
*1089 FILLER_13_86
*1090 FILLER_13_95
*1091 FILLER_13_117
*1092 FILLER_13_139
*1093 FILLER_13_149
*1094 FILLER_13_151
*1095 FILLER_13_158
*1096 FILLER_13_164
*1097 FILLER_13_189
*1098 FILLER_13_191
*1099 FILLER_13_218
*1100 FILLER_13_240
*1101 FILLER_13_254
*1102 FILLER_14_2
*1103 FILLER_14_8
*1104 FILLER_14_12
*1105 FILLER_14_42
*1106 FILLER_14_48
*1107 FILLER_14_50
*1108 FILLER_14_54
*1109 FILLER_14_60
*1110 FILLER_14_62
*1111 FILLER_14_74
*1112 FILLER_14_96
*1113 FILLER_14_116
*1114 FILLER_14_124
*1115 FILLER_14_146
*1116 FILLER_14_152
*1117 FILLER_14_159
*1118 FILLER_14_181
*1119 FILLER_14_183
*1120 FILLER_14_196
*1121 FILLER_14_206
*1122 FILLER_14_208
*1123 FILLER_14_218
*1124 FILLER_14_224
*1125 FILLER_14_231
*1126 FILLER_14_253
*1127 FILLER_14_257
*1128 FILLER_15_2
*1129 FILLER_15_24
*1130 FILLER_15_30
*1131 FILLER_15_54
*1132 FILLER_15_60
*1133 FILLER_15_71
*1134 FILLER_15_77
*1135 FILLER_15_84
*1136 FILLER_15_113
*1137 FILLER_15_127
*1138 FILLER_15_131
*1139 FILLER_15_147
*1140 FILLER_15_169
*1141 FILLER_15_189
*1142 FILLER_15_196
*1143 FILLER_15_218
*1144 FILLER_15_237
*1145 FILLER_15_251
*1146 FILLER_15_257
*1147 FILLER_16_2
*1148 FILLER_16_36
*1149 FILLER_16_58
*1150 FILLER_16_68
*1151 FILLER_16_77
*1152 FILLER_16_79
*1153 FILLER_16_95
*1154 FILLER_16_117
*1155 FILLER_16_127
*1156 FILLER_16_129
*1157 FILLER_16_144
*1158 FILLER_16_148
*1159 FILLER_16_170
*1160 FILLER_16_174
*1161 FILLER_16_193
*1162 FILLER_16_197
*1163 FILLER_16_220
*1164 FILLER_16_242
*1165 FILLER_16_256
*1166 FILLER_17_2
*1167 FILLER_17_17
*1168 FILLER_17_39
*1169 FILLER_17_61
*1170 FILLER_17_83
*1171 FILLER_17_85
*1172 FILLER_17_93
*1173 FILLER_17_115
*1174 FILLER_17_125
*1175 FILLER_17_130
*1176 FILLER_17_132
*1177 FILLER_17_143
*1178 FILLER_17_165
*1179 FILLER_17_171
*1180 FILLER_17_178
*1181 FILLER_17_180
*1182 FILLER_17_190
*1183 FILLER_17_204
*1184 FILLER_17_239
*1185 FILLER_17_249
*1186 FILLER_17_256
*1187 FILLER_18_2
*1188 FILLER_18_24
*1189 FILLER_18_46
*1190 FILLER_18_68
*1191 FILLER_18_78
*1192 FILLER_18_88
*1193 FILLER_18_110
*1194 FILLER_18_132
*1195 FILLER_18_139
*1196 FILLER_18_161
*1197 FILLER_18_178
*1198 FILLER_18_209
*1199 FILLER_18_231
*1200 FILLER_18_246
*1201 FILLER_18_256
*1202 FILLER_19_2
*1203 FILLER_19_24
*1204 FILLER_19_46
*1205 FILLER_19_68
*1206 FILLER_19_78
*1207 FILLER_19_87
*1208 FILLER_19_109
*1209 FILLER_19_131
*1210 FILLER_19_153
*1211 FILLER_19_174
*1212 FILLER_19_196
*1213 FILLER_19_210
*1214 FILLER_19_236
*1215 FILLER_20_2
*1216 FILLER_20_36
*1217 FILLER_20_38
*1218 FILLER_20_62
*1219 FILLER_20_72
*1220 FILLER_20_83
*1221 FILLER_20_97
*1222 FILLER_20_104
*1223 FILLER_20_126
*1224 FILLER_20_148
*1225 FILLER_20_154
*1226 FILLER_20_156
*1227 FILLER_20_163
*1228 FILLER_20_185
*1229 FILLER_20_218
*1230 FILLER_20_222
*1231 FILLER_20_244
*1232 FILLER_21_7
*1233 FILLER_21_26
*1234 FILLER_21_38
*1235 FILLER_21_62
*1236 FILLER_21_84
*1237 FILLER_21_110
*1238 FILLER_21_114
*1239 FILLER_21_123
*1240 FILLER_21_127
*1241 FILLER_21_144
*1242 FILLER_21_166
*1243 FILLER_21_176
*1244 FILLER_21_189
*1245 FILLER_21_202
*1246 FILLER_21_212
*1247 FILLER_21_225
*1248 FILLER_21_240
*1249 FILLER_21_254
*1250 FILLER_22_2
*1251 FILLER_22_12
*1252 FILLER_22_18
*1253 FILLER_22_40
*1254 FILLER_22_62
*1255 FILLER_22_76
*1256 FILLER_22_95
*1257 FILLER_22_104
*1258 FILLER_22_123
*1259 FILLER_22_145
*1260 FILLER_22_151
*1261 FILLER_22_153
*1262 FILLER_22_168
*1263 FILLER_22_205
*1264 FILLER_22_211
*1265 FILLER_22_213
*1266 FILLER_22_224
*1267 FILLER_22_246
*1268 FILLER_22_256
*1269 FILLER_23_2
*1270 FILLER_23_24
*1271 FILLER_23_46
*1272 FILLER_23_68
*1273 FILLER_23_94
*1274 FILLER_23_118
*1275 FILLER_23_132
*1276 FILLER_23_140
*1277 FILLER_23_167
*1278 FILLER_23_181
*1279 FILLER_23_200
*1280 FILLER_23_222
*1281 FILLER_23_228
*1282 FILLER_23_236
*1283 FILLER_23_252
*1284 FILLER_24_2
*1285 FILLER_24_24
*1286 FILLER_24_46
*1287 FILLER_24_68
*1288 FILLER_24_85
*1289 FILLER_24_99
*1290 FILLER_24_106
*1291 FILLER_24_120
*1292 FILLER_24_138
*1293 FILLER_24_160
*1294 FILLER_24_174
*1295 FILLER_24_180
*1296 FILLER_24_196
*1297 FILLER_24_218
*1298 FILLER_24_228
*1299 FILLER_24_230
*1300 FILLER_24_236
*1301 FILLER_24_250
*1302 FILLER_24_252
*1303 FILLER_25_2
*1304 FILLER_25_16
*1305 FILLER_25_20
*1306 FILLER_25_27
*1307 FILLER_25_29
*1308 FILLER_25_64
*1309 FILLER_25_70
*1310 FILLER_25_88
*1311 FILLER_25_110
*1312 FILLER_25_120
*1313 FILLER_25_122
*1314 FILLER_25_129
*1315 FILLER_25_151
*1316 FILLER_25_173
*1317 FILLER_25_195
*1318 FILLER_25_217
*1319 FILLER_25_219
*1320 FILLER_25_240
*1321 FILLER_25_254
*1322 FILLER_26_7
*1323 FILLER_26_13
*1324 FILLER_26_20
*1325 FILLER_26_40
*1326 FILLER_26_64
*1327 FILLER_26_70
*1328 FILLER_26_72
*1329 FILLER_26_80
*1330 FILLER_26_94
*1331 FILLER_26_100
*1332 FILLER_26_107
*1333 FILLER_26_117
*1334 FILLER_26_134
*1335 FILLER_26_156
*1336 FILLER_26_170
*1337 FILLER_26_174
*1338 FILLER_26_181
*1339 FILLER_26_195
*1340 FILLER_26_201
*1341 FILLER_26_213
*1342 FILLER_26_217
*1343 FILLER_26_230
*1344 FILLER_26_252
*1345 FILLER_27_2
*1346 FILLER_27_24
*1347 FILLER_27_30
*1348 FILLER_27_52
*1349 FILLER_27_74
*1350 FILLER_27_102
*1351 FILLER_27_110
*1352 FILLER_27_112
*1353 FILLER_27_128
*1354 FILLER_27_137
*1355 FILLER_27_159
*1356 FILLER_27_173
*1357 FILLER_27_181
*1358 FILLER_27_183
*1359 FILLER_27_192
*1360 FILLER_27_199
*1361 FILLER_27_221
*1362 FILLER_27_230
*1363 FILLER_27_234
*1364 FILLER_27_241
*1365 FILLER_27_255
*1366 FILLER_27_257
*1367 FILLER_28_7
*1368 FILLER_28_29
*1369 FILLER_28_51
*1370 FILLER_28_61
*1371 FILLER_28_63
*1372 FILLER_28_79
*1373 FILLER_28_100
*1374 FILLER_28_107
*1375 FILLER_28_109
*1376 FILLER_28_139
*1377 FILLER_28_161
*1378 FILLER_28_200
*1379 FILLER_28_222
*1380 FILLER_28_228
*1381 FILLER_28_230
*1382 FILLER_28_240
*1383 FILLER_28_246
*1384 FILLER_28_252
*1385 FILLER_29_2
*1386 FILLER_29_12
*1387 FILLER_29_18
*1388 FILLER_29_24
*1389 FILLER_29_26
*1390 FILLER_29_32
*1391 FILLER_29_54
*1392 FILLER_29_76
*1393 FILLER_29_98
*1394 FILLER_29_120
*1395 FILLER_29_127
*1396 FILLER_29_149
*1397 FILLER_29_153
*1398 FILLER_29_160
*1399 FILLER_29_188
*1400 FILLER_29_199
*1401 FILLER_29_201
*1402 FILLER_29_211
*1403 FILLER_29_228
*1404 FILLER_29_230
*1405 FILLER_29_237
*1406 FILLER_29_251
*1407 FILLER_29_257
*1408 FILLER_30_2
*1409 FILLER_30_16
*1410 FILLER_30_22
*1411 FILLER_30_41
*1412 FILLER_30_48
*1413 FILLER_30_70
*1414 FILLER_30_92
*1415 FILLER_30_102
*1416 FILLER_30_115
*1417 FILLER_30_137
*1418 FILLER_30_143
*1419 FILLER_30_145
*1420 FILLER_30_152
*1421 FILLER_30_166
*1422 FILLER_30_190
*1423 FILLER_30_199
*1424 FILLER_30_203
*1425 FILLER_30_210
*1426 FILLER_30_222
*1427 FILLER_30_226
*1428 FILLER_30_234
*1429 FILLER_30_256
*1430 FILLER_31_2
*1431 FILLER_31_8
*1432 FILLER_31_30
*1433 FILLER_31_34
*1434 FILLER_31_55
*1435 FILLER_31_69
*1436 FILLER_31_73
*1437 FILLER_31_91
*1438 FILLER_31_103
*1439 FILLER_31_105
*1440 FILLER_31_113
*1441 FILLER_31_135
*1442 FILLER_31_145
*1443 FILLER_31_152
*1444 FILLER_31_159
*1445 FILLER_31_181
*1446 FILLER_31_190
*1447 FILLER_31_204
*1448 FILLER_31_238
*1449 FILLER_31_252
*1450 FILLER_32_2
*1451 FILLER_32_24
*1452 FILLER_32_39
*1453 FILLER_32_61
*1454 FILLER_32_85
*1455 FILLER_32_92
*1456 FILLER_32_114
*1457 FILLER_32_120
*1458 FILLER_32_122
*1459 FILLER_32_139
*1460 FILLER_32_149
*1461 FILLER_32_163
*1462 FILLER_32_185
*1463 FILLER_32_191
*1464 FILLER_32_201
*1465 FILLER_32_223
*1466 FILLER_32_245
*1467 FILLER_32_255
*1468 FILLER_32_257
*1469 FILLER_33_2
*1470 FILLER_33_24
*1471 FILLER_33_34
*1472 FILLER_33_36
*1473 FILLER_33_44
*1474 FILLER_33_61
*1475 FILLER_33_91
*1476 FILLER_33_113
*1477 FILLER_33_135
*1478 FILLER_33_152
*1479 FILLER_33_174
*1480 FILLER_33_188
*1481 FILLER_33_190
*1482 FILLER_33_198
*1483 FILLER_33_204
*1484 FILLER_33_216
*1485 FILLER_33_238
*1486 FILLER_33_247
*1487 FILLER_34_2
*1488 FILLER_34_24
*1489 FILLER_34_38
*1490 FILLER_34_40
*1491 FILLER_34_61
*1492 FILLER_34_83
*1493 FILLER_34_105
*1494 FILLER_34_136
*1495 FILLER_34_158
*1496 FILLER_34_180
*1497 FILLER_34_190
*1498 FILLER_34_192
*1499 FILLER_34_199
*1500 FILLER_34_221
*1501 FILLER_34_235
*1502 FILLER_34_242
*1503 FILLER_34_256
*1504 FILLER_35_2
*1505 FILLER_35_24
*1506 FILLER_35_46
*1507 FILLER_35_68
*1508 FILLER_35_90
*1509 FILLER_35_112
*1510 FILLER_35_122
*1511 FILLER_35_134
*1512 FILLER_35_156
*1513 FILLER_35_170
*1514 FILLER_35_180
*1515 FILLER_35_190
*1516 FILLER_35_199
*1517 FILLER_35_221
*1518 FILLER_35_243
*1519 FILLER_36_2
*1520 FILLER_36_12
*1521 FILLER_36_18
*1522 FILLER_36_24
*1523 FILLER_36_26
*1524 FILLER_36_32
*1525 FILLER_36_54
*1526 FILLER_36_76
*1527 FILLER_36_94
*1528 FILLER_36_99
*1529 FILLER_36_109
*1530 FILLER_36_127
*1531 FILLER_36_149
*1532 FILLER_36_159
*1533 FILLER_36_161
*1534 FILLER_36_192
*1535 FILLER_36_198
*1536 FILLER_36_209
*1537 FILLER_36_215
*1538 FILLER_36_217
*1539 FILLER_36_230
*1540 FILLER_36_236
*1541 FILLER_36_238
*1542 FILLER_36_244
*1543 FILLER_37_2
*1544 FILLER_37_24
*1545 FILLER_37_46
*1546 FILLER_37_68
*1547 FILLER_37_82
*1548 FILLER_37_126
*1549 FILLER_37_140
*1550 FILLER_37_142
*1551 FILLER_37_163
*1552 FILLER_37_169
*1553 FILLER_37_191
*1554 FILLER_37_213
*1555 FILLER_37_219
*1556 FILLER_37_221
*1557 FILLER_37_228
*1558 FILLER_37_234
*1559 FILLER_37_244
*1560 FILLER_38_2
*1561 FILLER_38_24
*1562 FILLER_38_46
*1563 FILLER_38_68
*1564 FILLER_38_90
*1565 FILLER_38_112
*1566 FILLER_38_120
*1567 FILLER_38_138
*1568 FILLER_38_144
*1569 FILLER_38_146
*1570 FILLER_38_167
*1571 FILLER_38_181
*1572 FILLER_38_193
*1573 FILLER_38_199
*1574 FILLER_38_201
*1575 FILLER_38_222
*1576 FILLER_38_224
*1577 FILLER_38_245
*1578 FILLER_38_255
*1579 FILLER_38_257
*1580 FILLER_39_2
*1581 FILLER_39_24
*1582 FILLER_39_46
*1583 FILLER_39_68
*1584 FILLER_39_90
*1585 FILLER_39_112
*1586 FILLER_39_134
*1587 FILLER_39_154
*1588 FILLER_39_176
*1589 FILLER_39_198
*1590 FILLER_39_220
*1591 FILLER_39_242
*1592 FILLER_39_256
*1593 FILLER_40_2
*1594 FILLER_40_24
*1595 FILLER_40_46
*1596 FILLER_40_68
*1597 FILLER_40_90
*1598 FILLER_40_112
*1599 FILLER_40_126
*1600 FILLER_40_132
*1601 FILLER_40_138
*1602 FILLER_40_160
*1603 FILLER_40_182
*1604 FILLER_40_204
*1605 FILLER_40_226
*1606 FILLER_40_248
*1607 FILLER_41_2
*1608 FILLER_41_24
*1609 FILLER_41_46
*1610 FILLER_41_68
*1611 FILLER_41_90
*1612 FILLER_41_112
*1613 FILLER_41_134
*1614 FILLER_41_156
*1615 FILLER_41_178
*1616 FILLER_41_200
*1617 FILLER_41_222
*1618 FILLER_41_244
*1619 FILLER_42_2
*1620 FILLER_42_24
*1621 FILLER_42_46
*1622 FILLER_42_68
*1623 FILLER_42_90
*1624 FILLER_42_112
*1625 FILLER_42_134
*1626 FILLER_42_156
*1627 FILLER_42_178
*1628 FILLER_42_200
*1629 FILLER_42_222
*1630 FILLER_42_244
*1631 FILLER_43_2
*1632 FILLER_43_24
*1633 FILLER_43_46
*1634 FILLER_43_68
*1635 FILLER_43_90
*1636 FILLER_43_112
*1637 FILLER_43_126
*1638 FILLER_43_130
*1639 FILLER_43_136
*1640 FILLER_43_158
*1641 FILLER_43_180
*1642 FILLER_43_202
*1643 FILLER_43_224
*1644 FILLER_43_246
*1645 FILLER_43_256
*1646 FILLER_44_2
*1647 FILLER_44_24
*1648 FILLER_44_46
*1649 FILLER_44_68
*1650 FILLER_44_90
*1651 FILLER_44_112
*1652 FILLER_44_134
*1653 FILLER_44_148
*1654 FILLER_44_157
*1655 FILLER_44_179
*1656 FILLER_44_201
*1657 FILLER_44_223
*1658 FILLER_44_245
*1659 FILLER_44_255
*1660 FILLER_44_257
*1661 FILLER_45_2
*1662 FILLER_45_24
*1663 FILLER_45_46
*1664 FILLER_45_68
*1665 FILLER_45_90
*1666 FILLER_45_112
*1667 FILLER_45_134
*1668 FILLER_45_156
*1669 FILLER_45_178
*1670 FILLER_45_200
*1671 FILLER_45_222
*1672 FILLER_45_244
*1673 FILLER_46_2
*1674 FILLER_46_24
*1675 FILLER_46_46
*1676 FILLER_46_68
*1677 FILLER_46_90
*1678 FILLER_46_112
*1679 FILLER_46_134
*1680 FILLER_46_156
*1681 FILLER_46_178
*1682 FILLER_46_200
*1683 FILLER_46_222
*1684 FILLER_46_244
*1685 FILLER_47_2
*1686 FILLER_47_24
*1687 FILLER_47_46
*1688 FILLER_47_68
*1689 FILLER_47_90
*1690 FILLER_47_112
*1691 FILLER_47_134
*1692 FILLER_47_156
*1693 FILLER_47_178
*1694 FILLER_47_200
*1695 FILLER_47_222
*1696 FILLER_47_244
*1697 FILLER_48_2
*1698 FILLER_48_24
*1699 FILLER_48_46
*1700 FILLER_48_68
*1701 FILLER_48_90
*1702 FILLER_48_96
*1703 FILLER_48_98
*1704 FILLER_48_104
*1705 FILLER_48_126
*1706 FILLER_48_148
*1707 FILLER_48_170
*1708 FILLER_48_192
*1709 FILLER_48_214
*1710 FILLER_48_236
*1711 FILLER_49_2
*1712 FILLER_49_24
*1713 FILLER_49_46
*1714 FILLER_49_68
*1715 FILLER_49_90
*1716 FILLER_49_112
*1717 FILLER_49_134
*1718 FILLER_49_156
*1719 FILLER_49_178
*1720 FILLER_49_200
*1721 FILLER_49_222
*1722 FILLER_49_244
*1723 FILLER_50_2
*1724 FILLER_50_24
*1725 FILLER_50_46
*1726 FILLER_50_68
*1727 FILLER_50_90
*1728 FILLER_50_112
*1729 FILLER_50_134
*1730 FILLER_50_156
*1731 FILLER_50_178
*1732 FILLER_50_200
*1733 FILLER_50_222
*1734 FILLER_50_244
*1735 FILLER_51_2
*1736 FILLER_51_24
*1737 FILLER_51_46
*1738 FILLER_51_68
*1739 FILLER_51_90
*1740 FILLER_51_112
*1741 FILLER_51_134
*1742 FILLER_51_156
*1743 FILLER_51_178
*1744 FILLER_51_200
*1745 FILLER_51_222
*1746 FILLER_51_244

*PORTS
clk I
req_msg[0] I
req_msg[10] I
req_msg[11] I
req_msg[12] I
req_msg[13] I
req_msg[14] I
req_msg[15] I
req_msg[16] I
req_msg[17] I
req_msg[18] I
req_msg[19] I
req_msg[1] I
req_msg[20] I
req_msg[21] I
req_msg[22] I
req_msg[23] I
req_msg[24] I
req_msg[25] I
req_msg[26] I
req_msg[27] I
req_msg[28] I
req_msg[29] I
req_msg[2] I
req_msg[30] I
req_msg[31] I
req_msg[3] I
req_msg[4] I
req_msg[5] I
req_msg[6] I
req_msg[7] I
req_msg[8] I
req_msg[9] I
req_rdy O
req_val I
reset I
resp_msg[0] O
resp_msg[10] O
resp_msg[11] O
resp_msg[12] O
resp_msg[13] O
resp_msg[14] O
resp_msg[15] O
resp_msg[1] O
resp_msg[2] O
resp_msg[3] O
resp_msg[4] O
resp_msg[5] O
resp_msg[6] O
resp_msg[7] O
resp_msg[8] O
resp_msg[9] O
resp_rdy I
resp_val O

*D_NET *1 2.64129e-05
*CONN
*I *678:D I *D DFFHQNx1_ASAP7_75t_SL
*I *465:Y O *D AO221x1_ASAP7_75t_SL
*CAP
1 *678:D 6.85257e-06
2 *465:Y 4.50432e-06
3 *1:8 1.13569e-05
4 *1:8 *355:29 3.69908e-06
*RES
1 *465:Y *1:8 37.779 
2 *1:8 *678:D 37.0741 
*END

*D_NET *2 5.61346e-05
*CONN
*I *679:D I *D DFFHQNx1_ASAP7_75t_SL
*I *464:Y O *D OA21x2_ASAP7_75t_SL
*CAP
1 *679:D 1.64455e-05
2 *464:Y 8.6383e-06
3 *2:8 2.50838e-05
4 *2:8 *457:A 4.03043e-07
5 *2:8 *20:115 5.53343e-06
6 *2:8 *21:10 3.05118e-08
*RES
1 *464:Y *2:8 40.0317 
2 *2:8 *679:D 41.3527 
*END

*D_NET *3 4.50624e-05
*CONN
*I *680:D I *D DFFHQNx1_ASAP7_75t_SL
*I *455:Y O *D NOR2x1_ASAP7_75t_SL
*CAP
1 *680:D 8.60875e-06
2 *455:Y 5.76288e-06
3 *3:8 1.43716e-05
4 *680:D *678:CLK 1.5804e-05
5 *3:8 *20:10 5.15209e-07
*RES
1 *455:Y *3:8 37.779 
2 *3:8 *680:D 39.2134 
*END

*D_NET *4 0.000259616
*CONN
*I *860:A I *D BUFx3_ASAP7_75t_SL
*I *456:A I *D NAND2x1_ASAP7_75t_SL
*I *678:QN O *D DFFHQNx1_ASAP7_75t_SL
*CAP
1 *860:A 0
2 *456:A 0
3 *678:QN 2.67446e-05
4 *4:18 1.75465e-05
5 *4:12 3.56223e-05
6 *4:8 4.48203e-05
7 *4:12 *402:307 2.22736e-06
8 *4:18 *20:98 1.96943e-05
9 *4:18 *20:113 1.6528e-05
10 *4:18 *71:20 7.29357e-05
11 *4:18 *356:16 1.66587e-05
12 *4:18 *402:6 6.83843e-06
*RES
1 *678:QN *4:8 46.701 
2 *4:8 *4:12 30.716 
3 *4:12 *4:18 44.7595 
4 *4:18 *456:A 34.4 
5 *4:12 *860:A 17.2 
*END

*D_NET *5 0.000633012
*CONN
*I *444:D I *D AND4x1_ASAP7_75t_SL
*I *411:A I *D INVx1_ASAP7_75t_SL
*I *697:QN O *D DFFHQNx1_ASAP7_75t_SL
*CAP
1 *444:D 2.67453e-06
2 *411:A 5.47117e-06
3 *697:QN 5.12302e-05
4 *5:25 6.38423e-05
5 *5:23 6.11677e-05
6 *5:14 3.50251e-05
7 *5:12 3.67438e-05
8 *5:6 5.84201e-05
9 *5:12 *213:200 8.361e-06
10 *5:12 *216:18 4.83862e-06
11 *5:14 *216:24 7.6115e-05
12 *5:14 *279:242 1.46661e-05
13 *5:14 *302:10 1.04475e-06
14 *5:25 *34:10 0
15 *5:25 *37:34 4.82252e-05
16 *5:25 *276:257 0.00012917
17 *5:25 *276:280 1.61287e-05
18 *5:25 *279:236 0
19 *5:25 *279:250 0
20 *5:25 *288:10 1.9888e-05
*RES
1 *697:QN *5:6 39.1278 
2 *5:6 *5:12 41.158 
3 *5:12 *5:14 22.9975 
4 *5:14 *411:A 19.8741 
5 *5:14 *5:23 17.2 
6 *5:23 *5:25 68.1431 
7 *5:25 *444:D 35.4697 
*END

*D_NET *6 1.25175e-05
*CONN
*I *536:A I *D INVx1_ASAP7_75t_SL
*I *696:QN O *D DFFHQNx1_ASAP7_75t_SL
*CAP
1 *536:A 5.75326e-06
2 *696:QN 5.75326e-06
3 *536:A *274:12 1.01102e-06
*RES
1 *696:QN *536:A 37.0741 
*END

*D_NET *7 2.54524e-05
*CONN
*I *537:A I *D INVx1_ASAP7_75t_SL
*I *695:QN O *D DFFHQNx1_ASAP7_75t_SL
*CAP
1 *537:A 0
2 *695:QN 7.62262e-06
3 *7:10 7.62262e-06
4 *7:10 *279:119 1.02072e-05
*RES
1 *695:QN *7:10 39.3835 
2 *7:10 *537:A 34.4 
*END

*D_NET *8 2.41627e-05
*CONN
*I *538:A I *D INVx1_ASAP7_75t_SL
*I *694:QN O *D DFFHQNx1_ASAP7_75t_SL
*CAP
1 *538:A 6.16231e-06
2 *694:QN 5.91905e-06
3 *8:8 1.20814e-05
4 *538:A *299:8 0
*RES
1 *694:QN *8:8 37.779 
2 *8:8 *538:A 37.0741 
*END

*D_NET *9 1.10087e-05
*CONN
*I *539:A I *D INVx1_ASAP7_75t_SL
*I *693:QN O *D DFFHQNx1_ASAP7_75t_SL
*CAP
1 *539:A 5.50436e-06
2 *693:QN 5.50436e-06
*RES
1 *693:QN *539:A 37.0741 
*END

*D_NET *10 1.10087e-05
*CONN
*I *540:A I *D INVx1_ASAP7_75t_SL
*I *692:QN O *D DFFHQNx1_ASAP7_75t_SL
*CAP
1 *540:A 5.50436e-06
2 *692:QN 5.50436e-06
*RES
1 *692:QN *540:A 37.0741 
*END

*D_NET *11 2.97294e-05
*CONN
*I *541:A I *D INVx1_ASAP7_75t_SL
*I *691:QN O *D DFFHQNx1_ASAP7_75t_SL
*CAP
1 *541:A 0
2 *691:QN 1.48647e-05
3 *11:10 1.48647e-05
4 *11:10 *146:102 0
*RES
1 *691:QN *11:10 41.5228 
2 *11:10 *541:A 34.4 
*END

*D_NET *12 1.13607e-05
*CONN
*I *542:A I *D INVx1_ASAP7_75t_SL
*I *690:QN O *D DFFHQNx1_ASAP7_75t_SL
*CAP
1 *542:A 5.68035e-06
2 *690:QN 5.68035e-06
3 *542:A *149:69 0
*RES
1 *690:QN *542:A 37.0741 
*END

*D_NET *13 1.1888e-05
*CONN
*I *543:A I *D INVx1_ASAP7_75t_SL
*I *689:QN O *D DFFHQNx1_ASAP7_75t_SL
*CAP
1 *543:A 5.94402e-06
2 *689:QN 5.94402e-06
*RES
1 *689:QN *543:A 37.0741 
*END

*D_NET *14 0.000138457
*CONN
*I *592:A I *D NAND2x1_ASAP7_75t_SL
*I *545:A I *D INVx1_ASAP7_75t_SL
*I *687:QN O *D DFFHQNx1_ASAP7_75t_SL
*CAP
1 *592:A 0
2 *545:A 2.66828e-05
3 *687:QN 3.14225e-05
4 *14:12 3.51348e-05
5 *14:8 3.98746e-05
6 *545:A *292:6 5.34278e-06
*RES
1 *687:QN *14:8 48.8403 
2 *14:8 *14:12 21.7053 
3 *14:12 *545:A 33.7796 
4 *14:12 *592:A 17.2 
*END

*D_NET *15 0.000150191
*CONN
*I *587:A I *D NAND2x1_ASAP7_75t_SL
*I *546:A I *D INVx1_ASAP7_75t_SL
*I *686:QN O *D DFFHQNx1_ASAP7_75t_SL
*CAP
1 *587:A 0
2 *546:A 1.66663e-05
3 *686:QN 1.68861e-05
4 *15:14 3.6412e-05
5 *15:8 3.66318e-05
6 *546:A *291:6 5.17782e-06
7 *15:14 *210:218 3.84173e-05
8 *15:14 *213:240 0
9 *15:14 *213:251 0
*RES
1 *686:QN *15:8 41.3527 
2 *15:8 *15:14 33.8966 
3 *15:14 *546:A 27.3617 
4 *15:14 *587:A 17.2 
*END

*D_NET *16 0.000130214
*CONN
*I *547:A I *D INVx1_ASAP7_75t_SL
*I *585:A1 I *D AOI22x1_ASAP7_75t_SL
*I *685:QN O *D DFFHQNx1_ASAP7_75t_SL
*CAP
1 *547:A 1.03982e-05
2 *585:A1 8.09866e-06
3 *685:QN 6.06196e-06
4 *16:18 2.40722e-05
5 *16:10 2.63717e-05
6 *16:8 6.06196e-06
7 *547:A *235:14 2.66992e-06
8 *585:A1 *583:A1 1.23408e-05
9 *585:A1 *583:A2 1.96943e-05
10 *585:A1 *236:6 8.99409e-06
11 *16:8 *31:59 2.16262e-06
12 *16:8 *76:8 0
13 *16:18 *583:A1 5.19552e-07
14 *16:18 *583:A2 6.7842e-07
15 *16:18 *31:59 0
16 *16:18 *76:8 0
17 *16:18 *149:105 0
18 *16:18 *235:14 2.0895e-06
*RES
1 *685:QN *16:8 37.779 
2 *16:8 *16:10 17.2 
3 *16:10 *16:18 43.1556 
4 *16:18 *585:A1 27.3617 
5 *16:10 *547:A 22.0134 
*END

*D_NET *17 1.21696e-05
*CONN
*I *548:A I *D INVx1_ASAP7_75t_SL
*I *684:QN O *D DFFHQNx1_ASAP7_75t_SL
*CAP
1 *548:A 6.08481e-06
2 *684:QN 6.08481e-06
3 *548:A *398:103 0
*RES
1 *684:QN *548:A 37.0741 
*END

*D_NET *18 0.000341781
*CONN
*I *570:A1 I *D AOI22x1_ASAP7_75t_SL
*I *549:A I *D INVx1_ASAP7_75t_SL
*I *683:QN O *D DFFHQNx1_ASAP7_75t_SL
*CAP
1 *570:A1 2.66836e-06
2 *549:A 5.97164e-06
3 *683:QN 3.21184e-05
4 *18:20 2.55287e-05
5 *18:16 3.999e-05
6 *18:10 3.31556e-05
7 *18:8 4.21727e-05
8 *549:A *567:A 1.35684e-06
9 *549:A *223:8 2.21283e-05
10 *549:A *402:340 1.82258e-05
11 *570:A1 *74:14 6.72009e-06
12 *570:A1 *149:141 0
13 *570:A1 *401:49 0
14 *18:10 *74:14 2.36401e-05
15 *18:10 *149:141 0
16 *18:10 *213:200 0
17 *18:20 *567:A 4.83862e-06
18 *18:20 *210:161 3.19287e-05
19 *18:20 *213:198 1.34466e-06
20 *18:20 *213:200 2.98814e-06
21 *18:20 *341:18 4.21657e-05
22 *18:20 *402:359 4.83862e-06
*RES
1 *683:QN *18:8 48.8403 
2 *18:8 *18:10 10.137 
3 *18:10 *18:16 45.6313 
4 *18:16 *18:20 44.232 
5 *18:20 *549:A 23.0831 
6 *18:10 *570:A1 37.2158 
*END

*D_NET *19 1.37929e-05
*CONN
*I *550:A I *D INVx1_ASAP7_75t_SL
*I *682:QN O *D DFFHQNx1_ASAP7_75t_SL
*CAP
1 *550:A 6.89645e-06
2 *682:QN 6.89645e-06
3 *550:A *287:14 0
*RES
1 *682:QN *550:A 37.0741 
*END

*D_NET *20 0.00306355
*CONN
*I *453:B I *D AO21x1_ASAP7_75t_SL
*I *637:B I *D AO21x1_ASAP7_75t_SL
*I *458:A I *D INVx1_ASAP7_75t_SL
*I *456:B I *D NAND2x1_ASAP7_75t_SL
*I *596:C I *D AND3x1_ASAP7_75t_SL
*I *617:C I *D AND3x1_ASAP7_75t_SL
*I *613:C I *D AND3x1_ASAP7_75t_SL
*I *460:B I *D AND2x2_ASAP7_75t_SL
*I *680:QN O *D DFFHQNx1_ASAP7_75t_SL
*CAP
1 *453:B 0
2 *637:B 0
3 *458:A 3.56648e-05
4 *456:B 0
5 *596:C 8.04363e-06
6 *617:C 2.72889e-06
7 *613:C 6.85064e-06
8 *460:B 0
9 *680:QN 0
10 *20:144 8.70413e-06
11 *20:129 0.000110791
12 *20:125 9.47207e-05
13 *20:123 3.29511e-05
14 *20:119 1.41641e-05
15 *20:115 6.89105e-05
16 *20:113 7.44731e-05
17 *20:98 1.24864e-05
18 *20:90 4.12303e-05
19 *20:79 2.01542e-05
20 *20:64 2.15643e-05
21 *20:60 3.82082e-05
22 *20:45 4.00377e-05
23 *20:43 2.13331e-05
24 *20:37 8.12514e-05
25 *20:28 0.000133598
26 *20:26 5.98652e-05
27 *20:24 0.000151543
28 *20:22 0.000163902
29 *20:16 0.000262401
30 *20:14 0.000409265
31 *20:12 0.000147113
32 *20:10 4.77523e-05
33 *20:4 6.14217e-05
34 *458:A *638:B 7.63254e-07
35 *458:A *147:10 0
36 *458:A *279:132 1.32074e-05
37 *596:C *402:22 1.96943e-05
38 *613:C *260:10 1.04475e-06
39 *613:C *260:18 5.85387e-06
40 *617:C *617:B 2.90209e-08
41 *20:10 *455:B 7.86436e-06
42 *20:10 *678:CLK 5.60592e-05
43 *20:10 *106:12 3.75158e-06
44 *20:10 *402:12 0
45 *20:14 *338:20 1.36141e-05
46 *20:14 *401:22 5.77223e-05
47 *20:16 *401:22 3.12984e-06
48 *20:22 *369:13 1.30801e-05
49 *20:24 *329:8 5.80001e-06
50 *20:28 *402:90 2.981e-05
51 *20:37 *653:A2 1.12894e-06
52 *20:37 *149:10 0
53 *20:37 *149:23 0
54 *20:37 *149:29 4.91471e-05
55 *20:37 *213:72 5.52807e-07
56 *20:37 *213:83 1.10561e-06
57 *20:37 *255:10 4.05601e-05
58 *20:37 *276:43 2.98783e-05
59 *20:37 *296:26 8.33296e-06
60 *20:37 *349:29 8.33296e-06
61 *20:37 *402:90 1.64764e-06
62 *20:37 *402:99 2.16024e-05
63 *20:37 *402:107 1.15945e-06
64 *20:37 *402:115 5.52807e-07
65 *20:43 *276:51 6.7842e-07
66 *20:43 *297:20 1.07377e-06
67 *20:45 *149:29 2.11712e-05
68 *20:45 *260:10 4.83862e-06
69 *20:45 *402:115 3.0215e-05
70 *20:45 *402:123 4.10928e-06
71 *20:45 *402:144 3.32524e-06
72 *20:60 *149:29 2.32216e-05
73 *20:60 *260:10 9.57164e-06
74 *20:60 *401:188 7.35063e-07
75 *20:60 *402:144 1.96989e-05
76 *20:64 *149:29 4.30125e-06
77 *20:64 *401:188 2.38501e-05
78 *20:79 *120:13 1.30801e-05
79 *20:79 *247:12 1.30255e-05
80 *20:79 *401:127 1.22836e-05
81 *20:90 *355:29 0
82 *20:90 *356:16 1.57573e-05
83 *20:98 *355:29 2.77657e-06
84 *20:98 *402:6 4.73041e-06
85 *20:113 *146:10 6.7842e-07
86 *20:113 *355:29 0
87 *20:113 *356:16 3.76935e-06
88 *20:115 *457:A 0
89 *20:115 *464:B 1.82602e-05
90 *20:115 *144:10 0
91 *20:115 *146:10 2.19685e-06
92 *20:115 *146:42 4.97342e-06
93 *20:115 *146:57 2.74606e-06
94 *20:115 *148:8 2.19341e-05
95 *20:115 *356:16 2.04143e-05
96 *20:119 *142:16 1.1199e-05
97 *20:119 *144:8 1.36155e-06
98 *20:123 *142:16 2.80323e-06
99 *20:125 *453:A1 1.434e-05
100 *20:125 *133:20 5.69885e-06
101 *20:125 *133:22 6.6421e-06
102 *20:125 *149:105 0.000111779
103 *20:125 *213:8 3.93602e-06
104 *20:125 *213:149 6.62106e-06
105 *20:129 *638:B 2.96818e-06
106 *20:144 *278:8 3.95845e-06
107 *20:144 *279:8 0
108 *2:8 *20:115 5.53343e-06
109 *3:8 *20:10 5.15209e-07
110 *4:18 *20:98 1.96943e-05
111 *4:18 *20:113 1.6528e-05
*RES
1 *680:QN *20:4 17.2 
2 *20:4 *20:10 45.6061 
3 *20:10 *20:12 17.2 
4 *20:12 *20:14 60.4352 
5 *20:14 *20:16 87.1765 
6 *20:16 *20:22 43.4107 
7 *20:22 *20:24 54.0173 
8 *20:24 *20:26 17.2 
9 *20:26 *20:28 54.0639 
10 *20:28 *460:B 34.4 
11 *20:28 *20:37 77.7169 
12 *20:37 *20:43 38.1438 
13 *20:43 *20:45 17.4581 
14 *20:45 *613:C 38.1438 
15 *20:45 *20:60 39.5849 
16 *20:60 *20:64 35.7845 
17 *20:64 *617:C 35.4697 
18 *20:14 *20:79 47.3528 
19 *20:79 *596:C 23.0831 
20 *20:4 *20:90 29.5897 
21 *20:90 *20:98 48.1674 
22 *20:98 *456:B 34.4 
23 *20:90 *20:113 47.1544 
24 *20:113 *20:115 58.5693 
25 *20:115 *20:119 25.2224 
26 *20:119 *20:123 19.8741 
27 *20:123 *20:125 37.7321 
28 *20:125 *20:129 45.5457 
29 *20:129 *458:A 32.7099 
30 *20:129 *20:144 39.975 
31 *20:144 *637:B 17.2 
32 *20:119 *453:B 17.2 
*END

*D_NET *21 0.000103208
*CONN
*I *462:B I *D AOI21x1_ASAP7_75t_SL
*I *457:A I *D NOR2x1_ASAP7_75t_SL
*I *679:QN O *D DFFHQNx1_ASAP7_75t_SL
*CAP
1 *462:B 0
2 *457:A 9.11364e-06
3 *679:QN 3.05737e-05
4 *21:10 1.90214e-05
5 *21:8 4.04815e-05
6 *457:A *146:57 2.20128e-06
7 *457:A *149:122 7.47402e-07
8 *457:A *149:135 0
9 *457:A *355:29 0
10 *21:10 *149:122 6.35292e-07
11 *2:8 *457:A 4.03043e-07
12 *2:8 *21:10 3.05118e-08
13 *20:115 *457:A 0
*RES
1 *679:QN *21:8 48.8403 
2 *21:8 *21:10 5.63166 
3 *21:10 *457:A 42.2843 
4 *21:10 *462:B 34.4 
*END

*D_NET *22 0.000607174
*CONN
*I *661:A I *D FAx1_ASAP7_75t_SL
*I *468:A2 I *D OA21x2_ASAP7_75t_SL
*I *473:A2 I *D OA211x2_ASAP7_75t_SL
*I *467:Y O *D INVx1_ASAP7_75t_SL
*CAP
1 *661:A 5.94771e-06
2 *468:A2 0
3 *473:A2 0
4 *467:Y 3.217e-05
5 *22:43 1.636e-05
6 *22:30 4.02511e-05
7 *22:24 9.29932e-05
8 *22:22 8.03122e-05
9 *22:18 6.43168e-05
10 *22:12 3.88131e-05
11 *22:6 4.46486e-05
12 *661:A *346:25 2.19685e-06
13 *661:A *347:10 0
14 *22:6 *23:6 6.86929e-06
15 *22:6 *279:156 3.09505e-05
16 *22:12 *402:255 0
17 *22:18 *598:C 5.85387e-06
18 *22:18 *210:20 2.56207e-05
19 *22:18 *247:12 8.06436e-06
20 *22:18 *401:127 3.47607e-06
21 *22:22 *598:C 3.1923e-06
22 *22:22 *303:36 1.9425e-05
23 *22:24 *68:8 3.65131e-06
24 *22:24 *303:36 6.44983e-06
25 *22:30 *67:21 1.47844e-05
26 *22:30 *67:30 1.48299e-05
27 *22:30 *68:8 9.83747e-06
28 *22:30 *210:44 1.54398e-05
29 *22:30 *213:44 1.09492e-05
30 *22:43 *68:12 9.76995e-06
31 *22:43 *69:8 0
*RES
1 *467:Y *22:6 41.2671 
2 *22:6 *22:12 43.4107 
3 *22:12 *22:18 39.8044 
4 *22:18 *22:22 34.8492 
5 *22:22 *22:24 17.6492 
6 *22:24 *22:30 43.9166 
7 *22:30 *473:A2 34.4 
8 *22:24 *22:43 45.6633 
9 *22:43 *468:A2 17.2 
10 *22:22 *661:A 38.9053 
*END

*D_NET *23 0.000233532
*CONN
*I *544:A I *D INVx1_ASAP7_75t_SL
*I *661:B I *D FAx1_ASAP7_75t_SL
*I *688:QN O *D DFFHQNx1_ASAP7_75t_SL
*CAP
1 *544:A 0
2 *661:B 7.58951e-06
3 *688:QN 4.30597e-05
4 *23:20 7.58951e-06
5 *23:18 4.92774e-05
6 *23:12 5.29225e-05
7 *23:6 4.67048e-05
8 *23:12 *247:12 3.95845e-06
9 *23:12 *313:8 3.79923e-06
10 *23:18 *276:168 3.06114e-06
11 *23:18 *293:8 5.79724e-07
12 *23:18 *293:12 5.68629e-06
13 *23:18 *293:14 6.7842e-07
14 *23:18 *346:10 0
15 *23:18 *346:25 0
16 *23:18 *347:10 0
17 *23:18 *400:63 1.75596e-06
18 *22:6 *23:6 6.86929e-06
*RES
1 *688:QN *23:6 38.0582 
2 *23:6 *23:12 37.779 
3 *23:12 *23:18 39.4679 
4 *23:18 *23:20 17.2 
5 *23:20 *661:B 3.47636 
6 *23:20 *544:A 17.2 
*END

*D_NET *24 0.00016594
*CONN
*I *417:A I *D INVx1_ASAP7_75t_SL
*I *466:B I *D XNOR2x2_ASAP7_75t_SL
*I *661:CON O *D FAx1_ASAP7_75t_SL
*CAP
1 *417:A 2.00088e-05
2 *466:B 4.60446e-06
3 *661:CON 3.42279e-05
4 *24:6 5.88412e-05
5 *417:A *418:A2 4.41457e-06
6 *466:B *466:A 3.65131e-06
7 *466:B *401:135 6.70433e-06
8 *24:6 *68:12 0
9 *24:6 *153:8 0
10 *24:6 *213:26 0
11 *24:6 *213:142 0
12 *24:6 *303:25 5.23062e-06
13 *24:6 *303:36 2.52629e-05
14 *24:6 *346:25 2.99383e-06
*RES
1 *661:CON *24:6 44.232 
2 *24:6 *466:B 39.2134 
3 *24:6 *417:A 44.9018 
*END

*D_NET *25 0.000727849
*CONN
*I *591:A I *D INVx1_ASAP7_75t_SL
*I *662:B I *D HAxp5_ASAP7_75t_SL
*I *443:B I *D AND4x1_ASAP7_75t_SL
*I *703:QN O *D DFFHQNx1_ASAP7_75t_SL
*CAP
1 *591:A 0
2 *662:B 0
3 *443:B 0
4 *703:QN 1.52618e-05
5 *25:40 1.11846e-05
6 *25:32 3.70604e-05
7 *25:28 5.64602e-05
8 *25:22 4.42982e-05
9 *25:16 3.96351e-05
10 *25:14 2.6994e-05
11 *25:10 1.63345e-05
12 *25:10 *397:70 1.12901e-05
13 *25:10 *397:109 1.37373e-05
14 *25:14 *292:6 3.90258e-06
15 *25:16 *28:36 3.56648e-06
16 *25:16 *292:6 2.01215e-05
17 *25:16 *292:12 7.33726e-05
18 *25:16 *397:76 2.92897e-06
19 *25:16 *397:78 6.15528e-07
20 *25:16 *402:412 0.000101234
21 *25:22 *27:10 0
22 *25:22 *28:32 8.72627e-06
23 *25:28 *26:6 1.40871e-05
24 *25:28 *31:16 4.26751e-07
25 *25:28 *402:420 3.33273e-05
26 *25:32 *141:14 7.46237e-05
27 *25:32 *276:329 8.58398e-05
28 *25:32 *401:311 0
29 *25:32 *402:434 6.4347e-06
30 *25:40 *443:D 3.65663e-06
31 *25:40 *31:53 3.62704e-06
32 *25:40 *134:8 8.06588e-06
33 *25:40 *134:10 0
34 *25:40 *147:73 1.10364e-05
*RES
1 *703:QN *25:10 44.9585 
2 *25:10 *25:14 18.2696 
3 *25:14 *25:16 33.1591 
4 *25:16 *25:22 43.4107 
5 *25:22 *25:28 40.348 
6 *25:28 *25:32 37.1123 
7 *25:32 *25:40 45.3604 
8 *25:40 *443:B 17.2 
9 *25:22 *662:B 17.2 
10 *25:14 *591:A 17.2 
*END

*D_NET *26 0.000262501
*CONN
*I *450:A1 I *D AOI21x1_ASAP7_75t_SL
*I *449:B I *D AND4x1_ASAP7_75t_SL
*I *441:B I *D OAI21x1_ASAP7_75t_SL
*I *662:CON O *D HAxp5_ASAP7_75t_SL
*CAP
1 *450:A1 0
2 *449:B 0
3 *441:B 1.25372e-05
4 *662:CON 2.21573e-05
5 *26:20 2.85708e-05
6 *26:18 1.94737e-05
7 *26:14 2.57877e-05
8 *26:6 4.45048e-05
9 *441:B *447:A1 8.33296e-06
10 *441:B *29:31 2.73812e-05
11 *441:B *132:8 8.65792e-06
12 *441:B *139:21 0
13 *26:6 *27:6 2.28199e-05
14 *26:14 *27:10 1.98924e-06
15 *26:14 *402:418 6.72662e-07
16 *26:18 *27:10 0
17 *26:18 *138:10 7.84037e-07
18 *26:20 *447:A1 1.47772e-05
19 *26:20 *27:12 0
20 *26:20 *32:18 2.4204e-06
21 *26:20 *138:10 7.54709e-06
22 *26:20 *139:21 0
23 *26:20 *140:8 0
24 *25:28 *26:6 1.40871e-05
*RES
1 *662:CON *26:6 35.9189 
2 *26:6 *26:14 47.0977 
3 *26:14 *26:18 20.0158 
4 *26:18 *26:20 16.3318 
5 *26:20 *441:B 48.3374 
6 *26:20 *449:B 34.4 
7 *26:18 *450:A1 34.4 
*END

*D_NET *27 0.000343722
*CONN
*I *447:B I *D AO21x1_ASAP7_75t_SL
*I *535:A I *D XNOR2x2_ASAP7_75t_SL
*I *441:A1 I *D OAI21x1_ASAP7_75t_SL
*I *662:SN O *D HAxp5_ASAP7_75t_SL
*CAP
1 *447:B 5.06645e-06
2 *535:A 3.01856e-05
3 *441:A1 2.8966e-06
4 *662:SN 3.72644e-05
5 *27:12 3.84311e-05
6 *27:10 3.64158e-05
7 *27:6 6.32649e-05
8 *441:A1 *30:47 1.692e-05
9 *441:A1 *139:21 7.54709e-06
10 *447:B *447:A2 4.32502e-06
11 *27:10 *28:32 0
12 *27:10 *30:47 8.33296e-06
13 *27:10 *138:10 0
14 *27:10 *140:8 2.52602e-05
15 *27:10 *402:418 0
16 *27:12 *30:47 2.68658e-05
17 *27:12 *139:21 2.83449e-06
18 *27:12 *140:8 1.33022e-05
19 *25:22 *27:10 0
20 *26:6 *27:6 2.28199e-05
21 *26:14 *27:10 1.98924e-06
22 *26:18 *27:10 0
23 *26:20 *27:12 0
*RES
1 *662:SN *27:6 33.7796 
2 *27:6 *27:10 39.1635 
3 *27:10 *27:12 9.01066 
4 *27:12 *441:A1 40.0317 
5 *27:12 *535:A 49.9099 
6 *27:10 *447:B 37.609 
*END

*D_NET *28 0.00104237
*CONN
*I *586:A I *D INVx1_ASAP7_75t_SL
*I *663:B I *D HAxp5_ASAP7_75t_SL
*I *443:C I *D AND4x1_ASAP7_75t_SL
*I *702:QN O *D DFFHQNx1_ASAP7_75t_SL
*CAP
1 *586:A 0
2 *663:B 0
3 *443:C 0
4 *702:QN 1.13459e-05
5 *28:42 6.76195e-06
6 *28:36 6.08609e-05
7 *28:34 5.4099e-05
8 *28:32 9.19164e-05
9 *28:30 9.48362e-05
10 *28:26 1.99429e-05
11 *28:20 0.000117226
12 *28:18 0.000104841
13 *28:12 5.0332e-05
14 *28:8 5.70393e-05
15 *28:8 *149:182 3.53222e-05
16 *28:8 *309:10 0
17 *28:12 *588:B 5.22376e-07
18 *28:12 *327:12 7.58265e-07
19 *28:18 *213:240 7.87863e-06
20 *28:18 *279:301 4.94291e-06
21 *28:20 *39:81 2.72225e-06
22 *28:20 *276:305 0
23 *28:20 *276:363 0
24 *28:26 *29:8 5.24059e-07
25 *28:26 *186:28 4.43863e-07
26 *28:26 *186:39 7.42096e-06
27 *28:30 *29:12 2.03526e-06
28 *28:32 *30:10 0
29 *28:32 *30:36 0
30 *28:32 *30:47 0
31 *28:32 *131:12 0
32 *28:32 *186:39 4.88493e-06
33 *28:32 *186:47 2.67352e-05
34 *28:32 *204:10 8.33296e-06
35 *28:32 *292:12 7.32095e-07
36 *28:36 *701:D 5.22376e-06
37 *28:36 *31:10 4.73041e-06
38 *28:36 *31:53 5.25278e-06
39 *28:36 *397:78 0.00016038
40 *28:36 *397:80 4.11203e-05
41 *28:36 *402:412 1.04765e-05
42 *28:42 *31:59 2.22736e-06
43 *28:42 *134:10 5.09995e-06
44 *28:42 *147:79 2.31101e-05
45 *25:16 *28:36 3.56648e-06
46 *25:22 *28:32 8.72627e-06
47 *27:10 *28:32 0
*RES
1 *702:QN *28:8 46.2265 
2 *28:8 *28:12 36.9885 
3 *28:12 *28:18 40.5948 
4 *28:18 *28:20 37.9726 
5 *28:20 *28:26 47.3528 
6 *28:26 *28:30 18.8045 
7 *28:30 *28:32 70.3958 
8 *28:32 *28:34 17.2 
9 *28:34 *28:36 61.5049 
10 *28:36 *28:42 42.2843 
11 *28:42 *443:C 17.2 
12 *28:26 *663:B 17.2 
13 *28:18 *586:A 17.2 
*END

*D_NET *29 0.000356892
*CONN
*I *533:B I *D OAI21x1_ASAP7_75t_SL
*I *447:A1 I *D AO21x1_ASAP7_75t_SL
*I *449:A I *D AND4x1_ASAP7_75t_SL
*I *440:B I *D OA21x2_ASAP7_75t_SL
*I *663:CON O *D HAxp5_ASAP7_75t_SL
*CAP
1 *533:B 0
2 *447:A1 1.1737e-05
3 *449:A 2.05786e-06
4 *440:B 5.06885e-06
5 *663:CON 4.62158e-06
6 *29:31 4.54206e-05
7 *29:25 3.89212e-05
8 *29:12 3.0537e-05
9 *29:8 2.27942e-05
10 *440:B *440:A1 5.62196e-06
11 *440:B *139:6 9.30483e-06
12 *447:A1 *32:18 5.79724e-07
13 *447:A1 *32:24 0
14 *449:A *449:C 2.52755e-07
15 *29:12 *30:10 1.10436e-05
16 *29:12 *186:39 1.33667e-05
17 *29:25 *131:12 4.5406e-05
18 *29:25 *139:21 4.5406e-05
19 *29:31 *32:24 0
20 *29:31 *32:26 0
21 *29:31 *132:10 8.3668e-07
22 *29:31 *139:21 0
23 *29:31 *205:6 1.08644e-05
24 *441:B *447:A1 8.33296e-06
25 *441:B *29:31 2.73812e-05
26 *26:20 *447:A1 1.47772e-05
27 *28:26 *29:8 5.24059e-07
28 *28:30 *29:12 2.03526e-06
*RES
1 *663:CON *29:8 37.2158 
2 *29:8 *29:12 30.5706 
3 *29:12 *440:B 20.9438 
4 *29:12 *29:25 49.6055 
5 *29:25 *29:31 42.6805 
6 *29:31 *449:A 35.4697 
7 *29:31 *447:A1 43.8888 
8 *29:25 *533:B 17.2 
*END

*D_NET *30 0.000564329
*CONN
*I *529:A I *D XOR2x2_ASAP7_75t_SL
*I *447:A2 I *D AO21x1_ASAP7_75t_SL
*I *533:A1 I *D OAI21x1_ASAP7_75t_SL
*I *531:B I *D AOI21x1_ASAP7_75t_SL
*I *440:A1 I *D OA21x2_ASAP7_75t_SL
*I *663:SN O *D HAxp5_ASAP7_75t_SL
*CAP
1 *529:A 0
2 *447:A2 7.38508e-06
3 *533:A1 0
4 *531:B 0
5 *440:A1 7.81131e-06
6 *663:SN 0
7 *30:60 2.95758e-05
8 *30:47 3.37887e-05
9 *30:36 3.13691e-05
10 *30:22 1.87525e-05
11 *30:14 1.70791e-05
12 *30:10 6.26425e-05
13 *30:4 8.11149e-05
14 *440:A1 *139:6 6.86929e-06
15 *447:A2 *138:10 6.61478e-06
16 *30:10 *663:A 1.48593e-05
17 *30:10 *131:12 2.35022e-05
18 *30:10 *186:39 1.32074e-05
19 *30:10 *204:10 0
20 *30:22 *132:10 2.69892e-05
21 *30:22 *139:21 2.68586e-05
22 *30:36 *131:12 1.53144e-05
23 *30:47 *131:12 2.84787e-05
24 *30:47 *139:21 1.12894e-06
25 *30:60 *663:A 3.5648e-05
26 *30:60 *291:14 5.51397e-07
27 *30:60 *402:399 1.67815e-06
28 *440:B *440:A1 5.62196e-06
29 *441:A1 *30:47 1.692e-05
30 *447:B *447:A2 4.32502e-06
31 *27:10 *30:47 8.33296e-06
32 *27:12 *30:47 2.68658e-05
33 *28:32 *30:10 0
34 *28:32 *30:36 0
35 *28:32 *30:47 0
36 *29:12 *30:10 1.10436e-05
*RES
1 *663:SN *30:4 17.2 
2 *30:4 *30:10 43.8032 
3 *30:10 *30:14 19.8741 
4 *30:14 *30:22 46.0848 
5 *30:22 *440:A1 23.6179 
6 *30:14 *531:B 17.2 
7 *30:10 *30:36 5.63166 
8 *30:36 *533:A1 34.4 
9 *30:36 *30:47 45.3583 
10 *30:47 *447:A2 23.0831 
11 *30:4 *30:60 34.0063 
12 *30:60 *529:A 34.4 
*END

*D_NET *31 0.000496604
*CONN
*I *581:A1 I *D OA211x2_ASAP7_75t_SL
*I *645:A I *D INVx1_ASAP7_75t_SL
*I *664:A I *D HAxp5_ASAP7_75t_SL
*I *583:A1 I *D OA21x2_ASAP7_75t_SL
*I *443:D I *D AND4x1_ASAP7_75t_SL
*I *701:QN O *D DFFHQNx1_ASAP7_75t_SL
*CAP
1 *581:A1 6.86693e-07
2 *645:A 0
3 *664:A 0
4 *583:A1 4.45471e-06
5 *443:D 1.37854e-05
6 *701:QN 2.22655e-05
7 *31:59 2.57564e-05
8 *31:53 5.66684e-05
9 *31:38 5.86376e-05
10 *31:34 2.48617e-05
11 *31:26 5.0938e-05
12 *31:16 5.9006e-05
13 *31:10 4.63965e-05
14 *581:A1 *581:B 3.68287e-06
15 *583:A1 *235:14 1.5804e-05
16 *583:A1 *236:6 3.31198e-05
17 *31:10 *581:B 2.07088e-06
18 *31:10 *234:8 0
19 *31:16 *581:A2 7.46759e-06
20 *31:16 *581:B 1.26378e-06
21 *31:16 *402:428 1.30795e-06
22 *31:26 *581:A2 6.7842e-07
23 *31:26 *646:C2 5.19552e-07
24 *31:26 *33:8 0
25 *31:26 *141:10 1.908e-06
26 *31:26 *308:26 0
27 *31:34 *664:B 3.81627e-06
28 *31:34 *308:26 1.15587e-05
29 *31:38 *664:B 1.67815e-06
30 *31:38 *134:10 0
31 *31:38 *141:22 0
32 *31:53 *664:B 9.41947e-07
33 *31:53 *147:79 0
34 *31:53 *290:10 1.18996e-06
35 *31:53 *397:80 1.02506e-06
36 *31:53 *402:434 1.01707e-05
37 *585:A1 *583:A1 1.23408e-05
38 *16:8 *31:59 2.16262e-06
39 *16:18 *583:A1 5.19552e-07
40 *16:18 *31:59 0
41 *25:28 *31:16 4.26751e-07
42 *25:40 *443:D 3.65663e-06
43 *25:40 *31:53 3.62704e-06
44 *28:36 *31:10 4.73041e-06
45 *28:36 *31:53 5.25278e-06
46 *28:42 *31:59 2.22736e-06
*RES
1 *701:QN *31:10 45.9147 
2 *31:10 *31:16 30.2342 
3 *31:16 *31:26 49.5451 
4 *31:26 *31:34 46.3645 
5 *31:34 *31:38 23.958 
6 *31:38 *443:D 40.8179 
7 *31:38 *31:53 37.442 
8 *31:53 *31:59 47.916 
9 *31:59 *583:A1 27.3617 
10 *31:26 *664:A 17.2 
11 *31:16 *645:A 17.2 
12 *31:10 *581:A1 35.4697 
*END

*D_NET *32 0.000504004
*CONN
*I *449:C I *D AND4x1_ASAP7_75t_SL
*I *532:B I *D OA21x2_ASAP7_75t_SL
*I *531:A1 I *D AOI21x1_ASAP7_75t_SL
*I *528:A1 I *D AO221x1_ASAP7_75t_SL
*I *439:B I *D OA21x2_ASAP7_75t_SL
*I *664:CON O *D HAxp5_ASAP7_75t_SL
*CAP
1 *449:C 1.65286e-05
2 *532:B 0
3 *531:A1 1.25272e-05
4 *528:A1 5.76726e-06
5 *439:B 3.16316e-06
6 *664:CON 5.80688e-06
7 *32:43 3.56431e-05
8 *32:28 4.79079e-05
9 *32:26 3.79343e-05
10 *32:24 4.81515e-05
11 *32:18 6.54001e-05
12 *32:12 6.13135e-05
13 *32:8 5.58622e-05
14 *439:B *440:A2 2.68933e-07
15 *439:B *525:C 8.06799e-07
16 *439:B *33:16 5.79724e-07
17 *439:B *36:73 5.37866e-07
18 *528:A1 *440:A2 0
19 *528:A1 *525:C 0
20 *528:A1 *528:B1 8.06799e-07
21 *528:A1 *528:C 3.89037e-06
22 *528:A1 *132:10 4.74248e-06
23 *531:A1 *203:6 3.67905e-05
24 *32:8 *33:10 0
25 *32:8 *308:26 1.62854e-06
26 *32:18 *33:10 0
27 *32:24 *33:10 1.54695e-05
28 *32:26 *33:10 2.22736e-06
29 *32:26 *404:107 1.00765e-05
30 *32:28 *440:A2 1.09067e-06
31 *32:28 *33:16 3.3563e-06
32 *32:28 *404:107 2.00151e-05
33 *32:43 *528:B2 2.52755e-07
34 *32:43 *528:C 2.20493e-06
35 *447:A1 *32:18 5.79724e-07
36 *447:A1 *32:24 0
37 *449:A *449:C 2.52755e-07
38 *26:20 *32:18 2.4204e-06
39 *29:31 *32:24 0
40 *29:31 *32:26 0
*RES
1 *664:CON *32:8 38.9053 
2 *32:8 *32:12 38.0582 
3 *32:12 *32:18 43.4107 
4 *32:18 *32:24 44.9899 
5 *32:24 *32:26 9.01066 
6 *32:26 *32:28 14.0792 
7 *32:28 *439:B 37.2158 
8 *32:28 *32:43 46.701 
9 *32:43 *528:A1 39.4118 
10 *32:26 *531:A1 45.6313 
11 *32:24 *532:B 34.4 
12 *32:18 *449:C 23.6179 
*END

*D_NET *33 0.000228883
*CONN
*I *865:A I *D BUFx3_ASAP7_75t_SL
*I *439:A2 I *D OA21x2_ASAP7_75t_SL
*I *664:SN O *D HAxp5_ASAP7_75t_SL
*CAP
1 *865:A 0
2 *439:A2 0
3 *664:SN 1.96121e-05
4 *33:16 2.07056e-05
5 *33:10 6.68805e-05
6 *33:8 6.57869e-05
7 *33:8 *141:6 0
8 *33:10 *530:B 0
9 *33:10 *404:107 2.20128e-06
10 *33:16 *530:A2 0
11 *33:16 *530:B 0
12 *33:16 *36:73 2.04071e-05
13 *33:16 *188:8 0
14 *33:16 *404:107 1.16564e-05
15 *439:B *33:16 5.79724e-07
16 *31:26 *33:8 0
17 *32:8 *33:10 0
18 *32:18 *33:10 0
19 *32:24 *33:10 1.54695e-05
20 *32:26 *33:10 2.22736e-06
21 *32:28 *33:16 3.3563e-06
*RES
1 *664:SN *33:8 43.492 
2 *33:8 *33:10 38.2953 
3 *33:10 *33:16 36.2626 
4 *33:16 *439:A2 17.2 
5 *33:10 *865:A 34.4 
*END

*D_NET *34 0.000439648
*CONN
*I *444:A I *D AND4x1_ASAP7_75t_SL
*I *665:B I *D HAxp5_ASAP7_75t_SL
*I *571:A I *D INVx1_ASAP7_75t_SL
*I *700:QN O *D DFFHQNx1_ASAP7_75t_SL
*CAP
1 *444:A 1.06907e-05
2 *665:B 0
3 *571:A 4.66885e-06
4 *700:QN 5.50848e-05
5 *34:33 2.46905e-05
6 *34:16 2.93594e-05
7 *34:14 5.51759e-05
8 *34:10 9.07723e-05
9 *34:6 7.99906e-05
10 *444:A *37:34 5.67747e-07
11 *444:A *40:25 1.64764e-06
12 *444:A *146:18 0
13 *571:A *75:12 2.25196e-06
14 *571:A *276:235 2.61188e-06
15 *34:6 *276:253 6.78445e-06
16 *34:10 *37:34 9.11384e-07
17 *34:10 *91:10 2.83874e-07
18 *34:10 *146:18 0
19 *34:10 *276:280 2.83874e-07
20 *34:10 *402:331 1.45047e-06
21 *34:14 *135:14 5.04845e-06
22 *34:14 *210:134 2.20706e-05
23 *34:14 *276:243 4.3357e-06
24 *34:14 *279:215 0
25 *34:14 *402:323 0
26 *34:33 *665:A 0
27 *34:33 *35:8 3.85311e-06
28 *34:33 *75:12 2.16714e-05
29 *34:33 *141:126 1.15978e-05
30 *34:33 *227:8 0
31 *34:33 *403:63 3.84449e-06
32 *5:25 *34:10 0
*RES
1 *700:QN *34:6 36.9885 
2 *34:6 *34:10 32.6871 
3 *34:10 *34:14 35.8137 
4 *34:14 *34:16 17.2 
5 *34:16 *571:A 37.9189 
6 *34:16 *34:33 36.9373 
7 *34:33 *665:B 17.2 
8 *34:10 *444:A 42.0027 
*END

*D_NET *35 0.000584586
*CONN
*I *530:A1 I *D AO21x1_ASAP7_75t_SL
*I *514:A I *D NAND2x1_ASAP7_75t_SL
*I *448:A1 I *D AO21x1_ASAP7_75t_SL
*I *439:A1 I *D OA21x2_ASAP7_75t_SL
*I *516:B I *D OA21x2_ASAP7_75t_SL
*I *665:CON O *D HAxp5_ASAP7_75t_SL
*CAP
1 *530:A1 2.8098e-06
2 *514:A 1.80175e-05
3 *448:A1 1.24496e-05
4 *439:A1 1.5213e-05
5 *516:B 2.02591e-06
6 *665:CON 1.52353e-05
7 *35:43 2.97461e-05
8 *35:32 2.87346e-05
9 *35:21 3.16967e-05
10 *35:10 9.43552e-05
11 *35:8 9.84471e-05
12 *448:A1 *191:14 5.85387e-06
13 *514:A *514:B 1.44167e-06
14 *514:A *189:8 1.51653e-06
15 *516:B *516:A1 5.41446e-06
16 *530:A1 *188:16 1.12894e-06
17 *530:A1 *191:25 1.19507e-05
18 *530:A1 *308:26 0
19 *35:10 *36:24 0
20 *35:10 *36:38 1.39185e-05
21 *35:10 *36:47 2.31681e-05
22 *35:10 *36:60 1.12894e-06
23 *35:10 *38:10 3.84948e-05
24 *35:10 *38:44 4.15074e-05
25 *35:10 *38:56 5.55315e-06
26 *35:10 *188:8 7.24542e-06
27 *35:10 *228:8 0
28 *35:10 *308:26 0
29 *35:21 *186:18 2.25196e-06
30 *35:21 *188:8 3.95845e-06
31 *35:21 *191:10 1.28696e-05
32 *35:21 *308:26 0
33 *35:32 *191:10 2.71272e-05
34 *35:32 *308:26 0
35 *35:43 *188:16 1.12894e-06
36 *35:43 *191:10 4.83862e-06
37 *35:43 *191:25 2.15045e-05
38 *35:43 *308:26 0
39 *34:33 *35:8 3.85311e-06
*RES
1 *665:CON *35:8 43.492 
2 *35:8 *35:10 82.7854 
3 *35:10 *516:B 36.0045 
4 *35:10 *35:21 7.88432 
5 *35:21 *439:A1 42.4224 
6 *35:21 *35:32 9.01066 
7 *35:32 *448:A1 41.3527 
8 *35:32 *35:43 9.01066 
9 *35:43 *514:A 45.0965 
10 *35:43 *530:A1 38.3422 
*END

*D_NET *36 0.000592714
*CONN
*I *448:A2 I *D AO21x1_ASAP7_75t_SL
*I *516:A1 I *D OA21x2_ASAP7_75t_SL
*I *513:B I *D AO21x1_ASAP7_75t_SL
*I *512:A I *D XNOR2x2_ASAP7_75t_SL
*I *575:A I *D NOR3x1_ASAP7_75t_SL
*I *573:A I *D AND2x2_ASAP7_75t_SL
*I *665:SN O *D HAxp5_ASAP7_75t_SL
*CAP
1 *448:A2 2.55056e-06
2 *516:A1 1.45595e-05
3 *513:B 5.8128e-06
4 *512:A 0
5 *575:A 0
6 *573:A 0
7 *665:SN 1.45713e-05
8 *36:73 3.28374e-05
9 *36:60 5.27578e-05
10 *36:47 7.13302e-05
11 *36:38 8.67372e-05
12 *36:24 1.45879e-05
13 *36:16 2.76022e-05
14 *36:14 5.69869e-05
15 *36:10 2.94128e-05
16 *513:B *38:72 5.85624e-06
17 *516:A1 *38:56 1.44167e-06
18 *516:A1 *186:12 8.99409e-06
19 *516:A1 *191:8 2.20493e-06
20 *36:10 *665:A 7.84037e-07
21 *36:10 *146:18 0
22 *36:10 *231:6 6.7842e-07
23 *36:10 *231:12 8.33296e-06
24 *36:14 *38:6 4.49579e-05
25 *36:16 *38:6 1.96943e-05
26 *36:24 *229:8 2.22736e-06
27 *36:38 *512:B 0
28 *36:47 *39:24 0
29 *36:47 *41:10 0
30 *36:47 *178:14 1.64348e-06
31 *36:47 *179:12 0
32 *36:47 *403:83 1.16989e-06
33 *36:60 *525:A2 0
34 *36:60 *39:24 0
35 *36:60 *41:44 0
36 *36:60 *188:8 2.04071e-05
37 *36:73 *525:C 0
38 *36:73 *188:8 0
39 *439:B *36:73 5.37866e-07
40 *516:B *516:A1 5.41446e-06
41 *33:16 *36:73 2.04071e-05
42 *35:10 *36:24 0
43 *35:10 *36:38 1.39185e-05
44 *35:10 *36:47 2.31681e-05
45 *35:10 *36:60 1.12894e-06
*RES
1 *665:SN *36:10 45.0151 
2 *36:10 *36:14 30.5706 
3 *36:14 *36:16 9.09202 
4 *36:16 *36:24 44.4236 
5 *36:24 *573:A 17.2 
6 *36:16 *575:A 17.2 
7 *36:14 *36:38 40.853 
8 *36:38 *512:A 34.4 
9 *36:38 *36:47 45.0533 
10 *36:47 *513:B 38.6786 
11 *36:47 *36:60 26.2107 
12 *36:60 *516:A1 27.8965 
13 *36:60 *36:73 39.4149 
14 *36:73 *448:A2 35.4697 
*END

*D_NET *37 0.000512864
*CONN
*I *642:A I *D INVx1_ASAP7_75t_SL
*I *666:B I *D HAxp5_ASAP7_75t_SL
*I *444:B I *D AND4x1_ASAP7_75t_SL
*I *568:B I *D AND3x1_ASAP7_75t_SL
*I *699:QN O *D DFFHQNx1_ASAP7_75t_SL
*CAP
1 *642:A 0
2 *666:B 7.57289e-06
3 *444:B 5.31765e-06
4 *568:B 0
5 *699:QN 3.30344e-05
6 *37:34 1.79819e-05
7 *37:28 2.91306e-05
8 *37:26 2.39628e-05
9 *37:20 6.26399e-05
10 *37:14 6.42116e-05
11 *37:8 4.51648e-05
12 *444:B *135:6 1.26378e-06
13 *666:B *666:A 3.90551e-06
14 *666:B *40:25 2.53764e-05
15 *37:8 *231:6 0
16 *37:14 *643:C2 7.58265e-07
17 *37:14 *210:188 1.13547e-05
18 *37:14 *276:290 1.73158e-06
19 *37:14 *276:292 1.00967e-05
20 *37:20 *643:A1 2.27522e-06
21 *37:20 *643:B1 3.64631e-06
22 *37:20 *643:B2 5.86507e-07
23 *37:20 *276:290 3.89509e-05
24 *37:20 *306:20 5.44668e-07
25 *37:20 *402:369 2.84411e-06
26 *37:26 *699:CLK 3.36187e-05
27 *37:26 *231:6 3.21669e-06
28 *37:28 *666:A 1.12894e-06
29 *37:28 *40:25 1.47917e-05
30 *37:34 *568:C 1.52651e-06
31 *37:34 *666:A 5.49212e-07
32 *37:34 *40:25 1.20741e-05
33 *37:34 *307:14 3.90258e-06
34 *444:A *37:34 5.67747e-07
35 *5:25 *37:34 4.82252e-05
36 *34:10 *37:34 9.11384e-07
*RES
1 *699:QN *37:8 48.8403 
2 *37:8 *37:14 28.8848 
3 *37:14 *37:20 43.9166 
4 *37:20 *37:26 43.492 
5 *37:26 *37:28 5.63166 
6 *37:28 *37:34 35.7278 
7 *37:34 *568:B 17.2 
8 *37:28 *444:B 37.609 
9 *37:26 *666:B 43.4107 
10 *37:14 *642:A 17.2 
*END

*D_NET *38 0.000807233
*CONN
*I *525:B I *D OA211x2_ASAP7_75t_SL
*I *513:A2 I *D AO21x1_ASAP7_75t_SL
*I *516:A2 I *D OA21x2_ASAP7_75t_SL
*I *432:B I *D AND2x2_ASAP7_75t_SL
*I *437:A2 I *D AOI221x1_ASAP7_75t_SL
*I *666:CON O *D HAxp5_ASAP7_75t_SL
*CAP
1 *525:B 0
2 *513:A2 0
3 *516:A2 0
4 *432:B 3.82567e-06
5 *437:A2 0
6 *666:CON 0
7 *38:72 2.73094e-05
8 *38:56 1.04393e-05
9 *38:46 3.77487e-05
10 *38:44 3.57065e-05
11 *38:26 3.02146e-05
12 *38:18 4.08015e-05
13 *38:14 5.51677e-05
14 *38:10 0.000118216
15 *38:6 9.81977e-05
16 *38:4 6.40949e-05
17 *432:B *437:B2 1.02642e-06
18 *432:B *127:8 3.18788e-06
19 *38:10 *228:8 0
20 *38:14 *437:B2 2.8275e-06
21 *38:14 *437:C 2.50967e-06
22 *38:18 *437:B2 1.12294e-06
23 *38:18 *127:8 1.82305e-06
24 *38:18 *134:10 0
25 *38:18 *409:22 1.36998e-06
26 *38:18 *409:26 1.12294e-06
27 *38:26 *437:C 9.30483e-06
28 *38:26 *39:34 8.89433e-07
29 *38:26 *126:16 2.03526e-06
30 *38:26 *126:24 8.1926e-06
31 *38:26 *149:105 1.17007e-05
32 *38:44 *308:26 1.00384e-05
33 *38:56 *39:24 5.41446e-06
34 *38:56 *308:26 1.22513e-05
35 *38:72 *528:B1 0
36 *38:72 *39:16 2.14755e-06
37 *38:72 *39:24 3.93765e-05
38 *38:72 *41:44 1.16647e-05
39 *38:72 *199:12 0
40 *513:B *38:72 5.85624e-06
41 *516:A1 *38:56 1.44167e-06
42 *35:10 *38:10 3.84948e-05
43 *35:10 *38:44 4.15074e-05
44 *35:10 *38:56 5.55315e-06
45 *36:14 *38:6 4.49579e-05
46 *36:16 *38:6 1.96943e-05
*RES
1 *666:CON *38:4 17.2 
2 *38:4 *38:6 42.2512 
3 *38:6 *38:10 48.1741 
4 *38:10 *38:14 43.4064 
5 *38:14 *38:18 22.2685 
6 *38:18 *38:26 48.5038 
7 *38:26 *437:A2 34.4 
8 *38:18 *432:B 37.779 
9 *38:10 *38:44 34.3531 
10 *38:44 *38:46 17.2 
11 *38:46 *38:56 46.0848 
12 *38:56 *516:A2 17.2 
13 *38:46 *513:A2 17.2 
14 *38:46 *38:72 42.7902 
15 *38:72 *525:B 34.4 
*END

*D_NET *39 0.00117235
*CONN
*I *526:A I *D OR2x2_ASAP7_75t_SL
*I *510:A I *D XNOR2x2_ASAP7_75t_SL
*I *525:A2 I *D OA211x2_ASAP7_75t_SL
*I *513:A1 I *D AO21x1_ASAP7_75t_SL
*I *437:A1 I *D AOI221x1_ASAP7_75t_SL
*I *423:A I *D INVx1_ASAP7_75t_SL
*I *666:SN O *D HAxp5_ASAP7_75t_SL
*CAP
1 *526:A 0
2 *510:A 0
3 *525:A2 7.50647e-06
4 *513:A1 0
5 *437:A1 0
6 *423:A 0
7 *666:SN 5.03325e-06
8 *39:81 4.26807e-05
9 *39:42 4.37325e-06
10 *39:36 0.000103028
11 *39:34 0.000116923
12 *39:30 5.83568e-05
13 *39:28 0.000103621
14 *39:24 9.8505e-05
15 *39:18 4.24791e-05
16 *39:16 6.34708e-05
17 *39:14 6.59844e-05
18 *39:10 0.000149838
19 *39:8 0.000109677
20 *525:A2 *41:44 6.95214e-06
21 *39:10 *40:25 0
22 *39:10 *186:28 0
23 *39:10 *220:12 0
24 *39:10 *287:14 0
25 *39:14 *186:28 1.58373e-06
26 *39:16 *186:28 1.26376e-05
27 *39:24 *41:44 6.31056e-06
28 *39:30 *41:22 0
29 *39:30 *126:24 6.9993e-06
30 *39:30 *149:105 5.13793e-06
31 *39:30 *409:26 1.19177e-05
32 *39:34 *126:24 6.30001e-07
33 *39:34 *128:10 6.54597e-06
34 *39:34 *149:105 3.02162e-06
35 *39:34 *409:22 4.09697e-07
36 *39:34 *409:26 1.46116e-06
37 *39:36 *511:A2 6.7842e-07
38 *39:36 *122:12 7.43179e-05
39 *39:42 *122:8 1.09067e-06
40 *39:42 *232:21 1.12894e-06
41 *39:81 *526:B 9.50284e-06
42 *39:81 *186:28 0
43 *28:20 *39:81 2.72225e-06
44 *36:47 *39:24 0
45 *36:60 *525:A2 0
46 *36:60 *39:24 0
47 *38:26 *39:34 8.89433e-07
48 *38:56 *39:24 5.41446e-06
49 *38:72 *39:16 2.14755e-06
50 *38:72 *39:24 3.93765e-05
*RES
1 *666:SN *39:8 36.0045 
2 *39:8 *39:10 67.0168 
3 *39:10 *39:14 18.8045 
4 *39:14 *39:16 35.8333 
5 *39:16 *39:18 17.2 
6 *39:18 *39:24 37.7784 
7 *39:24 *39:28 46.6154 
8 *39:28 *39:30 30.9741 
9 *39:30 *39:34 32.4055 
10 *39:34 *39:36 52.9477 
11 *39:36 *39:42 37.779 
12 *39:42 *423:A 17.2 
13 *39:30 *437:A1 34.4 
14 *39:24 *513:A1 17.2 
15 *39:18 *525:A2 41.1013 
16 *39:14 *510:A 17.2 
17 *39:10 *39:81 42.6202 
18 *39:81 *526:A 17.2 
*END

*D_NET *40 0.000674027
*CONN
*I *562:A I *D INVx1_ASAP7_75t_SL
*I *444:C I *D AND4x1_ASAP7_75t_SL
*I *667:A I *D HAxp5_ASAP7_75t_SL
*I *698:QN O *D DFFHQNx1_ASAP7_75t_SL
*CAP
1 *562:A 0
2 *444:C 0
3 *667:A 0
4 *698:QN 2.77358e-05
5 *40:38 5.07277e-06
6 *40:25 3.13853e-05
7 *40:14 2.55623e-05
8 *40:8 9.34224e-05
9 *40:6 6.92833e-05
10 *40:6 *89:12 7.58265e-07
11 *40:6 *342:12 8.78747e-05
12 *40:6 *397:44 7.58545e-06
13 *40:8 *342:12 0.000105564
14 *40:8 *397:44 1.25483e-05
15 *40:14 *682:CLK 1.68387e-05
16 *40:14 *132:10 5.50785e-05
17 *40:14 *146:24 2.0895e-06
18 *40:14 *146:28 1.04904e-05
19 *40:14 *342:12 3.0511e-05
20 *40:14 *397:23 2.47157e-05
21 *40:25 *146:18 0
22 *40:25 *146:28 0
23 *40:38 *210:188 1.30409e-05
24 *40:38 *276:292 5.79724e-07
25 *444:A *40:25 1.64764e-06
26 *666:B *40:25 2.53764e-05
27 *37:28 *40:25 1.47917e-05
28 *37:34 *40:25 1.20741e-05
29 *39:10 *40:25 0
*RES
1 *698:QN *40:6 43.4064 
2 *40:6 *40:8 29.4154 
3 *40:8 *40:14 48.8187 
4 *40:14 *667:A 34.4 
5 *40:8 *40:25 46.4846 
6 *40:25 *444:C 34.4 
7 *40:6 *40:38 38.9053 
8 *40:38 *562:A 17.2 
*END

*D_NET *41 0.00066527
*CONN
*I *525:A1 I *D OA211x2_ASAP7_75t_SL
*I *506:B I *D OA21x2_ASAP7_75t_SL
*I *432:A I *D AND2x2_ASAP7_75t_SL
*I *667:CON O *D HAxp5_ASAP7_75t_SL
*CAP
1 *525:A1 0
2 *506:B 0
3 *432:A 0
4 *667:CON 2.24641e-05
5 *41:44 1.87894e-05
6 *41:33 6.43529e-05
7 *41:31 8.13915e-05
8 *41:22 2.98156e-05
9 *41:16 4.68541e-05
10 *41:14 9.25486e-05
11 *41:12 9.25486e-05
12 *41:10 5.50961e-05
13 *41:8 5.87708e-05
14 *41:10 *503:B 0
15 *41:10 *160:44 0
16 *41:10 *178:14 1.10561e-06
17 *41:10 *179:12 8.34646e-06
18 *41:10 *179:23 0
19 *41:10 *199:12 0
20 *41:10 *397:8 1.09493e-06
21 *41:14 *178:14 1.53057e-06
22 *41:22 *436:C 1.05725e-05
23 *41:22 *123:8 6.7842e-07
24 *41:22 *134:10 1.00079e-05
25 *41:22 *409:26 0
26 *41:31 *134:10 7.75e-06
27 *41:33 *186:12 3.66244e-05
28 *41:44 *528:B1 0
29 *41:44 *199:12 0
30 *525:A2 *41:44 6.95214e-06
31 *36:47 *41:10 0
32 *36:60 *41:44 0
33 *38:72 *41:44 1.16647e-05
34 *39:24 *41:44 6.31056e-06
35 *39:30 *41:22 0
*RES
1 *667:CON *41:8 46.701 
2 *41:8 *41:10 27.032 
3 *41:10 *41:12 17.2 
4 *41:12 *41:14 37.9726 
5 *41:14 *41:16 17.2 
6 *41:16 *41:22 39.6416 
7 *41:22 *432:A 17.2 
8 *41:16 *41:31 31.2792 
9 *41:31 *41:33 46.5298 
10 *41:33 *506:B 17.2 
11 *41:10 *41:44 33.4751 
12 *41:44 *525:A1 17.2 
*END

*D_NET *42 7.16765e-05
*CONN
*I *503:A I *D XOR2x2_ASAP7_75t_SL
*I *870:A I *D BUFx3_ASAP7_75t_SL
*I *667:SN O *D HAxp5_ASAP7_75t_SL
*CAP
1 *503:A 1.41419e-05
2 *870:A 9.15293e-06
3 *667:SN 0
4 *42:6 2.32949e-05
5 *503:A *397:23 5.95881e-06
6 *503:A *409:12 7.64042e-07
7 *503:A *409:73 5.95881e-06
8 *870:A *397:23 6.7122e-06
9 *870:A *409:12 5.69289e-06
*RES
1 *667:SN *42:6 34.4 
2 *42:6 *870:A 42.1426 
3 *42:6 *503:A 44.8451 
*END

*D_NET *43 0.000808241
*CONN
*I *629:A I *D NOR2x1_ASAP7_75t_SL
*I *443:A I *D AND4x1_ASAP7_75t_SL
*I *668:B I *D HAxp5_ASAP7_75t_SL
*I *630:A1 I *D OA21x2_ASAP7_75t_SL
*I *659:A I *D INVx1_ASAP7_75t_SL
*I *712:QN O *D DFFHQNx1_ASAP7_75t_SL
*CAP
1 *629:A 0
2 *443:A 0
3 *668:B 1.13427e-05
4 *630:A1 0
5 *659:A 0
6 *712:QN 0
7 *43:63 6.57584e-05
8 *43:61 6.57584e-05
9 *43:50 3.16551e-05
10 *43:39 4.87367e-05
11 *43:29 4.02673e-05
12 *43:23 6.66505e-05
13 *43:12 3.59178e-05
14 *43:6 9.07253e-05
15 *668:B *177:23 1.66514e-05
16 *668:B *213:302 4.2035e-05
17 *668:B *354:23 0
18 *43:12 *301:33 1.27255e-05
19 *43:12 *353:41 4.34775e-06
20 *43:23 *353:41 2.83874e-07
21 *43:29 *232:52 4.42421e-06
22 *43:39 *141:36 3.46317e-06
23 *43:39 *271:8 3.79923e-06
24 *43:39 *274:12 1.0391e-06
25 *43:39 *274:18 5.37866e-07
26 *43:39 *401:299 5.37569e-06
27 *43:50 *141:30 3.96206e-05
28 *43:50 *141:36 1.08167e-05
29 *43:50 *213:302 9.8079e-06
30 *43:50 *272:8 1.60115e-05
31 *43:63 *147:73 0.000180489
*RES
1 *712:QN *43:6 34.4 
2 *43:6 *43:12 40.9343 
3 *43:12 *659:A 17.2 
4 *43:6 *43:23 41.4372 
5 *43:23 *43:29 43.4107 
6 *43:29 *43:39 49.067 
7 *43:39 *630:A1 17.2 
8 *43:39 *43:50 36.1173 
9 *43:50 *668:B 48.4791 
10 *43:50 *43:61 17.2 
11 *43:61 *43:63 55.087 
12 *43:63 *443:A 17.2 
13 *43:23 *629:A 17.2 
*END

*D_NET *44 0.000286485
*CONN
*I *506:A2 I *D OA21x2_ASAP7_75t_SL
*I *435:B I *D OA21x2_ASAP7_75t_SL
*I *668:CON O *D HAxp5_ASAP7_75t_SL
*CAP
1 *506:A2 6.10749e-06
2 *435:B 9.72076e-06
3 *668:CON 3.87317e-06
4 *44:10 7.88906e-05
5 *44:8 6.69355e-05
6 *435:B *121:23 1.13631e-05
7 *435:B *279:8 2.1664e-06
8 *44:10 *509:A1 5.37866e-07
9 *44:10 *121:23 1.45123e-05
10 *44:10 *159:83 7.58989e-06
11 *44:10 *177:8 1.34329e-05
12 *44:10 *177:23 2.68658e-05
13 *44:10 *182:12 0
14 *44:10 *183:8 0
15 *44:10 *213:302 1.38218e-05
16 *44:10 *279:8 1.10561e-06
17 *44:10 *279:18 2.95616e-05
*RES
1 *668:CON *44:8 36.0045 
2 *44:8 *44:10 57.4429 
3 *44:10 *435:B 43.4107 
4 *44:10 *506:A2 37.609 
*END

*D_NET *45 0.000826862
*CONN
*I *499:A I *D XNOR2x2_ASAP7_75t_SL
*I *507:B I *D OR3x1_ASAP7_75t_SL
*I *504:C I *D OR4x2_ASAP7_75t_SL
*I *435:A2 I *D OA21x2_ASAP7_75t_SL
*I *500:A I *D OR2x4_ASAP7_75t_SL
*I *430:B I *D NOR2x1_ASAP7_75t_SL
*I *433:B I *D OR2x2_ASAP7_75t_SL
*I *668:SN O *D HAxp5_ASAP7_75t_SL
*CAP
1 *499:A 0
2 *507:B 0
3 *504:C 0
4 *435:A2 9.1805e-06
5 *500:A 1.08633e-05
6 *430:B 2.01449e-06
7 *433:B 0
8 *668:SN 5.44892e-06
9 *45:78 1.43492e-05
10 *45:70 1.52974e-05
11 *45:43 1.28778e-05
12 *45:36 4.37355e-05
13 *45:30 5.57045e-05
14 *45:28 3.62922e-05
15 *45:18 7.18198e-05
16 *45:16 6.95998e-05
17 *45:12 4.06296e-05
18 *45:8 3.22077e-05
19 *430:B *160:33 5.41446e-06
20 *435:A2 *435:A1 2.03526e-06
21 *500:A *121:21 5.19552e-07
22 *500:A *160:33 3.07308e-05
23 *45:8 *177:23 0
24 *45:12 *177:23 5.85387e-06
25 *45:12 *354:10 0
26 *45:16 *354:10 0
27 *45:18 *668:A 9.93857e-06
28 *45:18 *147:62 2.09921e-05
29 *45:18 *162:41 8.46363e-06
30 *45:18 *173:10 2.43534e-06
31 *45:18 *176:10 1.38524e-05
32 *45:18 *176:25 3.29527e-06
33 *45:18 *213:302 0
34 *45:18 *232:29 0.00010771
35 *45:28 *506:A1 7.35354e-06
36 *45:28 *507:A 5.85387e-06
37 *45:28 *173:10 1.63973e-05
38 *45:28 *232:29 1.14208e-05
39 *45:28 *409:52 1.099e-05
40 *45:30 *173:10 4.86244e-05
41 *45:30 *232:29 5.37866e-07
42 *45:30 *408:10 5.49212e-07
43 *45:30 *409:41 9.93746e-06
44 *45:30 *409:52 3.92018e-06
45 *45:36 *433:A 4.42485e-06
46 *45:36 *173:10 2.35401e-05
47 *45:36 *232:27 6.7842e-07
48 *45:36 *232:29 2.41275e-06
49 *45:36 *408:10 5.49212e-07
50 *45:70 *507:A 6.7842e-07
51 *45:70 *507:C 3.90258e-06
52 *45:78 *507:A 2.71368e-06
53 *45:78 *507:C 7.80516e-06
54 *45:78 *51:91 0
55 *45:78 *181:8 0
56 *45:78 *232:29 3.33101e-05
*RES
1 *668:SN *45:8 37.779 
2 *45:8 *45:12 29.501 
3 *45:12 *45:16 23.0831 
4 *45:16 *45:18 64.7641 
5 *45:18 *45:28 47.7176 
6 *45:28 *45:30 16.3318 
7 *45:30 *45:36 38.4549 
8 *45:36 *433:B 17.2 
9 *45:30 *45:43 17.2 
10 *45:43 *430:B 18.8045 
11 *45:43 *500:A 26.292 
12 *45:28 *435:A2 39.2134 
13 *45:18 *45:70 18.2696 
14 *45:70 *45:78 47.8026 
15 *45:78 *504:C 17.2 
16 *45:70 *507:B 17.2 
17 *45:12 *499:A 17.2 
*END

*D_NET *46 0.00062736
*CONN
*I *625:A1 I *D OA21x2_ASAP7_75t_SL
*I *669:A I *D HAxp5_ASAP7_75t_SL
*I *624:A I *D NOR2x1_ASAP7_75t_SL
*I *657:A I *D INVx1_ASAP7_75t_SL
*I *445:A I *D AND4x1_ASAP7_75t_SL
*I *711:QN O *D DFFHQNx1_ASAP7_75t_SL
*CAP
1 *625:A1 1.21652e-05
2 *669:A 0
3 *624:A 0
4 *657:A 0
5 *445:A 4.23582e-06
6 *711:QN 0
7 *46:68 5.53978e-05
8 *46:57 1.0319e-05
9 *46:46 1.84891e-05
10 *46:28 2.27361e-05
11 *46:22 3.15163e-05
12 *46:18 2.69093e-05
13 *46:12 9.45572e-05
14 *46:6 7.64549e-05
15 *46:4 4.71936e-05
16 *445:A *445:C 1.10486e-05
17 *625:A1 *401:271 2.03509e-05
18 *46:12 *399:86 0
19 *46:18 *279:42 4.86813e-05
20 *46:18 *300:26 9.50756e-06
21 *46:22 *658:C1 0
22 *46:22 *299:46 1.32842e-05
23 *46:22 *399:80 7.09459e-06
24 *46:28 *102:10 2.03526e-06
25 *46:28 *299:46 5.49212e-07
26 *46:28 *399:80 4.50139e-05
27 *46:46 *276:116 3.86931e-05
28 *46:46 *399:86 0
29 *46:57 *162:10 1.03816e-05
30 *46:57 *300:50 0
31 *46:57 *353:16 1.64764e-06
32 *46:68 *141:50 0
33 *46:68 *162:14 8.06117e-06
34 *46:68 *279:28 0
35 *46:68 *353:16 1.09067e-06
36 *46:68 *353:24 0
37 *46:68 *353:41 0
38 *46:68 *401:271 9.94583e-06
*RES
1 *711:QN *46:4 17.2 
2 *46:4 *46:6 1.60448 
3 *46:6 *46:12 44.7595 
4 *46:12 *46:18 48.8403 
5 *46:18 *46:22 28.4633 
6 *46:22 *46:28 34.01 
7 *46:28 *445:A 37.609 
8 *46:22 *657:A 17.2 
9 *46:12 *46:46 33.5318 
10 *46:46 *624:A 17.2 
11 *46:6 *46:57 44.537 
12 *46:57 *669:A 17.2 
13 *46:4 *46:68 44.4267 
14 *46:68 *625:A1 39.7482 
*END

*D_NET *47 0.000340758
*CONN
*I *495:B I *D OA21x2_ASAP7_75t_SL
*I *435:A1 I *D OA21x2_ASAP7_75t_SL
*I *669:CON O *D HAxp5_ASAP7_75t_SL
*CAP
1 *495:B 0
2 *435:A1 2.38336e-05
3 *669:CON 2.96984e-05
4 *47:33 1.29349e-05
5 *47:18 4.86616e-05
6 *47:8 3.7763e-05
7 *47:6 2.96984e-05
8 *435:A1 *504:B 1.81825e-05
9 *47:6 *427:A 5.85387e-06
10 *47:6 *495:A1 2.0895e-06
11 *47:6 *50:58 1.39826e-05
12 *47:6 *51:14 4.4887e-05
13 *47:6 *401:253 9.30483e-06
14 *47:18 *496:A 4.83862e-06
15 *47:18 *51:91 3.68287e-06
16 *47:18 *161:8 4.96929e-06
17 *47:18 *175:10 0
18 *47:18 *181:8 4.1009e-06
19 *47:33 *496:A 4.83862e-06
20 *47:33 *161:8 3.22574e-06
21 *47:33 *174:10 3.61763e-05
22 *435:A2 *435:A1 2.03526e-06
*RES
1 *669:CON *47:6 44.4761 
2 *47:6 *47:8 17.2 
3 *47:8 *47:18 47.4909 
4 *47:18 *435:A1 44.5617 
5 *47:8 *47:33 35.4691 
6 *47:33 *495:B 17.2 
*END

*D_NET *48 4.81055e-05
*CONN
*I *868:A I *D BUFx3_ASAP7_75t_SL
*I *495:A1 I *D OA21x2_ASAP7_75t_SL
*I *669:SN O *D HAxp5_ASAP7_75t_SL
*CAP
1 *868:A 3.2851e-06
2 *495:A1 7.99468e-06
3 *669:SN 0
4 *48:6 1.12798e-05
5 *495:A1 *50:58 6.7842e-07
6 *495:A1 *353:16 5.23062e-06
7 *495:A1 *407:10 1.89962e-06
8 *868:A *353:16 1.16894e-05
9 *868:A *407:10 3.95845e-06
10 *47:6 *495:A1 2.0895e-06
*RES
1 *669:SN *48:6 34.4 
2 *48:6 *495:A1 39.8333 
3 *48:6 *868:A 38.9053 
*END

*D_NET *49 0.000393833
*CONN
*I *620:A I *D INVx1_ASAP7_75t_SL
*I *670:B I *D HAxp5_ASAP7_75t_SL
*I *445:B I *D AND4x1_ASAP7_75t_SL
*I *710:QN O *D DFFHQNx1_ASAP7_75t_SL
*CAP
1 *620:A 8.14992e-06
2 *670:B 0
3 *445:B 8.35328e-06
4 *710:QN 8.69436e-06
5 *49:33 2.98726e-05
6 *49:18 4.03575e-05
7 *49:14 4.49602e-05
8 *49:12 8.22993e-05
9 *49:8 5.6315e-05
10 *445:B *445:C 5.41446e-06
11 *445:B *399:80 1.66659e-05
12 *620:A *276:93 1.35818e-05
13 *620:A *320:14 4.69725e-05
14 *49:14 *261:12 2.20495e-05
15 *49:18 *399:80 4.83862e-06
16 *49:33 *670:A 5.30786e-06
*RES
1 *710:QN *49:8 40.0317 
2 *49:8 *49:12 44.232 
3 *49:12 *49:14 33.694 
4 *49:14 *49:18 18.8895 
5 *49:18 *445:B 41.6361 
6 *49:18 *49:33 35.9189 
7 *49:33 *670:B 17.2 
8 *49:8 *620:A 48.8403 
*END

*D_NET *50 0.000551049
*CONN
*I *495:A2 I *D OA21x2_ASAP7_75t_SL
*I *488:A I *D INVx1_ASAP7_75t_SL
*I *434:B I *D OA21x2_ASAP7_75t_SL
*I *490:A2 I *D OA211x2_ASAP7_75t_SL
*I *484:C I *D AND3x1_ASAP7_75t_SL
*I *670:CON O *D HAxp5_ASAP7_75t_SL
*CAP
1 *495:A2 0
2 *488:A 2.05426e-05
3 *434:B 0
4 *490:A2 0
5 *484:C 0
6 *670:CON 5.04691e-06
7 *50:58 1.16553e-05
8 *50:50 6.0247e-05
9 *50:34 3.04369e-05
10 *50:27 1.42151e-05
11 *50:19 3.36806e-05
12 *50:12 3.98128e-05
13 *50:8 8.38802e-05
14 *488:A *866:A 5.85387e-06
15 *488:A *51:51 4.74304e-05
16 *488:A *407:48 2.66891e-05
17 *488:A *407:50 4.10256e-06
18 *50:8 *159:37 5.67735e-06
19 *50:12 *53:41 1.849e-06
20 *50:12 *159:37 3.69028e-05
21 *50:12 *351:8 0
22 *50:19 *434:A1 2.63882e-05
23 *50:19 *164:8 2.03526e-06
24 *50:27 *51:61 9.81412e-07
25 *50:27 *116:14 0
26 *50:27 *116:35 8.15645e-06
27 *50:27 *160:21 2.52325e-05
28 *50:34 *434:A1 8.15645e-06
29 *50:34 *51:51 6.02341e-06
30 *50:34 *51:61 3.90258e-06
31 *50:34 *162:6 2.47522e-06
32 *50:50 *867:A 8.87763e-06
33 *50:58 *407:10 1.6136e-05
34 *495:A1 *50:58 6.7842e-07
35 *47:6 *50:58 1.39826e-05
*RES
1 *670:CON *50:8 38.9053 
2 *50:8 *50:12 46.4846 
3 *50:12 *484:C 17.2 
4 *50:12 *50:19 6.95272 
5 *50:19 *50:27 45.55 
6 *50:27 *490:A2 17.2 
7 *50:19 *50:34 6.95272 
8 *50:34 *434:B 17.2 
9 *50:34 *488:A 33.7796 
10 *50:8 *50:50 36.9885 
11 *50:50 *50:58 43.7754 
12 *50:58 *495:A2 17.2 
*END

*D_NET *51 0.000961727
*CONN
*I *427:A I *D INVx1_ASAP7_75t_SL
*I *504:D I *D OR4x2_ASAP7_75t_SL
*I *496:B I *D OR3x1_ASAP7_75t_SL
*I *434:A2 I *D OA21x2_ASAP7_75t_SL
*I *487:C I *D OR3x1_ASAP7_75t_SL
*I *493:C I *D OR3x1_ASAP7_75t_SL
*I *670:SN O *D HAxp5_ASAP7_75t_SL
*CAP
1 *427:A 6.1116e-06
2 *504:D 6.51739e-06
3 *496:B 0
4 *434:A2 0
5 *487:C 0
6 *493:C 7.9824e-06
7 *670:SN 1.01113e-05
8 *51:91 1.01776e-05
9 *51:83 2.77786e-05
10 *51:69 8.46932e-06
11 *51:61 3.3276e-05
12 *51:51 4.10908e-05
13 *51:47 3.99895e-05
14 *51:28 4.47049e-05
15 *51:26 2.48953e-05
16 *51:24 2.29141e-05
17 *51:20 2.47434e-05
18 *51:14 5.51759e-05
19 *51:10 5.65517e-05
20 *427:A *141:54 1.12901e-05
21 *427:A *147:47 1.2903e-05
22 *493:C *493:B 1.35684e-06
23 *493:C *141:54 8.87521e-06
24 *493:C *147:47 8.53234e-06
25 *493:C *407:63 6.49184e-07
26 *504:D *504:B 2.12062e-05
27 *51:10 *159:37 5.1866e-06
28 *51:10 *162:10 0
29 *51:10 *300:50 2.05045e-06
30 *51:24 *406:6 4.14239e-05
31 *51:26 *141:54 3.35641e-06
32 *51:26 *147:47 4.83862e-06
33 *51:28 *141:54 7.4981e-05
34 *51:28 *147:47 7.63135e-05
35 *51:47 *54:45 1.87008e-07
36 *51:47 *118:18 2.19482e-06
37 *51:47 *125:14 3.10471e-05
38 *51:47 *407:20 1.49407e-08
39 *51:51 *162:6 4.86747e-06
40 *51:51 *405:8 7.28673e-06
41 *51:61 *490:B 2.38166e-05
42 *51:61 *116:10 1.92185e-05
43 *51:61 *162:6 1.35684e-06
44 *51:69 *485:B 1.09274e-05
45 *51:69 *116:35 1.17077e-05
46 *51:69 *159:12 3.3921e-06
47 *51:69 *159:20 1.35684e-06
48 *51:69 *160:21 1.04503e-05
49 *51:83 *504:B 8.87763e-06
50 *51:83 *406:6 6.45454e-06
51 *51:91 *496:A 5.07403e-06
52 *51:91 *504:B 1.89962e-06
53 *51:91 *161:8 1.49407e-08
54 *51:91 *181:8 5.36731e-06
55 *488:A *51:51 4.74304e-05
56 *45:78 *51:91 0
57 *47:6 *427:A 5.85387e-06
58 *47:6 *51:14 4.4887e-05
59 *47:18 *51:91 3.68287e-06
60 *50:27 *51:61 9.81412e-07
61 *50:34 *51:51 6.02341e-06
62 *50:34 *51:61 3.90258e-06
*RES
1 *670:SN *51:10 41.5511 
2 *51:10 *51:14 39.1278 
3 *51:14 *51:20 38.9053 
4 *51:20 *51:24 28.4313 
5 *51:24 *51:26 1.6895 
6 *51:26 *51:28 25.6241 
7 *51:28 *493:C 40.1715 
8 *51:28 *51:47 42.8201 
9 *51:47 *51:51 31.1054 
10 *51:51 *51:61 49.1804 
11 *51:61 *51:69 41.5511 
12 *51:69 *487:C 17.2 
13 *51:51 *434:A2 17.2 
14 *51:26 *51:83 25.2224 
15 *51:83 *51:91 42.2276 
16 *51:91 *496:B 17.2 
17 *51:83 *504:D 23.6179 
18 *51:24 *427:A 40.5098 
*END

*D_NET *52 0.000201565
*CONN
*I *445:C I *D AND4x1_ASAP7_75t_SL
*I *671:B I *D HAxp5_ASAP7_75t_SL
*I *616:A I *D INVx1_ASAP7_75t_SL
*I *709:QN O *D DFFHQNx1_ASAP7_75t_SL
*CAP
1 *445:C 1.25161e-05
2 *671:B 0
3 *616:A 5.18956e-06
4 *709:QN 2.04335e-05
5 *52:25 3.53118e-05
6 *52:21 6.69277e-05
7 *52:12 2.42894e-05
8 *52:10 2.04335e-05
9 *52:25 *671:A 0
10 *52:25 *298:10 0
11 *52:25 *399:10 0
12 *52:25 *399:67 0
13 *52:25 *399:80 0
14 *445:A *445:C 1.10486e-05
15 *445:B *445:C 5.41446e-06
*RES
1 *709:QN *52:10 46.3645 
2 *52:10 *52:12 17.2 
3 *52:12 *616:A 23.0831 
4 *52:12 *52:21 11.2313 
5 *52:21 *52:25 44.232 
6 *52:25 *671:B 34.4 
7 *52:21 *445:C 25.7572 
*END

*D_NET *53 0.000235126
*CONN
*I *487:B I *D OR3x1_ASAP7_75t_SL
*I *434:A1 I *D OA21x2_ASAP7_75t_SL
*I *484:B I *D AND3x1_ASAP7_75t_SL
*I *481:B I *D OA21x2_ASAP7_75t_SL
*I *671:CON O *D HAxp5_ASAP7_75t_SL
*CAP
1 *487:B 0
2 *434:A1 9.4119e-06
3 *484:B 0
4 *481:B 0
5 *671:CON 3.58064e-06
6 *53:41 1.17527e-05
7 *53:19 3.62129e-05
8 *53:12 3.70661e-05
9 *53:8 2.55984e-05
10 *434:A1 *162:6 1.60479e-05
11 *53:12 *54:6 3.10081e-06
12 *53:12 *54:13 3.14799e-06
13 *53:12 *54:24 3.74457e-06
14 *53:12 *117:6 6.06409e-06
15 *53:12 *117:23 6.06409e-06
16 *53:19 *54:24 1.23489e-06
17 *53:19 *116:45 2.30405e-06
18 *53:19 *117:23 3.23659e-06
19 *53:19 *162:6 8.89159e-06
20 *53:41 *116:35 8.53214e-06
21 *53:41 *116:45 1.10245e-05
22 *53:41 *159:37 1.71648e-06
23 *50:12 *53:41 1.849e-06
24 *50:19 *434:A1 2.63882e-05
25 *50:34 *434:A1 8.15645e-06
*RES
1 *671:CON *53:8 37.2158 
2 *53:8 *53:12 31.1054 
3 *53:12 *481:B 17.2 
4 *53:12 *53:19 10.1617 
5 *53:19 *484:B 17.2 
6 *53:19 *434:A1 27.3617 
7 *53:19 *53:41 44.9585 
8 *53:41 *487:B 17.2 
*END

*D_NET *54 0.000527612
*CONN
*I *493:B I *D OR3x1_ASAP7_75t_SL
*I *480:A I *D OR2x2_ASAP7_75t_SL
*I *485:A1 I *D OA21x2_ASAP7_75t_SL
*I *481:A1 I *D OA21x2_ASAP7_75t_SL
*I *426:A I *D INVx1_ASAP7_75t_SL
*I *671:SN O *D HAxp5_ASAP7_75t_SL
*CAP
1 *493:B 1.03757e-05
2 *480:A 2.22874e-06
3 *485:A1 0
4 *481:A1 0
5 *426:A 0
6 *671:SN 5.62407e-06
7 *54:45 6.35358e-05
8 *54:41 6.66879e-05
9 *54:28 3.06898e-05
10 *54:24 4.53958e-05
11 *54:13 4.1436e-05
12 *54:6 1.65976e-05
13 *480:A *494:A 2.55346e-06
14 *480:A *125:20 5.85387e-06
15 *480:A *141:54 1.70708e-06
16 *480:A *168:8 7.84772e-07
17 *493:B *125:18 1.61047e-05
18 *493:B *141:54 2.21297e-05
19 *493:B *168:8 5.60551e-07
20 *493:B *401:247 9.00919e-07
21 *493:B *407:50 5.85387e-06
22 *493:B *407:63 5.85387e-06
23 *54:24 *116:45 5.33881e-07
24 *54:24 *117:23 3.72138e-05
25 *54:24 *159:20 1.1646e-05
26 *54:41 *485:B 3.94592e-06
27 *54:41 *116:45 0
28 *54:41 *159:20 0
29 *54:41 *159:37 1.45831e-05
30 *54:45 *57:49 0.000100212
31 *54:45 *118:39 0
32 *54:45 *125:14 1.83076e-06
33 *493:C *493:B 1.35684e-06
34 *51:47 *54:45 1.87008e-07
35 *53:12 *54:6 3.10081e-06
36 *53:12 *54:13 3.14799e-06
37 *53:12 *54:24 3.74457e-06
38 *53:19 *54:24 1.23489e-06
*RES
1 *671:SN *54:6 19.8741 
2 *54:6 *426:A 17.2 
3 *54:6 *54:13 4.81343 
4 *54:13 *481:A1 17.2 
5 *54:13 *54:24 38.1752 
6 *54:24 *54:28 24.6875 
7 *54:28 *485:A1 17.2 
8 *54:28 *54:41 46.7135 
9 *54:41 *54:45 37.7616 
10 *54:45 *480:A 36.6615 
11 *54:45 *493:B 45.3994 
*END

*D_NET *55 0.000326058
*CONN
*I *672:B I *D HAxp5_ASAP7_75t_SL
*I *446:A I *D AND5x1_ASAP7_75t_SL
*I *612:A I *D INVx1_ASAP7_75t_SL
*I *708:QN O *D DFFHQNx1_ASAP7_75t_SL
*CAP
1 *672:B 9.83356e-06
2 *446:A 9.27283e-07
3 *612:A 0
4 *708:QN 0
5 *55:17 4.50976e-05
6 *55:13 6.56288e-05
7 *55:6 5.42302e-05
8 *55:4 6.58551e-05
9 *446:A *58:30 1.04475e-06
10 *446:A *276:32 3.89037e-06
11 *672:B *297:46 2.44497e-05
12 *55:6 *99:6 4.04408e-06
13 *55:6 *258:6 3.65663e-06
14 *55:6 *297:46 1.95129e-06
15 *55:13 *297:46 4.54484e-05
*RES
1 *708:QN *55:4 17.2 
2 *55:4 *55:6 35.8333 
3 *55:6 *612:A 17.2 
4 *55:4 *55:13 14.4403 
5 *55:13 *55:17 49.3005 
6 *55:17 *446:A 35.4697 
7 *55:13 *672:B 27.3617 
*END

*D_NET *56 0.000329917
*CONN
*I *421:B I *D OA21x2_ASAP7_75t_SL
*I *481:A2 I *D OA21x2_ASAP7_75t_SL
*I *672:CON O *D HAxp5_ASAP7_75t_SL
*CAP
1 *421:B 2.82831e-06
2 *481:A2 0
3 *672:CON 5.8308e-06
4 *56:23 3.33395e-05
5 *56:21 3.48668e-05
6 *56:10 2.0275e-05
7 *56:6 3.04614e-05
8 *421:B *276:32 5.85387e-06
9 *56:6 *57:36 3.56648e-06
10 *56:10 *57:8 3.47607e-06
11 *56:10 *67:30 6.93583e-05
12 *56:10 *159:28 8.39395e-06
13 *56:10 *403:33 4.5947e-06
14 *56:21 *57:36 3.3921e-06
15 *56:23 *67:30 0.00010368
16 *56:23 *109:54 0
17 *56:23 *110:14 0
*RES
1 *672:CON *56:6 20.9438 
2 *56:6 *56:10 40.853 
3 *56:10 *481:A2 34.4 
4 *56:6 *56:21 19.8741 
5 *56:21 *56:23 34.3531 
6 *56:23 *421:B 36.0045 
*END

*D_NET *57 0.00065227
*CONN
*I *494:A I *D OR2x2_ASAP7_75t_SL
*I *480:B I *D OR2x2_ASAP7_75t_SL
*I *477:A I *D XOR2x2_ASAP7_75t_SL
*I *421:A1 I *D OA21x2_ASAP7_75t_SL
*I *419:A I *D OR3x1_ASAP7_75t_SL
*I *672:SN O *D HAxp5_ASAP7_75t_SL
*CAP
1 *494:A 1.90517e-05
2 *480:B 0
3 *477:A 0
4 *421:A1 0
5 *419:A 0
6 *672:SN 0
7 *57:57 2.49748e-05
8 *57:49 7.09024e-05
9 *57:36 8.61395e-05
10 *57:20 1.41248e-05
11 *57:12 1.61822e-05
12 *57:8 4.15929e-05
13 *57:6 3.95356e-05
14 *57:4 2.11601e-05
15 *494:A *489:B 2.13304e-06
16 *494:A *125:20 3.79718e-06
17 *494:A *141:60 1.00854e-05
18 *494:A *172:12 2.8275e-06
19 *494:A *172:21 5.655e-06
20 *57:8 *67:30 2.12216e-05
21 *57:8 *111:10 8.46363e-06
22 *57:8 *136:8 6.23028e-06
23 *57:8 *400:112 4.1009e-06
24 *57:8 *403:19 6.41585e-07
25 *57:8 *403:33 1.42337e-05
26 *57:12 *64:73 8.65792e-06
27 *57:12 *276:32 2.61188e-06
28 *57:20 *446:E 6.7842e-07
29 *57:20 *64:73 7.35354e-06
30 *57:20 *111:10 0
31 *57:20 *276:32 1.07377e-06
32 *57:36 *67:30 3.84614e-05
33 *57:36 *117:23 2.70626e-05
34 *57:49 *67:30 5.86852e-06
35 *57:49 *117:23 7.47643e-06
36 *57:49 *117:27 0
37 *57:49 *117:46 0
38 *57:49 *118:39 0
39 *57:49 *169:18 1.27311e-05
40 *57:57 *489:B 9.92599e-06
41 *57:57 *118:18 3.28023e-07
42 *57:57 *401:247 3.7862e-06
43 *480:A *494:A 2.55346e-06
44 *54:45 *57:49 0.000100212
45 *56:6 *57:36 3.56648e-06
46 *56:10 *57:8 3.47607e-06
47 *56:21 *57:36 3.3921e-06
*RES
1 *672:SN *57:4 17.2 
2 *57:4 *57:6 17.2 
3 *57:6 *57:8 38.8585 
4 *57:8 *57:12 20.409 
5 *57:12 *57:20 43.2973 
6 *57:20 *419:A 17.2 
7 *57:12 *421:A1 17.2 
8 *57:4 *57:36 34.9662 
9 *57:36 *477:A 34.4 
10 *57:36 *57:49 44.8411 
11 *57:49 *57:57 38.482 
12 *57:57 *480:B 17.2 
13 *57:57 *494:A 30.5706 
*END

*D_NET *58 0.000316132
*CONN
*I *446:B I *D AND5x1_ASAP7_75t_SL
*I *673:B I *D HAxp5_ASAP7_75t_SL
*I *608:A I *D INVx1_ASAP7_75t_SL
*I *707:QN O *D DFFHQNx1_ASAP7_75t_SL
*CAP
1 *446:B 0
2 *673:B 0
3 *608:A 0
4 *707:QN 0
5 *58:30 3.21734e-05
6 *58:17 7.64232e-05
7 *58:6 7.84596e-05
8 *58:4 0.000122709
9 *58:6 *707:D 5.0551e-07
10 *58:6 *255:10 0
11 *58:6 *255:29 0
12 *58:6 *400:16 0
13 *58:17 *673:A 0
14 *58:17 *60:47 0
15 *58:30 *60:47 0
16 *58:30 *276:32 4.81639e-06
17 *446:A *58:30 1.04475e-06
*RES
1 *707:QN *58:4 17.2 
2 *58:4 *58:6 35.8333 
3 *58:6 *608:A 17.2 
4 *58:4 *58:17 39.9177 
5 *58:17 *673:B 34.4 
6 *58:17 *58:30 34.0063 
7 *58:30 *446:B 17.2 
*END

*D_NET *59 0.000114545
*CONN
*I *420:B I *D OA21x2_ASAP7_75t_SL
*I *673:CON O *D HAxp5_ASAP7_75t_SL
*CAP
1 *420:B 0
2 *673:CON 7.86113e-06
3 *59:12 1.60158e-05
4 *59:8 2.3877e-05
5 *59:8 *60:8 2.12481e-06
6 *59:8 *60:47 7.97634e-06
7 *59:12 *60:25 3.61852e-06
8 *59:12 *61:34 5.19808e-05
9 *59:12 *63:48 0
10 *59:12 *155:8 1.09067e-06
*RES
1 *673:CON *59:8 40.2831 
2 *59:8 *59:12 34.6581 
3 *59:12 *420:B 17.2 
*END

*D_NET *60 0.000246834
*CONN
*I *419:B I *D OR3x1_ASAP7_75t_SL
*I *472:A I *D XOR2x2_ASAP7_75t_SL
*I *474:A I *D OR2x2_ASAP7_75t_SL
*I *420:A1 I *D OA21x2_ASAP7_75t_SL
*I *673:SN O *D HAxp5_ASAP7_75t_SL
*CAP
1 *419:B 0
2 *472:A 0
3 *474:A 1.51331e-05
4 *420:A1 0
5 *673:SN 3.51132e-06
6 *60:47 3.7382e-05
7 *60:25 4.02177e-05
8 *60:14 3.41489e-05
9 *60:10 1.97522e-05
10 *60:8 5.15812e-05
11 *474:A *63:44 7.31327e-06
12 *60:10 *61:34 2.15146e-06
13 *60:14 *61:34 8.2174e-07
14 *60:25 *61:34 5.79724e-07
15 *60:25 *62:10 7.84037e-07
16 *60:25 *62:27 7.23704e-06
17 *60:25 *63:48 0
18 *60:25 *155:8 1.03816e-05
19 *60:47 *419:C 2.11853e-06
20 *58:17 *60:47 0
21 *58:30 *60:47 0
22 *59:8 *60:8 2.12481e-06
23 *59:8 *60:47 7.97634e-06
24 *59:12 *60:25 3.61852e-06
*RES
1 *673:SN *60:8 36.0045 
2 *60:8 *60:10 7.88432 
3 *60:10 *60:14 22.8317 
4 *60:14 *420:A1 17.2 
5 *60:14 *60:25 35.3594 
6 *60:25 *474:A 45.0965 
7 *60:10 *472:A 34.4 
8 *60:8 *60:47 40.4525 
9 *60:47 *419:B 17.2 
*END

*D_NET *61 0.000467788
*CONN
*I *446:C I *D AND5x1_ASAP7_75t_SL
*I *674:B I *D HAxp5_ASAP7_75t_SL
*I *604:A I *D INVx1_ASAP7_75t_SL
*I *706:QN O *D DFFHQNx1_ASAP7_75t_SL
*CAP
1 *446:C 1.75942e-06
2 *674:B 0
3 *604:A 0
4 *706:QN 2.45065e-05
5 *61:34 5.31227e-05
6 *61:32 6.44143e-05
7 *61:23 5.45887e-05
8 *61:10 6.60443e-05
9 *446:C *276:32 3.89037e-06
10 *61:23 *63:14 0
11 *61:23 *149:75 0
12 *61:23 *295:8 5.21648e-06
13 *61:23 *401:147 2.12481e-06
14 *61:32 *62:8 5.08828e-06
15 *61:32 *63:14 2.12481e-06
16 *61:32 *401:147 8.39579e-06
17 *61:34 *62:10 4.85784e-05
18 *61:34 *62:27 2.35022e-05
19 *61:34 *63:14 1.08624e-05
20 *61:34 *63:29 3.51915e-05
21 *61:34 *109:28 2.84286e-06
22 *59:12 *61:34 5.19808e-05
23 *60:10 *61:34 2.15146e-06
24 *60:14 *61:34 8.2174e-07
25 *60:25 *61:34 5.79724e-07
*RES
1 *706:QN *61:10 45.8014 
2 *61:10 *604:A 34.4 
3 *61:10 *61:23 46.9628 
4 *61:23 *674:B 17.2 
5 *61:23 *61:32 28.4313 
6 *61:32 *61:34 52.3744 
7 *61:34 *446:C 35.4697 
*END

*D_NET *62 0.000160351
*CONN
*I *420:A2 I *D OA21x2_ASAP7_75t_SL
*I *471:B I *D OA21x2_ASAP7_75t_SL
*I *674:CON O *D HAxp5_ASAP7_75t_SL
*CAP
1 *420:A2 0
2 *471:B 0
3 *674:CON 7.9162e-06
4 *62:27 1.36957e-05
5 *62:10 2.95382e-05
6 *62:8 2.37587e-05
7 *62:8 *63:14 2.52755e-07
8 *62:10 *63:48 0
9 *60:25 *62:10 7.84037e-07
10 *60:25 *62:27 7.23704e-06
11 *61:32 *62:8 5.08828e-06
12 *61:34 *62:10 4.85784e-05
13 *61:34 *62:27 2.35022e-05
*RES
1 *674:CON *62:8 39.2134 
2 *62:8 *62:10 16.3318 
3 *62:10 *471:B 34.4 
4 *62:10 *62:27 45.5216 
5 *62:27 *420:A2 34.4 
*END

*D_NET *63 0.0003346
*CONN
*I *474:B I *D OR2x2_ASAP7_75t_SL
*I *419:C I *D OR3x1_ASAP7_75t_SL
*I *471:A1 I *D OA21x2_ASAP7_75t_SL
*I *470:A I *D XOR2x2_ASAP7_75t_SL
*I *674:SN O *D HAxp5_ASAP7_75t_SL
*CAP
1 *474:B 0
2 *419:C 8.01022e-06
3 *471:A1 0
4 *470:A 1.42402e-05
5 *674:SN 0
6 *63:48 4.49047e-05
7 *63:44 6.28929e-05
8 *63:37 1.19313e-05
9 *63:29 4.59487e-05
10 *63:14 2.77878e-05
11 *63:6 2.15665e-05
12 *470:A *146:87 6.33206e-07
13 *470:A *149:75 3.16603e-06
14 *470:A *149:79 8.87763e-06
15 *63:14 *146:87 5.52807e-07
16 *63:29 *109:28 1.98844e-05
17 *63:37 *471:A2 2.03526e-06
18 *63:37 *109:28 3.6269e-06
19 *63:44 *471:A2 6.7842e-07
20 *63:48 *67:30 0
21 *63:48 *111:10 0
22 *63:48 *155:8 0
23 *474:A *63:44 7.31327e-06
24 *59:12 *63:48 0
25 *60:25 *63:48 0
26 *60:47 *419:C 2.11853e-06
27 *61:23 *63:14 0
28 *61:32 *63:14 2.12481e-06
29 *61:34 *63:14 1.08624e-05
30 *61:34 *63:29 3.51915e-05
31 *62:8 *63:14 2.52755e-07
32 *62:10 *63:48 0
*RES
1 *674:SN *63:6 34.4 
2 *63:6 *63:14 43.269 
3 *63:14 *470:A 43.8321 
4 *63:6 *63:29 29.0265 
5 *63:29 *63:37 40.9596 
6 *63:37 *471:A1 17.2 
7 *63:29 *63:44 12.301 
8 *63:44 *63:48 44.232 
9 *63:48 *419:C 39.2134 
10 *63:44 *474:B 17.2 
*END

*D_NET *64 0.000952773
*CONN
*I *599:A I *D NOR2x1_ASAP7_75t_SL
*I *446:D I *D AND5x1_ASAP7_75t_SL
*I *600:A1 I *D OA21x2_ASAP7_75t_SL
*I *675:B I *D HAxp5_ASAP7_75t_SL
*I *650:A I *D INVx1_ASAP7_75t_SL
*I *705:QN O *D DFFHQNx1_ASAP7_75t_SL
*CAP
1 *599:A 0
2 *446:D 0
3 *600:A1 1.98425e-05
4 *675:B 0
5 *650:A 0
6 *705:QN 3.30591e-05
7 *64:73 4.33361e-05
8 *64:53 3.59054e-05
9 *64:51 3.59054e-05
10 *64:49 4.10306e-05
11 *64:43 6.45242e-05
12 *64:41 4.1171e-05
13 *64:39 4.1171e-05
14 *64:37 2.57611e-05
15 *64:31 5.35756e-05
16 *64:27 5.76443e-05
17 *64:18 7.37308e-05
18 *64:8 7.69602e-05
19 *64:18 *146:69 0
20 *64:18 *283:10 4.26751e-07
21 *64:18 *402:266 3.63248e-06
22 *64:27 *210:16 0
23 *64:27 *283:10 4.26751e-07
24 *64:27 *294:10 6.1257e-06
25 *64:27 *402:266 0.000109663
26 *64:31 *232:14 1.60283e-05
27 *64:37 *600:B 3.16603e-06
28 *64:37 *249:8 5.97901e-06
29 *64:37 *250:8 3.73144e-06
30 *64:37 *401:243 6.7842e-07
31 *64:37 *401:247 1.6136e-06
32 *64:41 *600:A2 3.89037e-06
33 *64:41 *600:B 8.43848e-06
34 *64:41 *110:6 1.94746e-05
35 *64:41 *110:27 1.42799e-05
36 *64:41 *141:72 2.56903e-05
37 *64:49 *67:30 5.23062e-06
38 *64:53 *66:43 2.37635e-05
39 *64:53 *109:41 0
40 *64:53 *158:10 0
41 *64:53 *159:8 1.99791e-05
42 *64:73 *421:A2 5.22376e-07
43 *64:73 *446:E 7.83564e-06
44 *64:73 *67:30 1.12901e-05
45 *64:73 *276:32 1.27782e-06
46 *57:12 *64:73 8.65792e-06
47 *57:20 *64:73 7.35354e-06
*RES
1 *705:QN *64:8 49.9099 
2 *64:8 *64:18 48.9609 
3 *64:18 *650:A 34.4 
4 *64:18 *64:27 36.6058 
5 *64:27 *64:31 37.5233 
6 *64:31 *64:37 37.0205 
7 *64:37 *64:39 17.2 
8 *64:39 *64:41 46.5298 
9 *64:41 *64:43 17.2 
10 *64:43 *64:49 36.5387 
11 *64:49 *64:51 17.2 
12 *64:51 *64:53 33.2268 
13 *64:53 *675:B 34.4 
14 *64:49 *600:A1 35.384 
15 *64:43 *64:73 40.4242 
16 *64:73 *446:D 17.2 
17 *64:31 *599:A 17.2 
*END

*D_NET *65 0.000270018
*CONN
*I *418:B I *D OA21x2_ASAP7_75t_SL
*I *469:B I *D OA21x2_ASAP7_75t_SL
*I *475:A1 I *D AO21x1_ASAP7_75t_SL
*I *473:B I *D OA211x2_ASAP7_75t_SL
*I *675:CON O *D HAxp5_ASAP7_75t_SL
*CAP
1 *418:B 0
2 *469:B 1.44193e-05
3 *475:A1 0
4 *473:B 1.62651e-06
5 *675:CON 4.62594e-06
6 *65:38 2.22207e-05
7 *65:29 1.31765e-05
8 *65:14 3.49674e-05
9 *65:8 6.36145e-05
10 *65:6 2.95244e-05
11 *469:B *469:A1 2.28976e-06
12 *469:B *469:A2 5.41446e-06
13 *469:B *66:14 1.15198e-05
14 *469:B *109:10 3.28811e-06
15 *469:B *149:83 0
16 *469:B *156:10 0
17 *473:B *473:A1 1.52651e-06
18 *65:6 *66:8 6.7842e-07
19 *65:8 *109:14 9.67251e-06
20 *65:8 *109:22 5.85153e-06
21 *65:14 *67:30 1.13052e-05
22 *65:14 *109:22 5.29084e-06
23 *65:14 *156:10 4.1834e-06
24 *65:29 *67:30 3.00309e-06
25 *65:29 *156:10 6.13287e-06
26 *65:38 *66:10 3.47607e-06
27 *65:38 *66:14 3.47854e-06
28 *65:38 *66:43 2.83449e-06
29 *65:38 *109:10 5.89766e-06
*RES
1 *675:CON *65:6 19.8741 
2 *65:6 *65:8 13.3706 
3 *65:8 *65:14 42.4574 
4 *65:14 *473:B 35.4697 
5 *65:8 *65:29 45.6633 
6 *65:29 *475:A1 17.2 
7 *65:6 *65:38 25.0843 
8 *65:38 *469:B 46.1415 
9 *65:38 *418:B 34.4 
*END

*D_NET *66 0.000352391
*CONN
*I *475:A2 I *D AO21x1_ASAP7_75t_SL
*I *418:A1 I *D OA21x2_ASAP7_75t_SL
*I *466:A I *D XNOR2x2_ASAP7_75t_SL
*I *469:A1 I *D OA21x2_ASAP7_75t_SL
*I *675:SN O *D HAxp5_ASAP7_75t_SL
*CAP
1 *475:A2 0
2 *418:A1 1.92735e-05
3 *466:A 2.11952e-05
4 *469:A1 1.99127e-05
5 *675:SN 1.933e-05
6 *66:43 3.54285e-05
7 *66:14 5.98865e-05
8 *66:10 4.24701e-05
9 *66:8 5.91765e-05
10 *418:A1 *418:A2 2.14755e-06
11 *418:A1 *146:81 0
12 *466:A *469:A2 1.07377e-06
13 *466:A *146:73 0
14 *466:A *401:135 1.51653e-06
15 *469:A1 *469:A2 4.17901e-06
16 *469:A1 *149:79 5.22376e-07
17 *469:A1 *154:6 0
18 *66:14 *146:79 3.79923e-06
19 *66:14 *149:83 0
20 *66:14 *153:8 4.74248e-06
21 *66:14 *401:135 1.94229e-07
22 *66:43 *475:B 2.79851e-06
23 *66:43 *675:A 0
24 *66:43 *109:41 0
25 *66:43 *158:10 3.05302e-06
26 *466:B *466:A 3.65131e-06
27 *469:B *469:A1 2.28976e-06
28 *469:B *66:14 1.15198e-05
29 *64:53 *66:43 2.37635e-05
30 *65:6 *66:8 6.7842e-07
31 *65:38 *66:10 3.47607e-06
32 *65:38 *66:14 3.47854e-06
33 *65:38 *66:43 2.83449e-06
*RES
1 *675:SN *66:8 43.492 
2 *66:8 *66:10 3.379 
3 *66:10 *66:14 31.8423 
4 *66:14 *469:A1 26.8269 
5 *66:14 *466:A 27.3617 
6 *66:10 *418:A1 42.4224 
7 *66:8 *66:43 42.4255 
8 *66:43 *475:A2 17.2 
*END

*D_NET *67 0.000872145
*CONN
*I *445:D I *D AND4x1_ASAP7_75t_SL
*I *676:B I *D HAxp5_ASAP7_75t_SL
*I *410:A I *D INVx1_ASAP7_75t_SL
*I *704:QN O *D DFFHQNx1_ASAP7_75t_SL
*CAP
1 *445:D 6.93292e-06
2 *676:B 0
3 *410:A 3.72804e-06
4 *704:QN 2.47076e-05
5 *67:36 2.6412e-05
6 *67:30 0.0001652
7 *67:21 0.000164615
8 *67:10 3.60626e-05
9 *67:8 3.81478e-05
10 *410:A *400:63 1.04475e-06
11 *445:D *136:8 1.70866e-06
12 *445:D *399:80 3.32579e-06
13 *67:8 *649:B1 5.22376e-07
14 *67:8 *279:182 0
15 *67:8 *315:14 2.90209e-08
16 *67:8 *402:64 1.2768e-05
17 *67:10 *649:B1 5.06565e-06
18 *67:10 *276:191 3.16603e-06
19 *67:10 *293:24 3.05118e-08
20 *67:10 *293:37 1.09842e-06
21 *67:21 *293:37 7.75e-06
22 *67:30 *69:8 0
23 *67:30 *109:22 8.45637e-06
24 *67:30 *109:41 0
25 *67:30 *110:14 0
26 *67:30 *111:10 3.33843e-05
27 *67:30 *117:12 6.7126e-06
28 *67:30 *117:23 1.18255e-05
29 *67:30 *136:8 0
30 *67:30 *156:10 0
31 *67:30 *293:37 5.49212e-07
32 *67:30 *351:8 4.45472e-06
33 *67:36 *160:57 5.41446e-06
34 *22:30 *67:21 1.47844e-05
35 *22:30 *67:30 1.48299e-05
36 *56:10 *67:30 6.93583e-05
37 *56:23 *67:30 0.00010368
38 *57:8 *67:30 2.12216e-05
39 *57:36 *67:30 3.84614e-05
40 *57:49 *67:30 5.86852e-06
41 *63:48 *67:30 0
42 *64:49 *67:30 5.23062e-06
43 *64:73 *67:30 1.12901e-05
44 *65:14 *67:30 1.13052e-05
45 *65:29 *67:30 3.00309e-06
*RES
1 *704:QN *67:8 45.6313 
2 *67:8 *67:10 9.01066 
3 *67:10 *410:A 36.0045 
4 *67:10 *67:21 16.3318 
5 *67:21 *676:B 34.4 
6 *67:21 *67:30 151.492 
7 *67:30 *67:36 45.6313 
8 *67:36 *445:D 40.0317 
*END

*D_NET *68 0.000131995
*CONN
*I *468:B I *D OA21x2_ASAP7_75t_SL
*I *473:C I *D OA211x2_ASAP7_75t_SL
*I *676:CON O *D HAxp5_ASAP7_75t_SL
*CAP
1 *468:B 0
2 *473:C 1.17813e-05
3 *676:CON 9.67886e-06
4 *68:12 2.52694e-05
5 *68:8 2.3167e-05
6 *473:C *468:A1 9.08513e-06
7 *473:C *473:A1 1.62312e-05
8 *473:C *149:85 9.83747e-06
9 *473:C *210:30 3.68565e-06
10 *22:24 *68:8 3.65131e-06
11 *22:30 *68:8 9.83747e-06
12 *22:43 *68:12 9.76995e-06
13 *24:6 *68:12 0
*RES
1 *676:CON *68:8 43.492 
2 *68:8 *68:12 27.337 
3 *68:12 *473:C 29.501 
4 *68:12 *468:B 17.2 
*END

*D_NET *69 7.69031e-05
*CONN
*I *468:A1 I *D OA21x2_ASAP7_75t_SL
*I *473:A1 I *D OA211x2_ASAP7_75t_SL
*I *676:SN O *D HAxp5_ASAP7_75t_SL
*CAP
1 *468:A1 2.28703e-06
2 *473:A1 9.78168e-06
3 *676:SN 8.55982e-06
4 *69:10 1.20687e-05
5 *69:8 8.55982e-06
6 *468:A1 *210:30 2.12481e-06
7 *473:A1 *156:8 2.12481e-06
8 *69:8 *156:10 2.24484e-06
9 *69:8 *210:38 2.30873e-06
10 *473:B *473:A1 1.52651e-06
11 *473:C *468:A1 9.08513e-06
12 *473:C *473:A1 1.62312e-05
13 *22:43 *69:8 0
14 *67:30 *69:8 0
*RES
1 *676:SN *69:8 40.0317 
2 *69:8 *69:10 17.2 
3 *69:10 *473:A1 25.2224 
4 *69:10 *468:A1 19.8741 
*END

*D_NET *70 0.000125098
*CONN
*I *551:A I *D INVx1_ASAP7_75t_SL
*I *677:A I *D HAxp5_ASAP7_75t_SL
*I *681:QN O *D DFFHQNx1_ASAP7_75t_SL
*CAP
1 *551:A 0
2 *677:A 1.1747e-05
3 *681:QN 2.53565e-05
4 *70:10 2.21464e-05
5 *70:6 3.57559e-05
6 *677:A *71:8 1.62854e-06
7 *70:6 *681:D 1.62312e-05
8 *70:6 *276:263 1.01102e-06
9 *70:6 *302:26 1.63292e-06
10 *70:6 *339:18 9.30483e-06
11 *70:10 *208:10 2.83874e-07
*RES
1 *681:QN *70:6 33.7796 
2 *70:6 *70:10 22.8317 
3 *70:10 *677:A 42.2843 
4 *70:10 *551:A 34.4 
*END

*D_NET *71 0.000589717
*CONN
*I *467:A I *D INVx1_ASAP7_75t_SL
*I *677:CON O *D HAxp5_ASAP7_75t_SL
*CAP
1 *467:A 0
2 *677:CON 5.98793e-06
3 *71:26 5.67016e-06
4 *71:20 0.000148257
5 *71:18 0.00014667
6 *71:12 4.21529e-05
7 *71:10 3.80699e-05
8 *71:8 5.98793e-06
9 *71:8 *304:20 5.97901e-06
10 *71:12 *402:482 0.000106701
11 *71:18 *402:307 1.34466e-06
12 *71:18 *402:480 8.33296e-06
13 *71:20 *402:6 0
14 *71:26 *276:158 0
15 *71:26 *398:39 0
16 *677:A *71:8 1.62854e-06
17 *4:18 *71:20 7.29357e-05
*RES
1 *677:CON *71:8 40.0317 
2 *71:8 *71:10 17.2 
3 *71:10 *71:12 33.694 
4 *71:12 *71:18 38.3422 
5 *71:18 *71:20 64.7138 
6 *71:20 *71:26 37.779 
7 *71:26 *467:A 17.2 
*END

*D_NET *72 9.27439e-05
*CONN
*I *681:D I *D DFFHQNx1_ASAP7_75t_SL
*I *561:Y O *D OA21x2_ASAP7_75t_SL
*CAP
1 *681:D 2.5065e-05
2 *561:Y 1.19603e-05
3 *72:8 3.70253e-05
4 *72:8 *560:B2 0
5 *72:8 *208:10 0
6 *72:8 *217:18 7.84037e-07
7 *72:8 *276:257 1.67815e-06
8 *70:6 *681:D 1.62312e-05
*RES
1 *561:Y *72:8 43.4107 
2 *72:8 *681:D 46.701 
*END

*D_NET *73 3.67558e-05
*CONN
*I *682:D I *D DFFHQNx1_ASAP7_75t_SL
*I *565:Y O *D OA21x2_ASAP7_75t_SL
*CAP
1 *682:D 0
2 *565:Y 1.06854e-05
3 *73:10 1.06854e-05
4 *73:10 *565:B 5.17782e-06
5 *73:10 *287:24 1.02072e-05
*RES
1 *565:Y *73:10 41.5228 
2 *73:10 *682:D 34.4 
*END

*D_NET *74 0.000117989
*CONN
*I *683:D I *D DFFHQNx1_ASAP7_75t_SL
*I *570:Y O *D AOI22x1_ASAP7_75t_SL
*CAP
1 *683:D 0
2 *570:Y 1.41926e-05
3 *74:14 2.73932e-05
4 *74:8 4.15857e-05
5 *74:8 *570:A2 1.56713e-06
6 *74:14 *213:200 0
7 *74:14 *221:10 5.37866e-07
8 *74:14 *224:8 2.35211e-06
9 *74:14 *401:49 0
10 *570:A1 *74:14 6.72009e-06
11 *18:10 *74:14 2.36401e-05
*RES
1 *570:Y *74:8 40.2831 
2 *74:8 *74:14 38.6817 
3 *74:14 *683:D 17.2 
*END

*D_NET *75 0.000226466
*CONN
*I *684:D I *D DFFHQNx1_ASAP7_75t_SL
*I *578:Y O *D OA33x2_ASAP7_75t_SL
*CAP
1 *684:D 1.88184e-05
2 *578:Y 5.97878e-06
3 *75:12 5.10938e-05
4 *75:8 3.82541e-05
5 *684:D *398:103 5.95208e-05
6 *75:8 *230:8 3.65131e-06
7 *75:12 *147:136 4.03399e-07
8 *75:12 *279:215 7.50766e-06
9 *75:12 *401:112 0
10 *75:12 *402:319 1.70708e-06
11 *75:12 *402:463 8.33296e-06
12 *75:12 *403:63 7.27389e-06
13 *571:A *75:12 2.25196e-06
14 *34:33 *75:12 2.16714e-05
*RES
1 *578:Y *75:8 38.1438 
2 *75:8 *75:12 40.853 
3 *75:12 *684:D 35.384 
*END

*D_NET *76 0.000113186
*CONN
*I *685:D I *D DFFHQNx1_ASAP7_75t_SL
*I *585:Y O *D AOI22x1_ASAP7_75t_SL
*CAP
1 *685:D 2.57067e-05
2 *585:Y 5.92585e-06
3 *76:8 3.16326e-05
4 *685:D *397:80 4.76072e-05
5 *76:8 *149:105 2.31345e-06
6 *16:8 *76:8 0
7 *16:18 *76:8 0
*RES
1 *585:Y *76:8 37.779 
2 *76:8 *685:D 48.8403 
*END

*D_NET *77 9.66683e-05
*CONN
*I *686:D I *D DFFHQNx1_ASAP7_75t_SL
*I *590:Y O *D AO21x2_ASAP7_75t_SL
*CAP
1 *686:D 3.3538e-06
2 *590:Y 3.21802e-05
3 *77:8 3.5534e-05
4 *686:D *279:301 5.52807e-07
5 *686:D *397:59 1.02072e-05
6 *77:8 *590:A2 2.12481e-06
7 *77:8 *590:B 1.51653e-06
8 *77:8 *344:10 1.1199e-05
*RES
1 *590:Y *77:8 49.9099 
2 *77:8 *686:D 37.779 
*END

*D_NET *78 8.40858e-05
*CONN
*I *687:D I *D DFFHQNx1_ASAP7_75t_SL
*I *595:Y O *D AO21x2_ASAP7_75t_SL
*CAP
1 *687:D 0
2 *595:Y 0
3 *78:12 4.05087e-05
4 *78:6 4.05087e-05
5 *78:12 *242:10 0
6 *78:12 *242:25 2.43534e-06
7 *78:12 *243:8 0
8 *78:12 *279:301 0
9 *78:12 *279:312 0
10 *78:12 *310:20 6.33206e-07
*RES
1 *595:Y *78:6 34.4 
2 *78:6 *78:12 42.2874 
3 *78:12 *687:D 17.2 
*END

*D_NET *79 3.22063e-05
*CONN
*I *688:D I *D DFFHQNx1_ASAP7_75t_SL
*I *598:Y O *D AO221x2_ASAP7_75t_SL
*CAP
1 *688:D 7.33181e-06
2 *598:Y 3.23394e-06
3 *79:8 1.05658e-05
4 *79:8 *247:12 9.94583e-06
5 *79:8 *313:8 1.12894e-06
*RES
1 *598:Y *79:8 37.779 
2 *79:8 *688:D 37.0741 
*END

*D_NET *80 3.81567e-05
*CONN
*I *689:D I *D DFFHQNx1_ASAP7_75t_SL
*I *603:Y O *D OA22x2_ASAP7_75t_SL
*CAP
1 *689:D 0
2 *603:Y 1.14958e-05
3 *80:10 1.14958e-05
4 *80:10 *146:174 2.68933e-07
5 *80:10 *250:12 9.8079e-06
6 *80:10 *294:29 5.08828e-06
*RES
1 *603:Y *80:10 41.5228 
2 *80:10 *689:D 34.4 
*END

*D_NET *81 4.82115e-05
*CONN
*I *690:D I *D DFFHQNx1_ASAP7_75t_SL
*I *607:Y O *D OA21x2_ASAP7_75t_SL
*CAP
1 *690:D 0
2 *607:Y 1.90299e-05
3 *81:10 1.90299e-05
4 *81:10 *607:B 3.84488e-06
5 *81:10 *295:30 4.00409e-06
6 *81:10 *401:147 2.30288e-06
*RES
1 *607:Y *81:10 44.7317 
2 *81:10 *690:D 34.4 
*END

*D_NET *82 5.53025e-05
*CONN
*I *691:D I *D DFFHQNx1_ASAP7_75t_SL
*I *611:Y O *D OA21x2_ASAP7_75t_SL
*CAP
1 *691:D 0
2 *611:Y 2.41572e-05
3 *82:10 2.41572e-05
4 *82:10 *611:A2 6.7842e-07
5 *82:10 *146:106 6.02591e-06
6 *82:10 *210:75 0
7 *82:10 *400:20 2.83874e-07
8 *82:10 *400:33 0
*RES
1 *611:Y *82:10 48.2241 
2 *82:10 *691:D 34.4 
*END

*D_NET *83 4.9005e-05
*CONN
*I *692:D I *D DFFHQNx1_ASAP7_75t_SL
*I *615:Y O *D AO221x2_ASAP7_75t_SL
*CAP
1 *692:D 2.36179e-05
2 *615:Y 2.36179e-05
3 *692:D *399:22 1.76928e-06
*RES
1 *615:Y *692:D 45.6313 
*END

*D_NET *84 3.23314e-05
*CONN
*I *693:D I *D DFFHQNx1_ASAP7_75t_SL
*I *619:Y O *D AO221x2_ASAP7_75t_SL
*CAP
1 *693:D 1.61657e-05
2 *619:Y 1.61657e-05
*RES
1 *619:Y *693:D 43.492 
*END

*D_NET *85 2.78067e-05
*CONN
*I *694:D I *D DFFHQNx1_ASAP7_75t_SL
*I *623:Y O *D OA21x2_ASAP7_75t_SL
*CAP
1 *694:D 0
2 *623:Y 1.3627e-05
3 *85:10 1.3627e-05
4 *85:10 *299:8 0
5 *85:10 *399:60 5.52807e-07
*RES
1 *623:Y *85:10 41.5228 
2 *85:10 *694:D 34.4 
*END

*D_NET *86 2.96954e-05
*CONN
*I *695:D I *D DFFHQNx1_ASAP7_75t_SL
*I *628:Y O *D OA22x2_ASAP7_75t_SL
*CAP
1 *695:D 5.75326e-06
2 *628:Y 3.61965e-06
3 *86:8 9.37291e-06
4 *695:D *695:CLK 1.01102e-06
5 *86:8 *402:218 9.93857e-06
*RES
1 *628:Y *86:8 37.779 
2 *86:8 *695:D 37.0741 
*END

*D_NET *87 4.4419e-05
*CONN
*I *696:D I *D DFFHQNx1_ASAP7_75t_SL
*I *633:Y O *D OA22x2_ASAP7_75t_SL
*CAP
1 *696:D 1.67782e-05
2 *633:Y 5.43134e-06
3 *87:8 2.22095e-05
4 *87:8 *232:52 0
*RES
1 *633:Y *87:8 37.779 
2 *87:8 *696:D 41.3527 
*END

*D_NET *88 6.5298e-05
*CONN
*I *697:D I *D DFFHQNx1_ASAP7_75t_SL
*I *640:Y O *D OA222x2_ASAP7_75t_SL
*CAP
1 *697:D 1.5529e-05
2 *640:Y 1.712e-05
3 *88:8 3.2649e-05
4 *697:D *302:26 0
*RES
1 *640:Y *88:8 41.3527 
2 *88:8 *697:D 46.2265 
*END

*D_NET *89 0.000105311
*CONN
*I *698:D I *D DFFHQNx1_ASAP7_75t_SL
*I *641:Y O *D OA222x2_ASAP7_75t_SL
*CAP
1 *698:D 0
2 *641:Y 0
3 *89:12 2.61757e-05
4 *89:6 2.61757e-05
5 *89:12 *279:277 5.16789e-05
6 *89:12 *397:44 5.22376e-07
7 *40:6 *89:12 7.58265e-07
*RES
1 *641:Y *89:6 34.4 
2 *89:6 *89:12 38.4019 
3 *89:12 *698:D 17.2 
*END

*D_NET *90 4.50868e-05
*CONN
*I *699:D I *D DFFHQNx1_ASAP7_75t_SL
*I *643:Y O *D OA222x2_ASAP7_75t_SL
*CAP
1 *699:D 0
2 *643:Y 1.29181e-05
3 *90:10 1.29181e-05
4 *90:10 *643:C2 9.30483e-06
5 *90:10 *341:18 9.94583e-06
*RES
1 *643:Y *90:10 41.5228 
2 *90:10 *699:D 34.4 
*END

*D_NET *91 2.61103e-05
*CONN
*I *700:D I *D DFFHQNx1_ASAP7_75t_SL
*I *644:Y O *D OA222x2_ASAP7_75t_SL
*CAP
1 *700:D 0
2 *644:Y 1.05442e-05
3 *91:10 1.05442e-05
4 *91:10 *568:C 3.73144e-06
5 *91:10 *146:18 1.00648e-06
6 *34:10 *91:10 2.83874e-07
*RES
1 *644:Y *91:10 40.4531 
2 *91:10 *700:D 34.4 
*END

*D_NET *92 3.96949e-05
*CONN
*I *701:D I *D DFFHQNx1_ASAP7_75t_SL
*I *646:Y O *D OA222x2_ASAP7_75t_SL
*CAP
1 *701:D 1.17345e-05
2 *646:Y 5.50104e-06
3 *92:8 1.72356e-05
4 *92:8 *581:B 0
5 *92:8 *290:10 0
6 *28:36 *701:D 5.22376e-06
*RES
1 *646:Y *92:8 37.779 
2 *92:8 *701:D 40.2831 
*END

*D_NET *93 4.78253e-05
*CONN
*I *702:D I *D DFFHQNx1_ASAP7_75t_SL
*I *647:Y O *D OA222x2_ASAP7_75t_SL
*CAP
1 *702:D 1.47344e-05
2 *647:Y 3.95405e-06
3 *93:8 1.86885e-05
4 *93:8 *213:240 9.81516e-06
5 *93:8 *309:16 6.33206e-07
*RES
1 *647:Y *93:8 37.779 
2 *93:8 *702:D 40.2831 
*END

*D_NET *94 0.000261361
*CONN
*I *703:D I *D DFFHQNx1_ASAP7_75t_SL
*I *648:Y O *D OA222x2_ASAP7_75t_SL
*CAP
1 *703:D 5.05646e-05
2 *648:Y 2.90416e-05
3 *94:12 7.08735e-05
4 *94:8 4.93505e-05
5 *94:8 *648:A2 1.56713e-06
6 *94:8 *242:14 5.0551e-07
7 *94:8 *242:25 1.26378e-06
8 *94:8 *276:325 1.29755e-05
9 *94:12 *276:317 4.97654e-06
10 *94:12 *292:27 2.53282e-06
11 *94:12 *397:70 4.43925e-06
12 *94:12 *397:109 5.06565e-06
13 *94:12 *402:399 8.57583e-06
14 *94:12 *402:410 1.96289e-05
*RES
1 *648:Y *94:8 47.7706 
2 *94:8 *94:12 34.6581 
3 *94:12 *703:D 39.1278 
*END

*D_NET *95 0.000274067
*CONN
*I *704:D I *D DFFHQNx1_ASAP7_75t_SL
*I *649:Y O *D OA222x2_ASAP7_75t_SL
*CAP
1 *704:D 0
2 *649:Y 4.29013e-06
3 *95:18 5.55226e-06
4 *95:12 0.000112148
5 *95:10 0.000106596
6 *95:8 4.29013e-06
7 *95:8 *402:28 9.66909e-06
8 *95:12 *329:8 8.4825e-06
9 *95:12 *402:43 2.3039e-05
10 *95:18 *329:14 0
*RES
1 *649:Y *95:8 37.779 
2 *95:8 *95:10 17.2 
3 *95:10 *95:12 41.1815 
4 *95:12 *95:18 37.779 
5 *95:18 *704:D 17.2 
*END

*D_NET *96 4.85123e-05
*CONN
*I *705:D I *D DFFHQNx1_ASAP7_75t_SL
*I *651:Y O *D OA222x2_ASAP7_75t_SL
*CAP
1 *705:D 1.55981e-05
2 *651:Y 8.65808e-06
3 *96:8 2.42561e-05
4 *96:8 *276:146 0
5 *96:8 *398:39 0
*RES
1 *651:Y *96:8 38.9053 
2 *96:8 *705:D 41.3527 
*END

*D_NET *97 2.68223e-05
*CONN
*I *706:D I *D DFFHQNx1_ASAP7_75t_SL
*I *652:Y O *D OA222x2_ASAP7_75t_SL
*CAP
1 *706:D 3.51132e-06
2 *652:Y 3.8645e-06
3 *97:8 7.37581e-06
4 *706:D *400:50 2.12481e-06
5 *97:8 *348:18 9.94583e-06
6 *97:8 *400:50 0
*RES
1 *652:Y *97:8 37.779 
2 *97:8 *706:D 36.0045 
*END

*D_NET *98 5.37744e-05
*CONN
*I *707:D I *D DFFHQNx1_ASAP7_75t_SL
*I *653:Y O *D OA222x2_ASAP7_75t_SL
*CAP
1 *707:D 1.00667e-06
2 *653:Y 1.61851e-05
3 *98:10 1.71918e-05
4 *707:D *400:16 3.90258e-06
5 *98:10 *146:117 1.2903e-05
6 *98:10 *276:32 1.53057e-06
7 *98:10 *400:20 5.49212e-07
8 *58:6 *707:D 5.0551e-07
*RES
1 *653:Y *98:10 43.7188 
2 *98:10 *707:D 35.4697 
*END

*D_NET *99 0.000105265
*CONN
*I *708:D I *D DFFHQNx1_ASAP7_75t_SL
*I *654:Y O *D OA222x2_ASAP7_75t_SL
*CAP
1 *708:D 0
2 *654:Y 3.39467e-05
3 *99:6 3.39467e-05
4 *99:6 *258:6 3.33273e-05
5 *55:6 *99:6 4.04408e-06
*RES
1 *654:Y *99:6 35.9189 
2 *99:6 *708:D 17.2 
*END

*D_NET *100 4.86947e-05
*CONN
*I *709:D I *D DFFHQNx1_ASAP7_75t_SL
*I *655:Y O *D OA222x2_ASAP7_75t_SL
*CAP
1 *709:D 2.43474e-05
2 *655:Y 2.43474e-05
*RES
1 *655:Y *709:D 44.5617 
*END

*D_NET *101 2.06373e-05
*CONN
*I *710:D I *D DFFHQNx1_ASAP7_75t_SL
*I *656:Y O *D OA222x2_ASAP7_75t_SL
*CAP
1 *710:D 4.12326e-06
2 *656:Y 3.8565e-06
3 *101:8 7.97976e-06
4 *710:D *710:CLK 2.66797e-07
5 *101:8 *656:C2 0
6 *101:8 *146:125 4.41094e-06
7 *101:8 *264:25 0
*RES
1 *656:Y *101:8 37.779 
2 *101:8 *710:D 36.0045 
*END

*D_NET *102 7.88363e-05
*CONN
*I *711:D I *D DFFHQNx1_ASAP7_75t_SL
*I *658:Y O *D OA222x2_ASAP7_75t_SL
*CAP
1 *711:D 1.92256e-05
2 *658:Y 1.3199e-05
3 *102:10 3.24246e-05
4 *711:D *399:82 0
5 *102:10 *658:C2 7.13767e-06
6 *102:10 *299:46 3.76935e-06
7 *102:10 *399:82 1.04475e-06
8 *46:28 *102:10 2.03526e-06
*RES
1 *658:Y *102:10 44.1686 
2 *102:10 *711:D 43.492 
*END

*D_NET *103 7.31482e-05
*CONN
*I *712:D I *D DFFHQNx1_ASAP7_75t_SL
*I *660:Y O *D OA222x2_ASAP7_75t_SL
*CAP
1 *712:D 1.62631e-05
2 *660:Y 1.22654e-05
3 *103:10 2.85284e-05
4 *712:D *696:CLK 3.53857e-06
5 *103:10 *660:C2 3.46769e-06
6 *103:10 *301:39 9.08513e-06
*RES
1 *660:Y *103:10 42.7058 
2 *103:10 *712:D 42.4224 
*END

*D_NET *104 0.0001155
*CONN
*P req_msg[22] I
*I *412:A I *D BUFx2_ASAP7_75t_SL
*CAP
1 req_msg[22] 2.68144e-05
2 *412:A 0
3 *104:9 2.68144e-05
4 *104:9 *374:9 2.99713e-05
5 *104:9 *375:5 3.18996e-05
*RES
1 req_msg[22] *104:9 41.4829 
2 *104:9 *412:A 34.4 
*END

*D_NET *105 0.000136705
*CONN
*P req_msg[21] I
*I *414:A I *D BUFx2_ASAP7_75t_SL
*CAP
1 req_msg[21] 1.9257e-05
2 *414:A 2.08871e-05
3 *105:11 4.01441e-05
4 *414:A *371:13 1.36488e-05
5 *105:11 *371:9 4.2768e-05
*RES
1 req_msg[21] *105:11 49.9127 
2 *105:11 *414:A 38.0582 
*END

*D_NET *106 0.000191985
*CONN
*I *465:A1 I *D AO221x1_ASAP7_75t_SL
*I *454:A1 I *D OA21x2_ASAP7_75t_SL
*I *415:Y O *D INVx1_ASAP7_75t_SL
*CAP
1 *465:A1 0
2 *454:A1 0
3 *415:Y 9.31826e-06
4 *106:27 1.21809e-05
5 *106:12 4.59301e-05
6 *106:6 6.74293e-05
7 *106:6 *401:22 3.09538e-06
8 *106:12 *338:14 2.03466e-05
9 *106:12 *338:20 8.20846e-06
10 *106:12 *338:31 4.90042e-07
11 *106:12 *401:22 6.49184e-07
12 *106:27 *465:C 1.59336e-05
13 *106:27 *355:18 2.62708e-06
14 *106:27 *401:28 2.02432e-06
15 *20:10 *106:12 3.75158e-06
*RES
1 *415:Y *106:6 20.9438 
2 *106:6 *106:12 38.2282 
3 *106:12 *454:A1 34.4 
4 *106:6 *106:27 43.354 
5 *106:27 *465:A1 17.2 
*END

*D_NET *107 0.000253806
*CONN
*P req_msg[20] I
*I *416:A I *D BUFx2_ASAP7_75t_SL
*CAP
1 req_msg[20] 2.38166e-05
2 *416:A 0
3 *107:13 3.99533e-05
4 *107:11 3.99533e-05
5 *107:9 2.38166e-05
6 *107:9 resp_msg[4] 1.13174e-05
7 *107:9 *390:12 9.37724e-06
8 *107:13 *349:16 1.75582e-05
9 *107:13 *390:6 8.8013e-05
*RES
1 req_msg[20] *107:9 34.4022 
2 *107:9 *107:11 17.2 
3 *107:11 *107:13 37.9726 
4 *107:13 *416:A 17.2 
*END

*D_NET *108 5.9353e-05
*CONN
*I *418:A2 I *D OA21x2_ASAP7_75t_SL
*I *417:Y O *D INVx1_ASAP7_75t_SL
*CAP
1 *418:A2 1.44994e-05
2 *417:Y 1.44994e-05
3 *418:A2 *109:10 2.37922e-05
4 *417:A *418:A2 4.41457e-06
5 *418:A1 *418:A2 2.14755e-06
*RES
1 *417:Y *418:A2 46.1661 
*END

*D_NET *109 0.000542736
*CONN
*I *478:A1 I *D OA21x2_ASAP7_75t_SL
*I *422:A1 I *D OAI21x1_ASAP7_75t_SL
*I *471:A2 I *D OA21x2_ASAP7_75t_SL
*I *418:Y O *D OA21x2_ASAP7_75t_SL
*CAP
1 *478:A1 0
2 *422:A1 0
3 *471:A2 3.2564e-06
4 *418:Y 1.33825e-05
5 *109:54 2.21096e-05
6 *109:41 7.29122e-05
7 *109:39 5.08026e-05
8 *109:28 5.19517e-05
9 *109:22 6.75791e-05
10 *109:14 3.10602e-05
11 *109:10 2.55589e-05
12 *109:10 *146:81 2.35847e-05
13 *109:10 *156:10 0
14 *109:41 *110:14 6.79293e-06
15 *109:41 *110:27 6.79293e-06
16 *109:41 *156:10 5.15961e-05
17 *109:41 *158:10 1.36943e-05
18 *109:41 *159:8 0
19 *109:54 *478:B 0
20 *109:54 *110:14 9.02323e-06
21 *109:54 *110:27 7.84037e-07
22 *109:54 *137:12 5.37866e-07
23 *109:54 *159:8 0
24 *418:A2 *109:10 2.37922e-05
25 *469:B *109:10 3.28811e-06
26 *56:23 *109:54 0
27 *61:34 *109:28 2.84286e-06
28 *63:29 *109:28 1.98844e-05
29 *63:37 *471:A2 2.03526e-06
30 *63:37 *109:28 3.6269e-06
31 *63:44 *471:A2 6.7842e-07
32 *64:53 *109:41 0
33 *65:8 *109:14 9.67251e-06
34 *65:8 *109:22 5.85153e-06
35 *65:14 *109:22 5.29084e-06
36 *65:38 *109:10 5.89766e-06
37 *66:43 *109:41 0
38 *67:30 *109:22 8.45637e-06
39 *67:30 *109:41 0
*RES
1 *418:Y *109:10 49.237 
2 *109:10 *109:14 24.1527 
3 *109:14 *109:22 45.2382 
4 *109:22 *109:28 49.2081 
5 *109:28 *471:A2 36.0045 
6 *109:14 *109:39 17.2 
7 *109:39 *109:41 45.0533 
8 *109:41 *422:A1 34.4 
9 *109:41 *109:54 33.8116 
10 *109:54 *478:A1 17.2 
*END

*D_NET *110 0.00016833
*CONN
*I *422:A2 I *D OAI21x1_ASAP7_75t_SL
*I *478:A2 I *D OA21x2_ASAP7_75t_SL
*I *419:Y O *D OR3x1_ASAP7_75t_SL
*CAP
1 *422:A2 0
2 *478:A2 0
3 *419:Y 1.99629e-05
4 *110:27 1.6626e-05
5 *110:14 1.85913e-05
6 *110:6 5.51803e-05
7 *110:27 *112:10 8.2174e-07
8 *56:23 *110:14 0
9 *64:41 *110:6 1.94746e-05
10 *64:41 *110:27 1.42799e-05
11 *67:30 *110:14 0
12 *109:41 *110:14 6.79293e-06
13 *109:41 *110:27 6.79293e-06
14 *109:54 *110:14 9.02323e-06
15 *109:54 *110:27 7.84037e-07
*RES
1 *419:Y *110:6 26.292 
2 *110:6 *110:14 48.4225 
3 *110:14 *478:A2 17.2 
4 *110:6 *110:27 44.8451 
5 *110:27 *422:A2 17.2 
*END

*D_NET *111 0.0001989
*CONN
*I *476:B I *D OA21x2_ASAP7_75t_SL
*I *421:A2 I *D OA21x2_ASAP7_75t_SL
*I *420:Y O *D OA21x2_ASAP7_75t_SL
*CAP
1 *476:B 2.55157e-05
2 *421:A2 1.41174e-06
3 *420:Y 2.22514e-05
4 *111:10 2.76044e-05
5 *111:6 7.39598e-05
6 *421:A2 *276:32 3.90258e-06
7 *476:B *476:A1 5.22376e-07
8 *476:B *476:A2 1.36155e-06
9 *57:8 *111:10 8.46363e-06
10 *57:20 *111:10 0
11 *63:48 *111:10 0
12 *64:73 *421:A2 5.22376e-07
13 *67:30 *111:10 3.33843e-05
*RES
1 *420:Y *111:6 29.501 
2 *111:6 *111:10 43.1056 
3 *111:10 *421:A2 35.4697 
4 *111:6 *476:B 31.6403 
*END

*D_NET *112 0.000138891
*CONN
*I *478:B I *D OA21x2_ASAP7_75t_SL
*I *422:B I *D OAI21x1_ASAP7_75t_SL
*I *421:Y O *D OA21x2_ASAP7_75t_SL
*CAP
1 *478:B 1.63479e-05
2 *422:B 0
3 *421:Y 2.98119e-05
4 *112:10 4.61598e-05
5 *478:B *137:12 3.16603e-06
6 *478:B *159:8 2.68658e-05
7 *478:B *160:8 2.0895e-06
8 *112:10 *137:14 2.0895e-06
9 *112:10 *159:8 8.46363e-06
10 *112:10 *276:32 3.07519e-06
11 *109:54 *478:B 0
12 *110:27 *112:10 8.2174e-07
*RES
1 *421:Y *112:10 49.5168 
2 *112:10 *422:B 34.4 
3 *112:10 *478:B 49.2937 
*END

*D_NET *113 0.000594757
*CONN
*I *486:D I *D AND4x1_ASAP7_75t_SL
*I *511:A1 I *D AO21x1_ASAP7_75t_SL
*I *442:A1 I *D AO211x2_ASAP7_75t_SL
*I *422:Y O *D OAI21x1_ASAP7_75t_SL
*CAP
1 *486:D 0
2 *511:A1 1.22752e-05
3 *442:A1 0
4 *422:Y 1.82855e-05
5 *113:48 2.74831e-05
6 *113:26 1.62818e-05
7 *113:22 0.000134302
8 *113:20 0.000130296
9 *113:18 6.40678e-05
10 *113:14 7.3414e-05
11 *113:10 5.51147e-05
12 *511:A1 *122:12 2.11853e-06
13 *511:A1 *122:18 5.49212e-07
14 *511:A1 *149:105 8.20229e-06
15 *113:10 *159:8 1.6136e-06
16 *113:10 *276:32 1.62312e-05
17 *113:14 *137:14 1.62098e-05
18 *113:18 *401:247 0
19 *113:26 *122:18 1.64764e-06
20 *113:26 *149:105 1.53071e-05
21 *113:48 *117:33 4.97876e-07
22 *113:48 *118:39 8.59498e-07
23 *113:48 *170:10 0
24 *113:48 *171:10 0
25 *113:48 *401:247 0
*RES
1 *422:Y *113:10 45.4083 
2 *113:10 *113:14 34.8492 
3 *113:14 *113:18 44.232 
4 *113:18 *113:20 17.2 
5 *113:20 *113:22 77.5496 
6 *113:22 *113:26 22.2685 
7 *113:26 *442:A1 34.4 
8 *113:26 *511:A1 41.5228 
9 *113:18 *113:48 35.7845 
10 *113:48 *486:D 17.2 
*END

*D_NET *114 0.000147507
*CONN
*I *431:A I *D AND5x1_ASAP7_75t_SL
*I *423:Y O *D INVx1_ASAP7_75t_SL
*CAP
1 *431:A 8.67029e-06
2 *423:Y 3.33223e-05
3 *114:8 4.19926e-05
4 *431:A *431:B 7.35354e-06
5 *431:A *431:C 2.03526e-06
6 *431:A *431:D 3.05118e-08
7 *431:A *117:46 7.55095e-06
8 *114:8 *431:C 8.15645e-06
9 *114:8 *431:E 3.83946e-05
*RES
1 *423:Y *114:8 48.8403 
2 *114:8 *431:A 40.4815 
*END

*D_NET *115 0.000108408
*CONN
*P req_msg[1] I
*I *424:A I *D BUFx2_ASAP7_75t_SL
*CAP
1 req_msg[1] 4.78043e-05
2 *424:A 0
3 *115:15 6.39974e-06
4 *115:9 5.42041e-05
*RES
1 req_msg[1] *115:9 37.4873 
2 *115:9 *115:15 38.8115 
3 *115:15 *424:A 17.2 
*END

*D_NET *116 0.000510758
*CONN
*I *490:A1 I *D OA211x2_ASAP7_75t_SL
*I *487:A I *D OR3x1_ASAP7_75t_SL
*I *484:A I *D AND3x1_ASAP7_75t_SL
*I *431:B I *D AND5x1_ASAP7_75t_SL
*I *425:Y O *D INVx1_ASAP7_75t_SL
*CAP
1 *490:A1 0
2 *487:A 0
3 *484:A 0
4 *431:B 1.7791e-05
5 *425:Y 2.24197e-05
6 *116:45 1.60638e-05
7 *116:35 3.30357e-05
8 *116:33 1.80048e-05
9 *116:20 5.90023e-05
10 *116:14 6.58061e-05
11 *116:10 4.63897e-05
12 *116:8 4.31816e-05
13 *431:B *147:45 7.72307e-07
14 *116:10 *160:21 0
15 *116:10 *162:10 6.77838e-06
16 *116:10 *353:16 2.97139e-06
17 *116:14 *160:10 0
18 *116:14 *160:21 0
19 *116:14 *166:18 1.12179e-06
20 *116:14 *170:10 2.45021e-07
21 *116:14 *171:10 6.52741e-06
22 *116:14 *353:8 0
23 *116:20 *141:62 2.34478e-05
24 *116:20 *171:10 1.55843e-05
25 *116:20 *401:247 2.37879e-05
26 *116:33 *490:B 4.06202e-06
27 *116:35 *490:B 2.87375e-05
28 *116:35 *159:20 2.47522e-06
29 *116:45 *159:20 3.72098e-06
30 *431:A *431:B 7.35354e-06
31 *50:27 *116:14 0
32 *50:27 *116:35 8.15645e-06
33 *51:61 *116:10 1.92185e-05
34 *51:69 *116:35 1.17077e-05
35 *53:19 *116:45 2.30405e-06
36 *53:41 *116:35 8.53214e-06
37 *53:41 *116:45 1.10245e-05
38 *54:24 *116:45 5.33881e-07
39 *54:41 *116:45 0
*RES
1 *425:Y *116:8 45.6313 
2 *116:8 *116:10 16.3318 
3 *116:10 *116:14 35.7845 
4 *116:14 *116:20 45.9425 
5 *116:20 *431:B 44.5617 
6 *116:10 *116:33 18.2696 
7 *116:33 *116:35 13.3706 
8 *116:35 *116:45 45.9714 
9 *116:45 *484:A 17.2 
10 *116:35 *487:A 17.2 
11 *116:33 *490:A1 17.2 
*END

*D_NET *117 0.000481635
*CONN
*I *431:C I *D AND5x1_ASAP7_75t_SL
*I *486:B I *D AND4x1_ASAP7_75t_SL
*I *479:A I *D XNOR2x2_ASAP7_75t_SL
*I *426:Y O *D INVx1_ASAP7_75t_SL
*CAP
1 *431:C 4.80814e-06
2 *486:B 0
3 *479:A 0
4 *426:Y 8.92557e-06
5 *117:46 3.73939e-05
6 *117:33 9.02819e-07
7 *117:27 7.85127e-05
8 *117:23 7.88983e-05
9 *117:12 1.26459e-05
10 *117:6 5.54457e-05
11 *117:12 *136:8 1.10561e-06
12 *117:12 *403:33 9.31958e-06
13 *117:27 *166:18 1.8008e-05
14 *117:27 *403:15 0
15 *117:46 *118:39 5.17728e-05
16 *117:46 *147:39 0
17 *117:46 *403:15 0
18 *431:A *431:C 2.03526e-06
19 *431:A *117:46 7.55095e-06
20 *53:12 *117:6 6.06409e-06
21 *53:12 *117:23 6.06409e-06
22 *53:19 *117:23 3.23659e-06
23 *54:24 *117:23 3.72138e-05
24 *57:36 *117:23 2.70626e-05
25 *57:49 *117:23 7.47643e-06
26 *57:49 *117:27 0
27 *57:49 *117:46 0
28 *67:30 *117:12 6.7126e-06
29 *67:30 *117:23 1.18255e-05
30 *113:48 *117:33 4.97876e-07
31 *114:8 *431:C 8.15645e-06
*RES
1 *426:Y *117:6 20.9438 
2 *117:6 *117:12 46.2265 
3 *117:12 *479:A 17.2 
4 *117:6 *117:23 45.1404 
5 *117:23 *117:27 37.1123 
6 *117:27 *117:33 35.057 
7 *117:33 *486:B 17.2 
8 *117:27 *117:46 49.9072 
9 *117:46 *431:C 20.409 
*END

*D_NET *118 0.000678176
*CONN
*I *483:A I *D XNOR2x2_ASAP7_75t_SL
*I *489:C I *D OR3x1_ASAP7_75t_SL
*I *431:D I *D AND5x1_ASAP7_75t_SL
*I *486:C I *D AND4x1_ASAP7_75t_SL
*I *427:Y O *D INVx1_ASAP7_75t_SL
*CAP
1 *483:A 0
2 *489:C 6.43945e-06
3 *431:D 1.59621e-06
4 *486:C 5.02587e-06
5 *427:Y 1.18226e-05
6 *118:71 4.46664e-06
7 *118:65 3.23275e-05
8 *118:39 3.90343e-05
9 *118:31 4.75065e-05
10 *118:20 8.65483e-06
11 *118:18 4.48349e-05
12 *118:14 7.61099e-05
13 *118:8 7.09584e-05
14 *486:C *166:10 8.48643e-06
15 *489:C *489:B 1.36155e-06
16 *489:C *401:247 4.64191e-07
17 *118:8 *174:10 6.28016e-06
18 *118:14 *141:54 5.80403e-05
19 *118:14 *160:25 7.35841e-06
20 *118:14 *401:247 5.55315e-06
21 *118:14 *401:259 1.80102e-05
22 *118:18 *169:10 9.63052e-06
23 *118:18 *401:247 0
24 *118:18 *407:20 0
25 *118:18 *407:26 0
26 *118:18 *407:48 1.07486e-05
27 *118:31 *166:10 4.06202e-06
28 *118:39 *401:247 1.49407e-08
29 *118:65 *141:54 5.13275e-05
30 *118:65 *213:285 2.55671e-05
31 *118:65 *401:259 5.80403e-05
32 *118:71 *141:50 6.76305e-06
33 *118:71 *163:12 2.50499e-06
34 *431:A *431:D 3.05118e-08
35 *51:47 *118:18 2.19482e-06
36 *54:45 *118:39 0
37 *57:49 *118:39 0
38 *57:57 *118:18 3.28023e-07
39 *113:48 *118:39 8.59498e-07
40 *117:46 *118:39 5.17728e-05
*RES
1 *427:Y *118:8 39.2134 
2 *118:8 *118:14 46.0028 
3 *118:14 *118:18 49.3005 
4 *118:18 *118:20 17.2 
5 *118:20 *486:C 19.3393 
6 *118:20 *118:31 18.8045 
7 *118:31 *118:39 49.5318 
8 *118:39 *431:D 35.2447 
9 *118:31 *489:C 39.975 
10 *118:8 *118:65 44.4267 
11 *118:65 *118:71 39.4685 
12 *118:71 *483:A 17.2 
*END

*D_NET *119 0.000210604
*CONN
*P req_msg[19] I
*I *428:A I *D BUFx2_ASAP7_75t_SL
*CAP
1 req_msg[19] 3.42286e-05
2 *428:A 0
3 *119:13 7.10737e-05
4 *119:11 7.10737e-05
5 *119:9 3.42286e-05
*RES
1 req_msg[19] *119:9 41.1602 
2 *119:9 *119:11 17.2 
3 *119:11 *119:13 43.3208 
4 *119:13 *428:A 17.2 
*END

*D_NET *120 0.000197547
*CONN
*P req_msg[18] I
*I *429:A I *D BUFx2_ASAP7_75t_SL
*CAP
1 req_msg[18] 2.44849e-05
2 *429:A 0
3 *120:13 6.12575e-05
4 *120:11 8.57424e-05
5 *120:11 resp_msg[2] 0
6 *120:13 *129:17 0
7 *120:13 *387:14 0
8 *120:13 *388:8 1.20157e-05
9 *120:13 *401:20 9.66472e-07
10 *20:79 *120:13 1.30801e-05
*RES
1 req_msg[18] *120:11 40.9069 
2 *120:11 *120:13 54.3455 
3 *120:13 *429:A 34.4 
*END

*D_NET *121 0.000567914
*CONN
*I *519:B I *D OR2x2_ASAP7_75t_SL
*I *515:B I *D AND3x1_ASAP7_75t_SL
*I *431:E I *D AND5x1_ASAP7_75t_SL
*I *430:Y O *D NOR2x1_ASAP7_75t_SL
*CAP
1 *519:B 0
2 *515:B 0
3 *431:E 1.81898e-05
4 *430:Y 0
5 *121:35 1.74253e-05
6 *121:27 7.86779e-05
7 *121:23 0.000113433
8 *121:21 5.89213e-05
9 *121:8 4.17045e-05
10 *121:4 3.02551e-05
11 *121:8 *500:B 1.47278e-06
12 *121:8 *173:10 5.04679e-05
13 *121:8 *232:21 3.94592e-06
14 *121:8 *279:8 0
15 *121:23 *500:B 6.33206e-07
16 *121:23 *173:10 1.89173e-05
17 *121:23 *183:16 5.06565e-06
18 *121:23 *184:10 6.94376e-06
19 *121:23 *213:302 9.81516e-06
20 *121:23 *279:8 0
21 *121:23 *279:18 2.98157e-05
22 *121:35 *190:6 5.19552e-07
23 *121:35 *192:16 0
24 *121:35 *404:45 1.692e-05
25 *435:B *121:23 1.13631e-05
26 *500:A *121:21 5.19552e-07
27 *44:10 *121:23 1.45123e-05
28 *114:8 *431:E 3.83946e-05
*RES
1 *430:Y *121:4 17.2 
2 *121:4 *121:8 38.6003 
3 *121:8 *431:E 47.2358 
4 *121:4 *121:21 19.8741 
5 *121:21 *121:23 51.2481 
6 *121:23 *121:27 45.5457 
7 *121:27 *121:35 47.7459 
8 *121:35 *515:B 17.2 
9 *121:27 *519:B 17.2 
*END

*D_NET *122 0.000273493
*CONN
*I *511:A2 I *D AO21x1_ASAP7_75t_SL
*I *442:A2 I *D AO211x2_ASAP7_75t_SL
*I *431:Y O *D AND5x1_ASAP7_75t_SL
*CAP
1 *511:A2 6.50634e-06
2 *442:A2 0
3 *431:Y 7.51638e-06
4 *122:18 9.75604e-06
5 *122:12 8.64191e-05
6 *122:10 7.01567e-05
7 *122:8 7.51638e-06
8 *122:8 *232:21 0
9 *122:18 *128:10 3.875e-06
10 *122:18 *149:105 1.34466e-06
11 *511:A1 *122:12 2.11853e-06
12 *511:A1 *122:18 5.49212e-07
13 *39:36 *511:A2 6.7842e-07
14 *39:36 *122:12 7.43179e-05
15 *39:42 *122:8 1.09067e-06
16 *113:26 *122:18 1.64764e-06
*RES
1 *431:Y *122:8 40.0317 
2 *122:8 *122:10 17.2 
3 *122:10 *122:12 57.2263 
4 *122:12 *122:18 42.2843 
5 *122:18 *442:A2 17.2 
6 *122:12 *511:A2 20.9438 
*END

*D_NET *123 0.000116273
*CONN
*I *436:C I *D OA211x2_ASAP7_75t_SL
*I *437:B2 I *D AOI221x1_ASAP7_75t_SL
*I *432:Y O *D AND2x2_ASAP7_75t_SL
*CAP
1 *436:C 1.85125e-05
2 *437:B2 8.36935e-06
3 *432:Y 6.93002e-06
4 *123:8 3.38119e-05
5 *436:C *134:10 3.94592e-06
6 *436:C *179:6 1.60484e-05
7 *437:B2 *437:C 6.19506e-06
8 *437:B2 *134:10 6.23168e-06
9 *123:8 *179:6 0
10 *432:B *437:B2 1.02642e-06
11 *38:14 *437:B2 2.8275e-06
12 *38:18 *437:B2 1.12294e-06
13 *41:22 *436:C 1.05725e-05
14 *41:22 *123:8 6.7842e-07
*RES
1 *432:Y *123:8 37.0741 
2 *123:8 *437:B2 41.6361 
3 *123:8 *436:C 48.5038 
*END

*D_NET *124 0.000145402
*CONN
*I *436:A1 I *D OA211x2_ASAP7_75t_SL
*I *501:A1 I *D OA21x2_ASAP7_75t_SL
*I *433:Y O *D OR2x2_ASAP7_75t_SL
*CAP
1 *436:A1 1.32519e-05
2 *501:A1 0
3 *433:Y 2.76432e-05
4 *124:19 3.35807e-05
5 *124:6 4.79719e-05
6 *436:A1 *179:6 9.31065e-06
7 *124:19 *125:28 3.89037e-06
8 *124:19 *126:10 7.64042e-07
9 *124:19 *126:16 4.71596e-06
10 *124:19 *213:271 4.27283e-06
*RES
1 *433:Y *124:6 28.9662 
2 *124:6 *501:A1 17.2 
3 *124:6 *124:19 45.8297 
4 *124:19 *436:A1 25.2224 
*END

*D_NET *125 0.000629344
*CONN
*I *436:A2 I *D OA211x2_ASAP7_75t_SL
*I *501:A2 I *D OA21x2_ASAP7_75t_SL
*I *434:Y O *D OA21x2_ASAP7_75t_SL
*CAP
1 *436:A2 0
2 *501:A2 0
3 *434:Y 2.38209e-06
4 *125:41 2.57378e-05
5 *125:28 8.13283e-06
6 *125:20 0.000182859
7 *125:18 0.000152346
8 *125:14 3.66916e-05
9 *125:8 3.57162e-05
10 *125:8 *353:16 3.28313e-06
11 *125:8 *405:14 2.63772e-06
12 *125:18 *168:8 9.80319e-06
13 *125:18 *401:247 2.82333e-06
14 *125:20 *172:12 5.62196e-06
15 *125:20 *172:21 7.25207e-05
16 *125:28 *126:16 4.50962e-06
17 *125:41 *126:16 1.11956e-05
18 *125:41 *149:105 5.27966e-06
19 *125:41 *213:271 5.27966e-06
20 *480:A *125:20 5.85387e-06
21 *493:B *125:18 1.61047e-05
22 *494:A *125:20 3.79718e-06
23 *51:47 *125:14 3.10471e-05
24 *54:45 *125:14 1.83076e-06
25 *124:19 *125:28 3.89037e-06
*RES
1 *434:Y *125:8 37.122 
2 *125:8 *125:14 44.5726 
3 *125:14 *125:18 22.7378 
4 *125:18 *125:20 58.2959 
5 *125:20 *125:28 39.975 
6 *125:28 *501:A2 17.2 
7 *125:20 *125:41 47.9974 
8 *125:41 *436:A2 17.2 
*END

*D_NET *126 0.000296464
*CONN
*I *501:B I *D OA21x2_ASAP7_75t_SL
*I *436:B I *D OA211x2_ASAP7_75t_SL
*I *435:Y O *D OA21x2_ASAP7_75t_SL
*CAP
1 *501:B 0
2 *436:B 0
3 *435:Y 5.52295e-05
4 *126:24 7.56237e-06
5 *126:16 3.67425e-05
6 *126:10 6.05287e-05
7 *126:6 8.65781e-05
8 *126:10 *213:271 5.3441e-06
9 *126:16 *213:271 5.48821e-07
10 *126:24 *149:105 4.87385e-06
11 *126:24 *179:6 1.40419e-08
12 *38:26 *126:16 2.03526e-06
13 *38:26 *126:24 8.1926e-06
14 *39:30 *126:24 6.9993e-06
15 *39:34 *126:24 6.30001e-07
16 *124:19 *126:10 7.64042e-07
17 *124:19 *126:16 4.71596e-06
18 *125:28 *126:16 4.50962e-06
19 *125:41 *126:16 1.11956e-05
*RES
1 *435:Y *126:6 43.4064 
2 *126:6 *126:10 39.7266 
3 *126:10 *126:16 37.442 
4 *126:16 *126:24 42.2276 
5 *126:24 *436:B 17.2 
6 *126:10 *501:B 34.4 
*END

*D_NET *127 6.44233e-05
*CONN
*I *437:C I *D AOI221x1_ASAP7_75t_SL
*I *436:Y O *D OA211x2_ASAP7_75t_SL
*CAP
1 *437:C 1.03013e-05
2 *436:Y 3.54675e-06
3 *127:8 1.38481e-05
4 *437:C *409:22 6.7842e-07
5 *127:8 *409:26 1.30282e-05
6 *432:B *127:8 3.18788e-06
7 *437:B2 *437:C 6.19506e-06
8 *38:14 *437:C 2.50967e-06
9 *38:18 *127:8 1.82305e-06
10 *38:26 *437:C 9.30483e-06
*RES
1 *436:Y *127:8 38.9053 
2 *127:8 *437:C 41.3527 
*END

*D_NET *128 9.39417e-05
*CONN
*I *511:B I *D AO21x1_ASAP7_75t_SL
*I *442:B I *D AO211x2_ASAP7_75t_SL
*I *437:Y O *D AOI221x1_ASAP7_75t_SL
*CAP
1 *511:B 0
2 *442:B 0
3 *437:Y 0
4 *128:25 1.3232e-05
5 *128:10 3.69871e-05
6 *128:6 2.37551e-05
7 *128:10 *134:10 0
8 *128:10 *149:105 0
9 *128:10 *409:22 9.5466e-06
10 *128:25 *134:10 0
11 *39:34 *128:10 6.54597e-06
12 *122:18 *128:10 3.875e-06
*RES
1 *437:Y *128:6 34.4 
2 *128:6 *128:10 38.6003 
3 *128:10 *442:B 17.2 
4 *128:10 *128:25 43.7754 
5 *128:25 *511:B 17.2 
*END

*D_NET *129 0.000162629
*CONN
*P req_msg[17] I
*I *438:A I *D BUFx2_ASAP7_75t_SL
*CAP
1 req_msg[17] 3.11906e-05
2 *438:A 0
3 *129:17 1.67842e-05
4 *129:9 4.79748e-05
5 *129:9 resp_msg[1] 2.92092e-05
6 *129:9 resp_msg[2] 3.69025e-05
7 *129:17 *388:8 5.67747e-07
8 *120:13 *129:17 0
*RES
1 req_msg[17] *129:9 37.2708 
2 *129:9 *129:17 43.6249 
3 *129:17 *438:A 17.2 
*END

*D_NET *130 0.000105404
*CONN
*I *440:A2 I *D OA21x2_ASAP7_75t_SL
*I *525:C I *D OA211x2_ASAP7_75t_SL
*I *439:Y O *D OA21x2_ASAP7_75t_SL
*CAP
1 *440:A2 1.85884e-05
2 *525:C 1.64995e-05
3 *439:Y 0
4 *130:6 3.50879e-05
5 *440:A2 *132:10 0
6 *440:A2 *139:6 2.81325e-05
7 *525:C *528:B1 4.9291e-06
8 *439:B *440:A2 2.68933e-07
9 *439:B *525:C 8.06799e-07
10 *528:A1 *440:A2 0
11 *528:A1 *525:C 0
12 *32:28 *440:A2 1.09067e-06
13 *36:73 *525:C 0
*RES
1 *439:Y *130:6 34.4 
2 *130:6 *525:C 46.6763 
3 *130:6 *440:A2 48.5889 
*END

*D_NET *131 0.000177467
*CONN
*I *441:A2 I *D OAI21x1_ASAP7_75t_SL
*I *440:Y O *D OA21x2_ASAP7_75t_SL
*CAP
1 *441:A2 0
2 *440:Y 0
3 *131:12 2.40971e-05
4 *131:6 2.40971e-05
5 *131:12 *528:A2 3.61852e-06
6 *131:12 *139:21 1.29527e-05
7 *131:12 *186:39 0
8 *28:32 *131:12 0
9 *29:25 *131:12 4.5406e-05
10 *30:10 *131:12 2.35022e-05
11 *30:36 *131:12 1.53144e-05
12 *30:47 *131:12 2.84787e-05
*RES
1 *440:Y *131:6 34.4 
2 *131:6 *131:12 48.0324 
3 *131:12 *441:A2 17.2 
*END

*D_NET *132 0.000697525
*CONN
*I *574:A I *D INVx1_ASAP7_75t_SL
*I *442:C I *D AO211x2_ASAP7_75t_SL
*I *441:Y O *D OAI21x1_ASAP7_75t_SL
*CAP
1 *574:A 0
2 *442:C 2.30935e-05
3 *441:Y 7.13153e-06
4 *132:18 2.85715e-05
5 *132:14 9.26006e-05
6 *132:12 8.71226e-05
7 *132:10 0.000105234
8 *132:8 0.000112365
9 *442:C *133:8 3.3139e-06
10 *132:10 *528:A2 9.45508e-06
11 *132:10 *528:B1 0
12 *132:10 *139:21 1.69027e-05
13 *132:10 *179:23 0
14 *132:10 *199:12 0
15 *132:10 *200:10 5.82688e-07
16 *132:10 *201:12 8.66727e-05
17 *132:10 *287:32 0
18 *132:10 *308:20 9.05845e-06
19 *132:10 *397:23 1.91163e-05
20 *132:10 *409:73 0
21 *132:14 *187:32 0
22 *132:18 *187:10 0
23 *440:A2 *132:10 0
24 *441:B *132:8 8.65792e-06
25 *528:A1 *132:10 4.74248e-06
26 *29:31 *132:10 8.3668e-07
27 *30:22 *132:10 2.69892e-05
28 *40:14 *132:10 5.50785e-05
*RES
1 *441:Y *132:8 38.1438 
2 *132:8 *132:10 101.933 
3 *132:10 *132:12 17.2 
4 *132:12 *132:14 39.0422 
5 *132:14 *132:18 20.579 
6 *132:18 *442:C 48.3905 
7 *132:18 *574:A 34.4 
*END

*D_NET *133 0.000755289
*CONN
*I *556:A I *D AND3x4_ASAP7_75t_SL
*I *635:A1 I *D AO21x2_ASAP7_75t_SL
*I *579:A I *D OR2x4_ASAP7_75t_SL
*I *553:A1 I *D AOI21x1_ASAP7_75t_SL
*I *637:A1 I *D AO21x1_ASAP7_75t_SL
*I *459:B I *D AND3x1_ASAP7_75t_SL
*I *453:A1 I *D AO21x1_ASAP7_75t_SL
*I *442:Y O *D AO211x2_ASAP7_75t_SL
*CAP
1 *556:A 0
2 *635:A1 0
3 *579:A 1.08063e-05
4 *553:A1 0
5 *637:A1 4.70925e-06
6 *459:B 8.74305e-06
7 *453:A1 7.27715e-06
8 *442:Y 3.16754e-05
9 *133:60 3.29267e-05
10 *133:54 2.95744e-05
11 *133:50 1.91808e-05
12 *133:44 2.87078e-05
13 *133:22 2.01655e-05
14 *133:20 2.99657e-05
15 *133:16 4.54227e-05
16 *133:10 6.75586e-05
17 *133:8 5.79414e-05
18 *453:A1 *149:105 1.09842e-06
19 *453:A1 *213:8 3.73271e-05
20 *459:B *147:113 4.2449e-06
21 *459:B *147:126 2.80323e-06
22 *579:A *638:A 2.05883e-06
23 *579:A *147:109 3.05118e-08
24 *579:A *210:12 2.19448e-07
25 *579:A *276:14 0
26 *579:A *276:146 7.31606e-07
27 *133:10 *134:10 0
28 *133:10 *149:105 0
29 *133:10 *212:23 0
30 *133:16 *556:B 1.67815e-06
31 *133:16 *134:10 0
32 *133:16 *137:20 0
33 *133:16 *137:26 1.99018e-05
34 *133:16 *141:109 2.61188e-06
35 *133:16 *141:111 3.05118e-08
36 *133:16 *142:10 0
37 *133:16 *210:130 6.28016e-06
38 *133:16 *212:23 0
39 *133:20 *213:8 1.31716e-05
40 *133:22 *213:8 1.49079e-05
41 *133:44 *141:100 1.03895e-05
42 *133:44 *141:109 5.47776e-05
43 *133:44 *276:235 9.75645e-06
44 *133:50 *141:100 1.64387e-05
45 *133:50 *210:12 1.16299e-05
46 *133:50 *276:146 7.97185e-06
47 *133:54 *635:B 5.85387e-06
48 *133:54 *141:100 3.90258e-06
49 *133:60 *635:B 2.0561e-05
50 *133:60 *141:93 1.27802e-05
51 *133:60 *141:100 9.30483e-06
52 *133:60 *141:150 0
53 *133:60 *147:10 5.49212e-07
54 *133:60 *209:12 2.59405e-05
55 *133:60 *279:8 1.2903e-05
56 *133:60 *279:134 2.07842e-05
57 *133:60 *402:266 0
58 *442:C *133:8 3.3139e-06
59 *20:125 *453:A1 1.434e-05
60 *20:125 *133:20 5.69885e-06
61 *20:125 *133:22 6.6421e-06
*RES
1 *442:Y *133:8 48.8403 
2 *133:8 *133:10 21.4003 
3 *133:10 *133:16 38.4549 
4 *133:16 *133:20 22.2685 
5 *133:20 *133:22 5.63166 
6 *133:22 *453:A1 46.7897 
7 *133:22 *459:B 39.2134 
8 *133:20 *133:44 36.9885 
9 *133:44 *133:50 24.8293 
10 *133:50 *133:54 18.8045 
11 *133:54 *133:60 45.6097 
12 *133:60 *637:A1 36.0045 
13 *133:54 *553:A1 17.2 
14 *133:50 *579:A 41.158 
15 *133:44 *635:A1 17.2 
16 *133:10 *556:A 34.4 
*END

*D_NET *134 0.000540525
*CONN
*I *451:A I *D AND4x1_ASAP7_75t_SL
*I *443:Y O *D AND4x1_ASAP7_75t_SL
*CAP
1 *451:A 1.08303e-06
2 *443:Y 1.27294e-05
3 *134:10 0.000224219
4 *134:8 0.000235866
5 *451:A *141:115 1.52651e-06
6 *451:A *212:23 5.22376e-07
7 *134:10 *520:A2 2.22736e-06
8 *134:10 *521:B 0
9 *134:10 *141:22 6.7203e-06
10 *134:10 *141:28 1.12894e-06
11 *134:10 *142:10 2.05883e-06
12 *134:10 *147:79 2.5412e-06
13 *134:10 *187:10 3.89953e-06
14 *134:10 *187:16 2.70427e-06
15 *134:10 *192:8 0
16 *134:10 *193:10 0
17 *134:10 *212:29 0
18 *134:10 *404:87 2.19685e-06
19 *436:C *134:10 3.94592e-06
20 *437:B2 *134:10 6.23168e-06
21 *25:40 *134:8 8.06588e-06
22 *25:40 *134:10 0
23 *28:42 *134:10 5.09995e-06
24 *31:38 *134:10 0
25 *38:18 *134:10 0
26 *41:22 *134:10 1.00079e-05
27 *41:31 *134:10 7.75e-06
28 *128:10 *134:10 0
29 *128:25 *134:10 0
30 *133:10 *134:10 0
31 *133:16 *134:10 0
*RES
1 *443:Y *134:8 40.2831 
2 *134:8 *134:10 172.892 
3 *134:10 *451:A 35.4697 
*END

*D_NET *135 0.000344874
*CONN
*I *451:B I *D AND4x1_ASAP7_75t_SL
*I *444:Y O *D AND4x1_ASAP7_75t_SL
*CAP
1 *451:B 9.20996e-06
2 *444:Y 4.64707e-05
3 *135:20 1.06458e-05
4 *135:14 4.14724e-05
5 *135:6 8.65073e-05
6 *451:B *451:C 3.90258e-06
7 *451:B *576:B 4.00461e-05
8 *451:B *141:115 1.29877e-05
9 *451:B *141:126 5.71423e-05
10 *451:B *142:8 6.70433e-06
11 *451:B *212:23 1.26378e-06
12 *135:6 *578:B1 6.6195e-06
13 *135:14 *210:134 1.01523e-05
14 *135:14 *226:8 1.49407e-08
15 *135:14 *398:119 5.4219e-06
16 *444:B *135:6 1.26378e-06
17 *34:14 *135:14 5.04845e-06
*RES
1 *444:Y *135:6 38.0582 
2 *135:6 *135:14 49.6025 
3 *135:14 *135:20 35.057 
4 *135:20 *451:B 38.0582 
*END

*D_NET *136 0.000307065
*CONN
*I *446:E I *D AND5x1_ASAP7_75t_SL
*I *445:Y O *D AND4x1_ASAP7_75t_SL
*CAP
1 *446:E 4.83479e-06
2 *445:Y 0
3 *136:8 0.000100615
4 *136:6 9.57801e-05
5 *446:E *276:32 2.7925e-05
6 *136:8 *399:10 0
7 *136:8 *399:67 0
8 *136:8 *399:80 0
9 *136:8 *400:112 4.1009e-06
10 *136:8 *403:19 1.69875e-06
11 *136:8 *403:33 5.45515e-05
12 *445:D *136:8 1.70866e-06
13 *57:8 *136:8 6.23028e-06
14 *57:20 *446:E 6.7842e-07
15 *64:73 *446:E 7.83564e-06
16 *67:30 *136:8 0
17 *117:12 *136:8 1.10561e-06
*RES
1 *445:Y *136:6 34.4 
2 *136:6 *136:8 81.6591 
3 *136:8 *446:E 42.9572 
*END

*D_NET *137 0.000921359
*CONN
*I *451:C I *D AND4x1_ASAP7_75t_SL
*I *446:Y O *D AND5x1_ASAP7_75t_SL
*CAP
1 *451:C 1.08554e-06
2 *446:Y 4.88087e-05
3 *137:26 2.79167e-05
4 *137:20 3.77938e-05
5 *137:14 0.000120939
6 *137:12 0.000113673
7 *137:6 5.25062e-05
8 *451:C *142:8 3.90258e-06
9 *137:6 *276:32 8.76428e-05
10 *137:14 *552:A 1.36155e-06
11 *137:14 *555:A 4.718e-05
12 *137:14 *141:85 8.98121e-05
13 *137:14 *147:37 8.87763e-06
14 *137:14 *147:98 1.51465e-05
15 *137:14 *147:109 1.12561e-05
16 *137:14 *209:12 1.32074e-05
17 *137:14 *209:26 5.40225e-06
18 *137:14 *212:10 1.84922e-05
19 *137:14 *212:23 5.09299e-06
20 *137:14 *232:6 1.47702e-05
21 *137:14 *276:32 0.000111186
22 *137:14 *402:272 2.0895e-06
23 *137:20 *556:B 3.13615e-06
24 *137:20 *141:111 3.58825e-06
25 *137:20 *149:105 5.52807e-07
26 *137:20 *210:130 3.05118e-08
27 *137:20 *212:10 5.79724e-07
28 *137:20 *212:23 1.09842e-06
29 *137:26 *141:109 3.73144e-06
30 *137:26 *142:10 1.91161e-05
31 *137:26 *276:235 5.57465e-06
32 *451:B *451:C 3.90258e-06
33 *478:B *137:12 3.16603e-06
34 *109:54 *137:12 5.37866e-07
35 *112:10 *137:14 2.0895e-06
36 *113:14 *137:14 1.62098e-05
37 *133:16 *137:20 0
38 *133:16 *137:26 1.99018e-05
*RES
1 *446:Y *137:6 43.4064 
2 *137:6 *137:12 37.2158 
3 *137:12 *137:14 105.361 
4 *137:14 *137:20 42.2843 
5 *137:20 *137:26 39.4679 
6 *137:26 *451:C 35.4697 
*END

*D_NET *138 5.27156e-05
*CONN
*I *450:A2 I *D AOI21x1_ASAP7_75t_SL
*I *447:Y O *D AO21x1_ASAP7_75t_SL
*CAP
1 *450:A2 0
2 *447:Y 1.83395e-05
3 *138:10 1.83395e-05
4 *138:10 *140:8 1.09067e-06
5 *447:A2 *138:10 6.61478e-06
6 *26:18 *138:10 7.84037e-07
7 *26:20 *138:10 7.54709e-06
8 *27:10 *138:10 0
*RES
1 *447:Y *138:10 45.9147 
2 *138:10 *450:A2 34.4 
*END

*D_NET *139 0.000311091
*CONN
*I *449:D I *D AND4x1_ASAP7_75t_SL
*I *528:A2 I *D AO221x1_ASAP7_75t_SL
*I *448:Y O *D AO21x1_ASAP7_75t_SL
*CAP
1 *449:D 4.84254e-06
2 *528:A2 1.46076e-05
3 *448:Y 1.68361e-05
4 *139:21 3.34123e-05
5 *139:8 4.31773e-05
6 *139:6 1.68361e-05
7 *528:A2 *528:C 2.03526e-06
8 *528:A2 *186:39 0
9 *528:A2 *201:12 8.33296e-06
10 *440:A1 *139:6 6.86929e-06
11 *440:A2 *139:6 2.81325e-05
12 *440:B *139:6 9.30483e-06
13 *441:A1 *139:21 7.54709e-06
14 *441:B *139:21 0
15 *26:20 *139:21 0
16 *27:12 *139:21 2.83449e-06
17 *29:25 *139:21 4.5406e-05
18 *29:31 *139:21 0
19 *30:22 *139:21 2.68586e-05
20 *30:47 *139:21 1.12894e-06
21 *131:12 *528:A2 3.61852e-06
22 *131:12 *139:21 1.29527e-05
23 *132:10 *528:A2 9.45508e-06
24 *132:10 *139:21 1.69027e-05
*RES
1 *448:Y *139:6 33.2448 
2 *139:6 *139:8 17.2 
3 *139:8 *528:A2 47.2111 
4 *139:8 *139:21 35.4795 
5 *139:21 *449:D 37.0741 
*END

*D_NET *140 6.3708e-05
*CONN
*I *450:B I *D AOI21x1_ASAP7_75t_SL
*I *449:Y O *D AND4x1_ASAP7_75t_SL
*CAP
1 *450:B 0
2 *449:Y 1.20275e-05
3 *140:8 1.20275e-05
4 *26:20 *140:8 0
5 *27:10 *140:8 2.52602e-05
6 *27:12 *140:8 1.33022e-05
7 *138:10 *140:8 1.09067e-06
*RES
1 *449:Y *140:8 47.3528 
2 *140:8 *450:B 34.4 
*END

*D_NET *141 0.0026834
*CONN
*I *581:A2 I *D OA211x2_ASAP7_75t_SL
*I *630:A2 I *D OA21x2_ASAP7_75t_SL
*I *625:A2 I *D OA21x2_ASAP7_75t_SL
*I *637:A2 I *D AO21x1_ASAP7_75t_SL
*I *556:B I *D AND3x4_ASAP7_75t_SL
*I *576:C I *D OA211x2_ASAP7_75t_SL
*I *451:D I *D AND4x1_ASAP7_75t_SL
*I *635:A2 I *D AO21x2_ASAP7_75t_SL
*I *553:A2 I *D AOI21x1_ASAP7_75t_SL
*I *600:A2 I *D OA21x2_ASAP7_75t_SL
*I *450:Y O *D AOI21x1_ASAP7_75t_SL
*CAP
1 *581:A2 1.18343e-05
2 *630:A2 0
3 *625:A2 2.19089e-06
4 *637:A2 0
5 *556:B 1.92972e-06
6 *576:C 1.83917e-06
7 *451:D 0
8 *635:A2 0
9 *553:A2 0
10 *600:A2 1.77431e-06
11 *450:Y 3.79747e-05
12 *141:150 4.30616e-05
13 *141:126 4.15147e-05
14 *141:115 7.09081e-05
15 *141:111 4.51192e-05
16 *141:109 2.56717e-05
17 *141:100 2.03295e-05
18 *141:93 3.10199e-05
19 *141:87 6.74669e-05
20 *141:85 1.3907e-05
21 *141:72 2.99562e-05
22 *141:62 7.83958e-05
23 *141:60 4.03734e-05
24 *141:54 5.40241e-05
25 *141:52 4.99576e-05
26 *141:50 4.68351e-05
27 *141:44 0.000101634
28 *141:42 7.45432e-05
29 *141:36 4.0064e-05
30 *141:30 7.79225e-05
31 *141:28 7.11908e-05
32 *141:22 2.72437e-05
33 *141:14 5.49404e-05
34 *141:10 5.50298e-05
35 *141:6 4.20767e-05
36 *581:A2 *646:C2 5.17782e-06
37 *625:A2 *268:6 8.13589e-06
38 *625:A2 *401:271 3.18889e-06
39 *141:30 *147:66 5.62196e-06
40 *141:30 *147:73 0.000209293
41 *141:36 *633:A2 1.7743e-05
42 *141:36 *633:B1 1.52651e-06
43 *141:36 *146:140 1.16966e-05
44 *141:36 *301:23 8.44508e-06
45 *141:36 *301:29 1.12894e-06
46 *141:36 *301:33 1.2768e-05
47 *141:42 *301:33 1.52773e-05
48 *141:44 *146:140 0
49 *141:44 *352:12 0
50 *141:50 *163:12 0
51 *141:50 *232:39 0
52 *141:50 *279:22 7.637e-06
53 *141:50 *279:28 2.13843e-06
54 *141:50 *352:12 0
55 *141:50 *401:265 0
56 *141:54 *147:47 3.13891e-05
57 *141:54 *162:22 1.18128e-05
58 *141:54 *168:8 6.10236e-08
59 *141:54 *401:247 4.05623e-06
60 *141:62 *147:37 1.49407e-08
61 *141:62 *147:39 5.51548e-05
62 *141:62 *147:47 4.7643e-07
63 *141:62 *276:28 6.58216e-06
64 *141:62 *401:247 5.05435e-05
65 *141:72 *147:37 5.52807e-07
66 *141:72 *276:28 8.46363e-06
67 *141:72 *401:247 3.17441e-06
68 *141:85 *276:28 3.68197e-05
69 *141:93 *552:A 1.56807e-06
70 *141:93 *635:B 1.52651e-06
71 *141:93 *147:14 0
72 *141:93 *147:18 8.06588e-06
73 *141:93 *210:12 4.92332e-06
74 *141:93 *232:14 2.50197e-06
75 *141:93 *276:22 1.49692e-05
76 *141:93 *402:266 6.12107e-06
77 *141:100 *635:B 2.20964e-06
78 *141:100 *210:12 3.57119e-06
79 *141:100 *210:130 1.7743e-05
80 *141:109 *210:130 7.1436e-05
81 *141:109 *276:235 1.33238e-05
82 *141:115 *212:23 0
83 *141:126 *576:B 7.63254e-07
84 *141:150 *147:10 0
85 *141:150 *232:14 1.12894e-06
86 *141:150 *232:21 1.04961e-05
87 *141:150 *279:8 0
88 *427:A *141:54 1.12901e-05
89 *451:A *141:115 1.52651e-06
90 *451:B *141:115 1.29877e-05
91 *451:B *141:126 5.71423e-05
92 *480:A *141:54 1.70708e-06
93 *493:B *141:54 2.21297e-05
94 *493:C *141:54 8.87521e-06
95 *494:A *141:60 1.00854e-05
96 *25:32 *141:14 7.46237e-05
97 *31:16 *581:A2 7.46759e-06
98 *31:26 *581:A2 6.7842e-07
99 *31:26 *141:10 1.908e-06
100 *31:38 *141:22 0
101 *33:8 *141:6 0
102 *34:33 *141:126 1.15978e-05
103 *43:39 *141:36 3.46317e-06
104 *43:50 *141:30 3.96206e-05
105 *43:50 *141:36 1.08167e-05
106 *46:68 *141:50 0
107 *51:26 *141:54 3.35641e-06
108 *51:28 *141:54 7.4981e-05
109 *64:41 *600:A2 3.89037e-06
110 *64:41 *141:72 2.56903e-05
111 *116:20 *141:62 2.34478e-05
112 *118:14 *141:54 5.80403e-05
113 *118:65 *141:54 5.13275e-05
114 *118:71 *141:50 6.76305e-06
115 *133:16 *556:B 1.67815e-06
116 *133:16 *141:109 2.61188e-06
117 *133:16 *141:111 3.05118e-08
118 *133:44 *141:100 1.03895e-05
119 *133:44 *141:109 5.47776e-05
120 *133:50 *141:100 1.64387e-05
121 *133:54 *141:100 3.90258e-06
122 *133:60 *141:93 1.27802e-05
123 *133:60 *141:100 9.30483e-06
124 *133:60 *141:150 0
125 *134:10 *141:22 6.7203e-06
126 *134:10 *141:28 1.12894e-06
127 *137:14 *141:85 8.98121e-05
128 *137:20 *556:B 3.13615e-06
129 *137:20 *141:111 3.58825e-06
130 *137:26 *141:109 3.73144e-06
*RES
1 *450:Y *141:6 33.7796 
2 *141:6 *141:10 19.5465 
3 *141:10 *141:14 33.2164 
4 *141:14 *141:22 41.56 
5 *141:22 *141:28 41.158 
6 *141:28 *141:30 65.2486 
7 *141:30 *141:36 36.1173 
8 *141:36 *141:42 44.5617 
9 *141:42 *141:44 39.4216 
10 *141:44 *141:50 42.5672 
11 *141:50 *141:52 17.2 
12 *141:52 *141:54 64.2009 
13 *141:54 *141:60 37.0741 
14 *141:60 *141:62 50.1218 
15 *141:62 *141:72 49.8002 
16 *141:72 *600:A2 35.4697 
17 *141:62 *141:85 44.4761 
18 *141:85 *141:87 17.2 
19 *141:87 *141:93 38.5116 
20 *141:93 *553:A2 17.2 
21 *141:93 *141:100 10.6965 
22 *141:100 *635:A2 17.2 
23 *141:100 *141:109 43.9412 
24 *141:109 *141:111 6.75799 
25 *141:111 *141:115 31.6403 
26 *141:115 *451:D 17.2 
27 *141:115 *141:126 42.0003 
28 *141:126 *576:C 36.0045 
29 *141:111 *556:B 37.2158 
30 *141:87 *141:150 47.0158 
31 *141:150 *637:A2 17.2 
32 *141:44 *625:A2 36.5393 
33 *141:30 *630:A2 17.2 
34 *141:10 *581:A2 43.5965 
*END

*D_NET *142 0.000260088
*CONN
*I *459:C I *D AND3x1_ASAP7_75t_SL
*I *453:A2 I *D AO21x1_ASAP7_75t_SL
*I *451:Y O *D AND4x1_ASAP7_75t_SL
*CAP
1 *459:C 0
2 *453:A2 0
3 *451:Y 3.84387e-06
4 *142:25 8.04764e-06
5 *142:16 4.2904e-05
6 *142:10 7.57656e-05
7 *142:8 2.86578e-05
8 *142:8 *212:23 8.23084e-06
9 *142:10 *212:29 0
10 *142:25 *147:126 3.68287e-06
11 *142:25 *147:128 2.18846e-05
12 *142:25 *279:207 2.12863e-05
13 *451:B *142:8 6.70433e-06
14 *451:C *142:8 3.90258e-06
15 *20:119 *142:16 1.1199e-05
16 *20:123 *142:16 2.80323e-06
17 *133:16 *142:10 0
18 *134:10 *142:10 2.05883e-06
19 *137:26 *142:10 1.91161e-05
*RES
1 *451:Y *142:8 40.2831 
2 *142:8 *142:10 17.4581 
3 *142:10 *142:16 44.338 
4 *142:16 *453:A2 17.2 
5 *142:10 *142:25 33.2448 
6 *142:25 *459:C 17.2 
*END

*D_NET *143 0.000273813
*CONN
*P req_msg[16] I
*I *452:A I *D BUFx2_ASAP7_75t_SL
*CAP
1 req_msg[16] 4.41479e-05
2 *452:A 0
3 *143:13 9.27585e-05
4 *143:11 9.27585e-05
5 *143:9 4.41479e-05
*RES
1 req_msg[16] *143:9 46.03 
2 *143:9 *143:11 17.2 
3 *143:11 *143:13 57.2263 
4 *143:13 *452:A 17.2 
*END

*D_NET *144 0.000383698
*CONN
*I *454:B I *D OA21x2_ASAP7_75t_SL
*I *453:Y O *D AO21x1_ASAP7_75t_SL
*CAP
1 *454:B 0
2 *453:Y 2.58526e-06
3 *144:10 7.33197e-05
4 *144:8 7.5905e-05
5 *144:10 *464:B 6.07185e-06
6 *144:10 *148:8 4.10738e-05
7 *144:10 *149:97 7.51214e-05
8 *144:10 *149:105 4.45472e-06
9 *144:10 *151:12 8.49543e-06
10 *144:10 *213:8 0
11 *144:10 *338:31 9.53097e-05
12 *144:10 *356:16 0
13 *20:115 *144:10 0
14 *20:119 *144:8 1.36155e-06
*RES
1 *453:Y *144:8 35.4697 
2 *144:8 *144:10 82.7854 
3 *144:10 *454:B 34.4 
*END

*D_NET *145 0.000115931
*CONN
*I *455:B I *D NOR2x1_ASAP7_75t_SL
*I *454:Y O *D OA21x2_ASAP7_75t_SL
*CAP
1 *455:B 8.52619e-06
2 *454:Y 2.47506e-05
3 *145:8 3.32768e-05
4 *455:B *402:14 1.47272e-05
5 *145:8 *402:14 2.67862e-05
6 *20:10 *455:B 7.86436e-06
*RES
1 *454:Y *145:8 47.7706 
2 *145:8 *455:B 40.9596 
*END

*D_NET *146 0.00325343
*CONN
*I *603:A2 I *D OA22x2_ASAP7_75t_SL
*I *623:A2 I *D OA21x2_ASAP7_75t_SL
*I *633:A2 I *D OA22x2_ASAP7_75t_SL
*I *628:A2 I *D OA22x2_ASAP7_75t_SL
*I *611:A2 I *D OA21x2_ASAP7_75t_SL
*I *607:A2 I *D OA21x2_ASAP7_75t_SL
*I *457:B I *D NOR2x1_ASAP7_75t_SL
*I *561:A2 I *D OA21x2_ASAP7_75t_SL
*I *565:A2 I *D OA21x2_ASAP7_75t_SL
*I *456:Y O *D NAND2x1_ASAP7_75t_SL
*CAP
1 *603:A2 0
2 *623:A2 1.66453e-05
3 *633:A2 7.94358e-06
4 *628:A2 0
5 *611:A2 2.93708e-06
6 *607:A2 4.19564e-07
7 *457:B 9.76446e-06
8 *561:A2 5.48639e-06
9 *565:A2 0
10 *456:Y 1.50982e-05
11 *146:174 1.29463e-05
12 *146:166 5.57e-05
13 *146:140 5.14799e-05
14 *146:138 4.35363e-05
15 *146:136 5.30629e-05
16 *146:129 0.000101006
17 *146:127 4.79432e-05
18 *146:125 4.24339e-05
19 *146:123 3.20411e-05
20 *146:117 0.000180435
21 *146:115 0.000174183
22 *146:106 1.30402e-05
23 *146:102 4.81024e-05
24 *146:91 0.000113048
25 *146:87 7.89144e-05
26 *146:81 8.45915e-05
27 *146:79 8.41626e-05
28 *146:73 0.000113867
29 *146:71 0.000110011
30 *146:69 0.000120632
31 *146:63 7.94298e-05
32 *146:57 5.89441e-05
33 *146:42 7.64881e-05
34 *146:28 1.67925e-05
35 *146:24 2.4994e-05
36 *146:18 0.000148407
37 *146:16 0.000140206
38 *146:14 9.32355e-05
39 *146:12 8.77492e-05
40 *146:10 2.44295e-05
41 *607:A2 *607:B 7.84772e-07
42 *607:A2 *210:59 6.40748e-07
43 *611:A2 *611:B 8.87763e-06
44 *623:A2 *266:10 0
45 *623:A2 *299:14 2.6409e-06
46 *623:A2 *299:20 2.45028e-06
47 *623:A2 *399:60 0
48 *633:A2 *301:33 1.35684e-06
49 *146:10 *355:29 0
50 *146:10 *356:16 5.67735e-06
51 *146:14 *561:A1 5.22376e-07
52 *146:14 *356:14 1.1199e-05
53 *146:18 *644:C1 0
54 *146:18 *147:157 1.02359e-06
55 *146:18 *217:18 0
56 *146:18 *225:29 1.49407e-08
57 *146:18 *226:8 1.6528e-05
58 *146:18 *231:12 0
59 *146:18 *279:230 0
60 *146:18 *398:10 0
61 *146:18 *398:12 0
62 *146:18 *398:18 0
63 *146:18 *398:119 0
64 *146:18 *402:331 0
65 *146:24 *342:12 5.19552e-07
66 *146:28 *682:CLK 1.67394e-05
67 *146:28 *287:24 1.1812e-05
68 *146:28 *397:23 1.93482e-06
69 *146:42 *355:29 0
70 *146:42 *356:8 0
71 *146:57 *355:29 0
72 *146:69 *149:93 1.10955e-06
73 *146:69 *402:255 2.18135e-06
74 *146:69 *402:266 5.37866e-07
75 *146:73 *469:A2 6.7842e-07
76 *146:73 *401:135 8.65045e-05
77 *146:73 *401:232 9.30483e-06
78 *146:79 *401:135 3.79923e-06
79 *146:91 *149:61 2.08041e-06
80 *146:91 *401:139 3.39771e-05
81 *146:102 *607:B 1.94919e-06
82 *146:102 *210:59 1.92529e-05
83 *146:106 *611:B 1.95129e-06
84 *146:106 *296:6 1.51001e-05
85 *146:117 *619:A1 4.42421e-06
86 *146:117 *708:CLK 0
87 *146:117 *210:86 0
88 *146:117 *210:101 0
89 *146:117 *210:110 0
90 *146:117 *261:16 1.12894e-06
91 *146:117 *279:61 5.94641e-06
92 *146:117 *279:71 0
93 *146:117 *279:77 0
94 *146:117 *279:110 1.67815e-06
95 *146:117 *296:10 0
96 *146:117 *298:31 3.76935e-06
97 *146:117 *351:18 5.52807e-07
98 *146:117 *399:22 0
99 *146:117 *399:29 0
100 *146:117 *399:38 0
101 *146:117 *399:47 0
102 *146:117 *400:14 0
103 *146:117 *400:20 1.89747e-06
104 *146:123 *279:55 2.0895e-06
105 *146:125 *656:C2 0
106 *146:125 *210:110 7.17027e-06
107 *146:125 *264:25 0
108 *146:125 *279:110 1.30336e-05
109 *146:125 *299:20 2.83874e-07
110 *146:125 *320:12 1.31716e-05
111 *146:125 *399:47 0
112 *146:129 *628:A1 1.44167e-06
113 *146:129 *264:25 2.66207e-05
114 *146:129 *299:44 9.58962e-05
115 *146:129 *352:22 0.000100514
116 *146:136 *628:B1 2.74873e-05
117 *146:136 *628:B2 1.35684e-06
118 *146:136 *300:12 7.38275e-06
119 *146:136 *300:48 9.83747e-06
120 *146:136 *352:14 0.000156195
121 *146:136 *352:22 3.48165e-06
122 *146:140 *232:52 0
123 *146:140 *352:12 4.83862e-06
124 *146:166 *251:8 0
125 *146:166 *402:266 5.40854e-06
126 *146:174 *250:12 0
127 *146:174 *251:8 1.6528e-05
128 *146:174 *294:25 1.36155e-06
129 *418:A1 *146:81 0
130 *444:A *146:18 0
131 *457:A *146:57 2.20128e-06
132 *466:A *146:73 0
133 *470:A *146:87 6.33206e-07
134 *11:10 *146:102 0
135 *20:113 *146:10 6.7842e-07
136 *20:115 *146:10 2.19685e-06
137 *20:115 *146:42 4.97342e-06
138 *20:115 *146:57 2.74606e-06
139 *34:10 *146:18 0
140 *36:10 *146:18 0
141 *40:14 *146:24 2.0895e-06
142 *40:14 *146:28 1.04904e-05
143 *40:25 *146:18 0
144 *40:25 *146:28 0
145 *63:14 *146:87 5.52807e-07
146 *64:18 *146:69 0
147 *66:14 *146:79 3.79923e-06
148 *80:10 *146:174 2.68933e-07
149 *82:10 *611:A2 6.7842e-07
150 *82:10 *146:106 6.02591e-06
151 *91:10 *146:18 1.00648e-06
152 *98:10 *146:117 1.2903e-05
153 *101:8 *146:125 4.41094e-06
154 *109:10 *146:81 2.35847e-05
155 *141:36 *633:A2 1.7743e-05
156 *141:36 *146:140 1.16966e-05
157 *141:44 *146:140 0
*RES
1 *456:Y *146:10 43.8321 
2 *146:10 *146:12 17.2 
3 *146:12 *146:14 52.9477 
4 *146:14 *146:16 17.2 
5 *146:16 *146:18 99.6804 
6 *146:18 *146:24 39.2134 
7 *146:24 *146:28 34.6581 
8 *146:28 *565:A2 17.2 
9 *146:14 *561:A2 20.409 
10 *146:10 *146:42 7.88432 
11 *146:42 *457:B 40.2831 
12 *146:42 *146:57 43.07 
13 *146:57 *146:63 35.057 
14 *146:63 *146:69 47.3277 
15 *146:69 *146:71 17.2 
16 *146:71 *146:73 48.6691 
17 *146:73 *146:79 37.779 
18 *146:79 *146:81 37.9726 
19 *146:81 *146:87 37.3097 
20 *146:87 *146:91 45.5534 
21 *146:91 *607:A2 35.057 
22 *146:91 *146:102 34.2593 
23 *146:102 *146:106 28.4313 
24 *146:106 *611:A2 19.8741 
25 *146:106 *146:115 17.2 
26 *146:115 *146:117 130.655 
27 *146:117 *146:123 37.0741 
28 *146:123 *146:125 22.5266 
29 *146:125 *146:127 17.2 
30 *146:127 *146:129 71.1317 
31 *146:129 *628:A2 17.2 
32 *146:129 *146:136 50.8084 
33 *146:136 *146:138 17.2 
34 *146:138 *146:140 36.6058 
35 *146:140 *633:A2 40.8179 
36 *146:125 *623:A2 46.0281 
37 *146:69 *146:166 45.8328 
38 *146:166 *146:174 44.4803 
39 *146:174 *603:A2 17.2 
*END

*D_NET *147 0.0027762
*CONN
*I *568:C I *D AND3x1_ASAP7_75t_SL
*I *578:A3 I *D OA33x2_ASAP7_75t_SL
*I *459:A I *D AND3x1_ASAP7_75t_SL
*I *552:B I *D NAND2x1_ASAP7_75t_SL
*I *581:B I *D OA211x2_ASAP7_75t_SL
*I *630:B I *D OA21x2_ASAP7_75t_SL
*I *625:B I *D OA21x2_ASAP7_75t_SL
*I *600:B I *D OA21x2_ASAP7_75t_SL
*I *458:Y O *D INVx1_ASAP7_75t_SL
*CAP
1 *568:C 1.8869e-05
2 *578:A3 2.05281e-06
3 *459:A 0
4 *552:B 0
5 *581:B 2.33968e-05
6 *630:B 0
7 *625:B 6.17406e-06
8 *600:B 1.64618e-05
9 *458:Y 2.02254e-05
10 *147:157 3.78229e-05
11 *147:140 2.31876e-05
12 *147:136 6.61094e-05
13 *147:128 0.000110829
14 *147:126 9.38135e-05
15 *147:113 3.73855e-05
16 *147:109 4.60868e-05
17 *147:98 2.20862e-05
18 *147:83 7.56003e-05
19 *147:79 6.82342e-05
20 *147:73 5.25374e-05
21 *147:66 3.80197e-05
22 *147:62 3.5306e-05
23 *147:60 4.49597e-05
24 *147:49 1.73407e-05
25 *147:47 7.81305e-05
26 *147:45 8.53423e-05
27 *147:39 5.21111e-05
28 *147:37 6.4124e-05
29 *147:18 8.38168e-05
30 *147:14 5.91103e-05
31 *147:10 3.5585e-05
32 *568:C *307:14 1.21307e-05
33 *568:C *402:331 1.99018e-05
34 *568:C *402:340 1.25483e-05
35 *578:A3 *230:8 2.52755e-07
36 *581:B *234:8 0
37 *625:B *232:39 3.13426e-06
38 *625:B *268:6 6.23355e-06
39 *625:B *401:271 2.0455e-05
40 *625:B *401:297 9.30483e-06
41 *147:10 *209:12 3.32524e-06
42 *147:14 *209:12 7.31886e-06
43 *147:14 *402:266 3.05118e-08
44 *147:47 *482:A2 1.41724e-06
45 *147:47 *161:8 6.18028e-05
46 *147:47 *162:22 1.15587e-05
47 *147:47 *174:10 4.5698e-06
48 *147:47 *175:10 0
49 *147:47 *181:8 0
50 *147:47 *401:259 5.52807e-07
51 *147:47 *401:265 8.21855e-06
52 *147:60 *232:33 7.86466e-06
53 *147:60 *232:39 2.6409e-06
54 *147:60 *401:297 3.50589e-05
55 *147:62 *668:A 2.68933e-06
56 *147:62 *232:29 4.74248e-06
57 *147:62 *301:8 5.52807e-07
58 *147:62 *401:299 5.6168e-05
59 *147:66 *301:23 2.12481e-06
60 *147:73 *301:23 4.49469e-06
61 *147:79 *290:10 0
62 *147:83 *397:78 6.42883e-05
63 *147:83 *397:80 3.72177e-05
64 *147:98 *402:272 5.60645e-06
65 *147:109 *638:A 8.33296e-06
66 *147:109 *276:146 1.18973e-05
67 *147:109 *279:134 5.09367e-05
68 *147:109 *402:272 3.56177e-06
69 *147:113 *279:207 9.56782e-05
70 *147:126 *149:105 1.70866e-06
71 *147:126 *279:207 1.25483e-05
72 *147:128 *644:A1 2.01337e-05
73 *147:128 *279:207 9.61873e-06
74 *147:128 *402:463 1.07377e-06
75 *147:136 *644:A1 5.19552e-07
76 *147:136 *644:B1 1.35684e-06
77 *147:136 *279:215 1.29118e-06
78 *147:136 *289:12 5.0551e-07
79 *147:136 *307:14 0
80 *147:136 *307:22 7.79797e-06
81 *147:136 *401:112 3.73518e-07
82 *147:140 *578:B2 2.62011e-06
83 *147:140 *665:A 3.85212e-06
84 *147:140 *210:155 4.71121e-06
85 *147:140 *225:10 7.97185e-06
86 *147:140 *231:12 8.53501e-06
87 *147:140 *276:247 1.53546e-05
88 *147:140 *276:253 7.89306e-06
89 *147:140 *289:8 1.4645e-05
90 *147:140 *289:16 1.19159e-05
91 *147:140 *398:10 2.13376e-07
92 *147:157 *644:B1 2.03526e-06
93 *147:157 *644:C1 7.84037e-07
94 *147:157 *225:29 5.0551e-07
95 *147:157 *307:14 0
96 *147:157 *398:10 1.02359e-06
97 *427:A *147:47 1.2903e-05
98 *431:B *147:45 7.72307e-07
99 *458:A *147:10 0
100 *459:B *147:113 4.2449e-06
101 *459:B *147:126 2.80323e-06
102 *493:C *147:47 8.53234e-06
103 *579:A *147:109 3.05118e-08
104 *581:A1 *581:B 3.68287e-06
105 *25:40 *147:73 1.10364e-05
106 *28:42 *147:79 2.31101e-05
107 *31:10 *581:B 2.07088e-06
108 *31:16 *581:B 1.26378e-06
109 *31:53 *147:79 0
110 *37:34 *568:C 1.52651e-06
111 *43:63 *147:73 0.000180489
112 *45:18 *147:62 2.09921e-05
113 *51:26 *147:47 4.83862e-06
114 *51:28 *147:47 7.63135e-05
115 *64:37 *600:B 3.16603e-06
116 *64:41 *600:B 8.43848e-06
117 *75:12 *147:136 4.03399e-07
118 *91:10 *568:C 3.73144e-06
119 *92:8 *581:B 0
120 *117:46 *147:39 0
121 *133:60 *147:10 5.49212e-07
122 *134:10 *147:79 2.5412e-06
123 *137:14 *147:37 8.87763e-06
124 *137:14 *147:98 1.51465e-05
125 *137:14 *147:109 1.12561e-05
126 *141:30 *147:66 5.62196e-06
127 *141:30 *147:73 0.000209293
128 *141:54 *147:47 3.13891e-05
129 *141:62 *147:37 1.49407e-08
130 *141:62 *147:39 5.51548e-05
131 *141:62 *147:47 4.7643e-07
132 *141:72 *147:37 5.52807e-07
133 *141:93 *147:14 0
134 *141:93 *147:18 8.06588e-06
135 *141:150 *147:10 0
136 *142:25 *147:126 3.68287e-06
137 *142:25 *147:128 2.18846e-05
138 *146:18 *147:157 1.02359e-06
*RES
1 *458:Y *147:10 45.9714 
2 *147:10 *147:14 23.958 
3 *147:14 *147:18 45.5457 
4 *147:18 *600:B 45.2382 
5 *147:18 *147:37 46.0848 
6 *147:37 *147:39 43.9269 
7 *147:39 *147:45 37.0741 
8 *147:45 *147:47 81.6591 
9 *147:47 *147:49 17.2 
10 *147:49 *625:B 25.2224 
11 *147:49 *147:60 30.5706 
12 *147:60 *147:62 42.8006 
13 *147:62 *147:66 18.8045 
14 *147:66 *630:B 17.2 
15 *147:66 *147:73 68.9924 
16 *147:73 *147:79 46.7897 
17 *147:79 *147:83 47.685 
18 *147:83 *581:B 49.3504 
19 *147:10 *147:98 21.4786 
20 *147:98 *552:B 17.2 
21 *147:98 *147:109 37.8671 
22 *147:109 *147:113 47.1502 
23 *147:113 *459:A 17.2 
24 *147:113 *147:126 42.6208 
25 *147:126 *147:128 44.3905 
26 *147:128 *147:136 48.6172 
27 *147:136 *147:140 39.1635 
28 *147:140 *578:A3 35.4697 
29 *147:136 *147:157 44.1686 
30 *147:157 *568:C 34.8492 
*END

*D_NET *148 0.000184884
*CONN
*I *464:A1 I *D OA21x2_ASAP7_75t_SL
*I *459:Y O *D AND3x1_ASAP7_75t_SL
*CAP
1 *464:A1 1.11761e-05
2 *459:Y 0
3 *148:8 5.24855e-05
4 *148:6 4.13094e-05
5 *464:A1 *151:6 5.0551e-07
6 *464:A1 *398:20 0
7 *148:8 *464:B 8.33296e-06
8 *148:8 *149:105 0
9 *148:8 *151:12 8.06676e-06
10 *20:115 *148:8 2.19341e-05
11 *144:10 *148:8 4.10738e-05
*RES
1 *459:Y *148:6 34.4 
2 *148:6 *148:8 42.8006 
3 *148:8 *464:A1 39.2134 
*END

*D_NET *149 0.00441141
*CONN
*I *559:B I *D AO21x1_ASAP7_75t_SL
*I *593:B I *D AO21x1_ASAP7_75t_SL
*I *592:B I *D NAND2x1_ASAP7_75t_SL
*I *587:B I *D NAND2x1_ASAP7_75t_SL
*I *588:B I *D AO21x1_ASAP7_75t_SL
*I *563:B I *D AO21x1_ASAP7_75t_SL
*I *577:B I *D AO21x1_ASAP7_75t_SL
*I *570:A2 I *D AOI22x1_ASAP7_75t_SL
*I *462:A2 I *D AOI21x1_ASAP7_75t_SL
*I *585:A2 I *D AOI22x1_ASAP7_75t_SL
*I *605:B I *D AO21x1_ASAP7_75t_SL
*I *621:B I *D AO21x1_ASAP7_75t_SL
*I *609:B I *D AO21x1_ASAP7_75t_SL
*I *460:Y O *D AND2x2_ASAP7_75t_SL
*CAP
1 *559:B 1.15515e-05
2 *593:B 0
3 *592:B 0
4 *587:B 1.13815e-05
5 *588:B 1.21997e-06
6 *563:B 0
7 *577:B 0
8 *570:A2 4.1629e-06
9 *462:A2 0
10 *585:A2 0
11 *605:B 0
12 *621:B 2.11982e-06
13 *609:B 5.33412e-06
14 *460:Y 0
15 *149:212 2.98649e-05
16 *149:208 3.24065e-05
17 *149:204 5.79417e-05
18 *149:193 8.41272e-05
19 *149:182 6.28138e-05
20 *149:180 6.04048e-05
21 *149:171 1.61566e-05
22 *149:169 6.01737e-05
23 *149:167 6.54746e-05
24 *149:158 5.30082e-06
25 *149:156 6.48451e-05
26 *149:154 8.88638e-05
27 *149:143 2.81817e-05
28 *149:141 2.58883e-05
29 *149:137 0.000149744
30 *149:135 0.000130685
31 *149:122 3.98185e-06
32 *149:114 5.34687e-05
33 *149:105 0.000263135
34 *149:103 0.00026834
35 *149:97 2.49418e-05
36 *149:93 8.76438e-05
37 *149:85 0.000226071
38 *149:83 0.000198312
39 *149:79 4.63373e-05
40 *149:75 4.0842e-05
41 *149:69 8.96288e-05
42 *149:67 8.80525e-05
43 *149:61 3.14554e-05
44 *149:46 4.57093e-05
45 *149:44 2.92936e-05
46 *149:29 8.74873e-05
47 *149:27 9.49967e-05
48 *149:23 4.11939e-05
49 *149:10 7.57134e-05
50 *149:8 6.21268e-05
51 *149:4 3.63828e-05
52 *559:B *559:A2 3.05302e-06
53 *559:B *401:45 1.60115e-05
54 *588:B *327:12 3.68287e-06
55 *609:B *610:C 3.68287e-06
56 *609:B *349:12 1.26378e-06
57 *149:10 *213:72 5.52652e-06
58 *149:10 *401:163 0
59 *149:23 *213:72 6.33206e-07
60 *149:23 *349:12 0
61 *149:23 *349:29 0
62 *149:23 *401:169 0
63 *149:23 *402:107 4.97342e-06
64 *149:23 *402:115 1.13379e-05
65 *149:27 *330:8 4.92332e-06
66 *149:29 *213:113 3.32579e-06
67 *149:29 *262:8 2.02764e-05
68 *149:29 *276:43 5.79724e-07
69 *149:29 *276:51 2.33715e-05
70 *149:29 *276:62 9.95998e-05
71 *149:29 *351:38 9.40944e-05
72 *149:29 *372:17 1.16487e-05
73 *149:29 *375:9 7.14167e-06
74 *149:29 *401:188 0
75 *149:29 *402:115 1.05266e-05
76 *149:29 *402:148 4.55339e-06
77 *149:29 *402:167 8.36938e-06
78 *149:44 *401:217 0
79 *149:44 *402:90 9.77825e-06
80 *149:44 *402:99 5.33743e-06
81 *149:46 *253:10 1.36155e-06
82 *149:46 *314:12 1.56984e-05
83 *149:61 *253:10 3.81627e-06
84 *149:61 *400:37 3.73518e-07
85 *149:67 *607:B 3.97187e-06
86 *149:67 *295:16 0
87 *149:69 *295:20 1.4417e-05
88 *149:79 *154:6 4.12343e-05
89 *149:83 *156:10 4.42421e-06
90 *149:85 *210:30 0
91 *149:85 *213:20 0.000172124
92 *149:93 *213:8 0
93 *149:93 *398:39 1.06079e-06
94 *149:97 *213:8 0
95 *149:97 *398:59 5.52652e-06
96 *149:105 *521:B 0
97 *149:105 *522:B 5.67735e-06
98 *149:105 *192:8 0
99 *149:105 *192:16 1.41892e-05
100 *149:105 *196:12 0
101 *149:105 *210:130 6.7203e-06
102 *149:105 *212:10 4.97654e-06
103 *149:105 *212:23 1.02072e-05
104 *149:105 *213:8 2.9732e-06
105 *149:105 *213:149 1.04472e-05
106 *149:105 *213:271 1.53239e-05
107 *149:105 *343:10 0
108 *149:105 *404:61 1.64348e-06
109 *149:105 *404:71 1.20741e-05
110 *149:122 *151:6 9.08513e-06
111 *149:135 *355:29 7.84037e-07
112 *149:137 *151:6 2.12481e-06
113 *149:137 *398:18 1.07377e-06
114 *149:137 *398:20 2.3536e-05
115 *149:137 *401:45 0.000199402
116 *149:141 *401:49 4.34775e-06
117 *149:156 *275:19 0
118 *149:156 *306:8 0
119 *149:156 *401:49 0
120 *149:156 *401:70 1.692e-05
121 *149:167 *324:12 5.09299e-06
122 *149:169 *210:203 1.06078e-05
123 *149:169 *219:10 7.56423e-06
124 *149:169 *275:19 1.05922e-05
125 *149:169 *342:18 7.67516e-06
126 *149:169 *401:70 1.19628e-05
127 *149:169 *401:85 4.09697e-07
128 *149:180 *563:A2 2.30405e-06
129 *149:180 *219:10 4.59815e-06
130 *149:182 *308:12 0
131 *149:182 *309:10 0
132 *149:182 *362:19 2.25787e-06
133 *149:182 *401:87 0
134 *149:182 *401:96 0
135 *149:193 *239:8 3.25708e-06
136 *149:193 *240:8 8.51183e-06
137 *149:193 *241:8 1.692e-05
138 *149:193 *401:96 0
139 *149:204 *239:8 5.52807e-07
140 *149:204 *241:8 2.33787e-05
141 *149:204 *401:96 0
142 *149:208 *328:12 5.85387e-06
143 *149:212 *210:218 0
144 *149:212 *243:8 1.66921e-05
145 *149:212 *244:10 4.99711e-06
146 *149:212 *245:10 0
147 *149:212 *325:8 1.09067e-06
148 *149:212 *385:8 0
149 *149:212 *401:96 0
150 *453:A1 *149:105 1.09842e-06
151 *457:A *149:122 7.47402e-07
152 *457:A *149:135 0
153 *469:A1 *149:79 5.22376e-07
154 *469:B *149:83 0
155 *470:A *149:75 3.16603e-06
156 *470:A *149:79 8.87763e-06
157 *473:C *149:85 9.83747e-06
158 *511:A1 *149:105 8.20229e-06
159 *542:A *149:69 0
160 *570:A1 *149:141 0
161 *16:18 *149:105 0
162 *18:10 *149:141 0
163 *20:37 *149:10 0
164 *20:37 *149:23 0
165 *20:37 *149:29 4.91471e-05
166 *20:45 *149:29 2.11712e-05
167 *20:60 *149:29 2.32216e-05
168 *20:64 *149:29 4.30125e-06
169 *20:125 *149:105 0.000111779
170 *21:10 *149:122 6.35292e-07
171 *28:8 *149:182 3.53222e-05
172 *28:12 *588:B 5.22376e-07
173 *38:26 *149:105 1.17007e-05
174 *39:30 *149:105 5.13793e-06
175 *39:34 *149:105 3.02162e-06
176 *61:23 *149:75 0
177 *66:14 *149:83 0
178 *74:8 *570:A2 1.56713e-06
179 *76:8 *149:105 2.31345e-06
180 *113:26 *149:105 1.53071e-05
181 *122:18 *149:105 1.34466e-06
182 *125:41 *149:105 5.27966e-06
183 *126:24 *149:105 4.87385e-06
184 *128:10 *149:105 0
185 *133:10 *149:105 0
186 *137:20 *149:105 5.52807e-07
187 *144:10 *149:97 7.51214e-05
188 *144:10 *149:105 4.45472e-06
189 *146:69 *149:93 1.10955e-06
190 *146:91 *149:61 2.08041e-06
191 *147:126 *149:105 1.70866e-06
192 *148:8 *149:105 0
*RES
1 *460:Y *149:4 17.2 
2 *149:4 *149:8 29.501 
3 *149:8 *149:10 30.9741 
4 *149:10 *609:B 38.1438 
5 *149:10 *149:23 44.232 
6 *149:23 *149:27 23.0831 
7 *149:27 *149:29 109.254 
8 *149:29 *621:B 35.4697 
9 *149:4 *149:44 45.6633 
10 *149:44 *149:46 12.8358 
11 *149:46 *605:B 17.2 
12 *149:46 *149:61 48.2817 
13 *149:61 *149:67 35.8079 
14 *149:67 *149:69 39.0422 
15 *149:69 *149:75 37.2158 
16 *149:75 *149:79 48.7547 
17 *149:79 *149:83 23.958 
18 *149:83 *149:85 91.4551 
19 *149:85 *149:93 49.9381 
20 *149:93 *149:97 42.0732 
21 *149:97 *149:103 37.0741 
22 *149:103 *149:105 219.072 
23 *149:105 *585:A2 34.4 
24 *149:93 *149:114 8.87396 
25 *149:114 *149:122 37.7312 
26 *149:122 *462:A2 17.2 
27 *149:114 *149:135 40.3244 
28 *149:135 *149:137 87.1765 
29 *149:137 *149:141 34.6581 
30 *149:141 *149:143 17.2 
31 *149:143 *570:A2 19.8741 
32 *149:143 *149:154 31.6403 
33 *149:154 *149:156 51.2481 
34 *149:156 *149:158 17.2 
35 *149:158 *577:B 17.2 
36 *149:158 *149:167 20.9438 
37 *149:167 *149:169 51.2481 
38 *149:169 *149:171 17.2 
39 *149:171 *563:B 17.2 
40 *149:171 *149:180 26.292 
41 *149:180 *149:182 35.4795 
42 *149:182 *588:B 35.4697 
43 *149:182 *149:193 16.3318 
44 *149:193 *587:B 40.2831 
45 *149:193 *149:204 42.8006 
46 *149:204 *149:208 18.8045 
47 *149:208 *149:212 41.9793 
48 *149:212 *592:B 34.4 
49 *149:208 *593:B 17.2 
50 *149:137 *559:B 26.8269 
*END

*D_NET *150 0.000531734
*CONN
*P req_msg[15] I
*I *461:A I *D BUFx2_ASAP7_75t_SL
*CAP
1 req_msg[15] 9.14226e-06
2 *461:A 0
3 *150:13 2.70546e-05
4 *150:9 9.77232e-05
5 *150:7 7.98109e-05
6 *150:7 *211:5 3.10095e-05
7 *150:7 *277:7 2.99482e-05
8 *150:9 *214:11 2.78959e-06
9 *150:9 *362:11 4.0808e-05
10 *150:9 *365:9 2.21272e-05
11 *150:9 *367:11 2.20028e-06
12 *150:9 *368:9 3.30443e-05
13 *150:9 *381:10 0.000149206
14 *150:13 *310:6 6.86929e-06
15 *150:13 *365:13 0
*RES
1 req_msg[15] *150:7 28.5089 
2 *150:7 *150:9 99.0234 
3 *150:9 *150:13 40.1975 
4 *150:13 *461:A 17.2 
*END

*D_NET *151 0.000138647
*CONN
*I *464:A2 I *D OA21x2_ASAP7_75t_SL
*I *462:Y O *D AOI21x1_ASAP7_75t_SL
*CAP
1 *464:A2 0
2 *462:Y 2.04879e-05
3 *151:12 1.58847e-06
4 *151:6 2.20764e-05
5 *151:6 *398:20 6.62168e-05
6 *464:A1 *151:6 5.0551e-07
7 *144:10 *151:12 8.49543e-06
8 *148:8 *151:12 8.06676e-06
9 *149:122 *151:6 9.08513e-06
10 *149:137 *151:6 2.12481e-06
*RES
1 *462:Y *151:6 36.9885 
2 *151:6 *151:12 37.2158 
3 *151:12 *464:A2 17.2 
*END

*D_NET *152 6.41349e-05
*CONN
*I *464:B I *D OA21x2_ASAP7_75t_SL
*I *463:Y O *D INVx1_ASAP7_75t_SL
*CAP
1 *464:B 1.17481e-05
2 *463:Y 3.98682e-06
3 *152:8 1.5735e-05
4 *20:115 *464:B 1.82602e-05
5 *144:10 *464:B 6.07185e-06
6 *148:8 *464:B 8.33296e-06
*RES
1 *463:Y *152:8 36.0045 
2 *152:8 *464:B 48.4791 
*END

*D_NET *153 6.94253e-05
*CONN
*I *469:A2 I *D OA21x2_ASAP7_75t_SL
*I *468:Y O *D OA21x2_ASAP7_75t_SL
*CAP
1 *469:A2 9.12387e-06
2 *468:Y 1.30901e-05
3 *153:8 2.22139e-05
4 *469:A2 *154:6 8.90926e-06
5 *466:A *469:A2 1.07377e-06
6 *469:A1 *469:A2 4.17901e-06
7 *469:B *469:A2 5.41446e-06
8 *24:6 *153:8 0
9 *66:14 *153:8 4.74248e-06
10 *146:73 *469:A2 6.7842e-07
*RES
1 *468:Y *153:8 43.4107 
2 *153:8 *469:A2 42.9572 
*END

*D_NET *154 0.00019342
*CONN
*I *470:B I *D XOR2x2_ASAP7_75t_SL
*I *469:Y O *D OA21x2_ASAP7_75t_SL
*CAP
1 *470:B 0
2 *469:Y 0
3 *154:6 7.16383e-05
4 *154:4 7.16383e-05
5 *469:A1 *154:6 0
6 *469:A2 *154:6 8.90926e-06
7 *149:79 *154:6 4.12343e-05
*RES
1 *469:Y *154:4 17.2 
2 *154:4 *154:6 37.9726 
3 *154:6 *470:B 17.2 
*END

*D_NET *155 7.69228e-05
*CONN
*I *472:B I *D XOR2x2_ASAP7_75t_SL
*I *471:Y O *D OA21x2_ASAP7_75t_SL
*CAP
1 *472:B 1.41807e-05
2 *471:Y 1.74998e-05
3 *155:8 3.16805e-05
4 *472:B *349:6 2.0895e-06
5 *59:12 *155:8 1.09067e-06
6 *60:25 *155:8 1.03816e-05
7 *63:48 *155:8 0
*RES
1 *471:Y *155:8 48.4791 
2 *155:8 *472:B 42.4224 
*END

*D_NET *156 0.000184946
*CONN
*I *476:A1 I *D OA21x2_ASAP7_75t_SL
*I *473:Y O *D OA211x2_ASAP7_75t_SL
*CAP
1 *476:A1 2.585e-06
2 *473:Y 3.35842e-06
3 *156:10 5.35001e-05
4 *156:8 5.42736e-05
5 *469:B *156:10 0
6 *473:A1 *156:8 2.12481e-06
7 *476:B *476:A1 5.22376e-07
8 *65:14 *156:10 4.1834e-06
9 *65:29 *156:10 6.13287e-06
10 *67:30 *156:10 0
11 *69:8 *156:10 2.24484e-06
12 *109:10 *156:10 0
13 *109:41 *156:10 5.15961e-05
14 *149:83 *156:10 4.42421e-06
*RES
1 *473:Y *156:8 36.0045 
2 *156:8 *156:10 42.8006 
3 *156:10 *476:A1 35.4697 
*END

*D_NET *157 3.89011e-05
*CONN
*I *475:B I *D AO21x1_ASAP7_75t_SL
*I *474:Y O *D OR2x2_ASAP7_75t_SL
*CAP
1 *475:B 1.80513e-05
2 *474:Y 1.80513e-05
3 *66:43 *475:B 2.79851e-06
*RES
1 *474:Y *475:B 44.5617 
*END

*D_NET *158 4.00229e-05
*CONN
*I *476:A2 I *D OA21x2_ASAP7_75t_SL
*I *475:Y O *D AO21x1_ASAP7_75t_SL
*CAP
1 *476:A2 2.07914e-06
2 *475:Y 8.87788e-06
3 *158:10 1.0957e-05
4 *476:B *476:A2 1.36155e-06
5 *64:53 *158:10 0
6 *66:43 *158:10 3.05302e-06
7 *109:41 *158:10 1.36943e-05
*RES
1 *475:Y *158:10 41.0446 
2 *158:10 *476:A2 35.4697 
*END

*D_NET *159 0.00140305
*CONN
*I *523:A1 I *D OA211x2_ASAP7_75t_SL
*I *498:A1 I *D OAI21x1_ASAP7_75t_SL
*I *509:A1 I *D OAI21x1_ASAP7_75t_SL
*I *482:A1 I *D OA21x2_ASAP7_75t_SL
*I *477:B I *D XOR2x2_ASAP7_75t_SL
*I *476:Y O *D OA21x2_ASAP7_75t_SL
*CAP
1 *523:A1 0
2 *498:A1 1.24789e-05
3 *509:A1 1.12079e-05
4 *482:A1 9.26292e-07
5 *477:B 0
6 *476:Y 0
7 *159:83 4.76647e-05
8 *159:70 4.63937e-05
9 *159:68 4.19573e-05
10 *159:66 4.33689e-05
11 *159:53 1.57752e-05
12 *159:43 1.62605e-05
13 *159:41 6.10983e-05
14 *159:37 0.000126115
15 *159:35 6.50169e-05
16 *159:28 1.42364e-05
17 *159:20 4.1362e-05
18 *159:12 3.26955e-05
19 *159:8 7.50654e-05
20 *159:6 6.94956e-05
21 *482:A1 *162:14 3.89037e-06
22 *498:A1 *498:A2 5.85387e-06
23 *498:A1 *523:A2 2.37922e-05
24 *498:A1 *176:25 3.78646e-05
25 *509:A1 *182:12 2.20128e-06
26 *159:8 *485:B 1.63638e-05
27 *159:8 *160:10 9.00621e-05
28 *159:8 *160:21 2.10106e-05
29 *159:20 *350:6 0
30 *159:28 *350:6 8.81946e-06
31 *159:28 *403:33 2.59605e-06
32 *159:37 *485:B 2.52433e-05
33 *159:37 *160:21 7.78051e-06
34 *159:37 *160:57 1.09842e-06
35 *159:37 *300:50 3.25708e-06
36 *159:41 *279:22 5.82944e-07
37 *159:41 *279:28 9.54383e-05
38 *159:41 *279:36 2.90209e-08
39 *159:53 *162:14 1.04475e-06
40 *159:53 *163:12 9.67723e-06
41 *159:53 *401:259 2.66045e-05
42 *159:66 *163:12 6.72009e-06
43 *159:66 *401:259 8.06436e-06
44 *159:68 *174:33 5.62196e-06
45 *159:68 *183:16 1.22212e-05
46 *159:68 *213:275 3.16328e-06
47 *159:68 *279:22 0.000102826
48 *159:83 *190:14 0
49 *478:B *159:8 2.68658e-05
50 *44:10 *509:A1 5.37866e-07
51 *44:10 *159:83 7.58989e-06
52 *50:8 *159:37 5.67735e-06
53 *50:12 *159:37 3.69028e-05
54 *51:10 *159:37 5.1866e-06
55 *51:69 *159:12 3.3921e-06
56 *51:69 *159:20 1.35684e-06
57 *53:41 *159:37 1.71648e-06
58 *54:24 *159:20 1.1646e-05
59 *54:41 *159:20 0
60 *54:41 *159:37 1.45831e-05
61 *56:10 *159:28 8.39395e-06
62 *64:53 *159:8 1.99791e-05
63 *109:41 *159:8 0
64 *109:54 *159:8 0
65 *112:10 *159:8 8.46363e-06
66 *113:10 *159:8 1.6136e-06
67 *116:35 *159:20 2.47522e-06
68 *116:45 *159:20 3.72098e-06
*RES
1 *476:Y *159:6 34.4 
2 *159:6 *159:8 70.9589 
3 *159:8 *159:12 19.8741 
4 *159:12 *159:20 48.5038 
5 *159:20 *159:28 44.1686 
6 *159:28 *477:B 17.2 
7 *159:12 *159:35 17.2 
8 *159:35 *159:37 59.6956 
9 *159:37 *159:41 47.685 
10 *159:41 *159:43 17.2 
11 *159:43 *159:53 48.9006 
12 *159:53 *482:A1 35.4697 
13 *159:43 *159:66 20.0158 
14 *159:66 *159:68 35.8333 
15 *159:68 *159:70 17.2 
16 *159:70 *509:A1 41.158 
17 *159:70 *159:83 44.232 
18 *159:83 *498:A1 30.5706 
19 *159:83 *523:A1 17.2 
*END

*D_NET *160 0.00124208
*CONN
*I *479:B I *D XNOR2x2_ASAP7_75t_SL
*I *527:A1 I *D OA211x2_ASAP7_75t_SL
*I *502:A1 I *D OA21x2_ASAP7_75t_SL
*I *485:A2 I *D OA21x2_ASAP7_75t_SL
*I *478:Y O *D OA21x2_ASAP7_75t_SL
*CAP
1 *479:B 0
2 *527:A1 0
3 *502:A1 0
4 *485:A2 8.03361e-06
5 *478:Y 1.17109e-05
6 *160:57 3.52581e-05
7 *160:44 3.41244e-05
8 *160:33 0.000223254
9 *160:31 0.000194975
10 *160:25 0.000109142
11 *160:23 0.000103296
12 *160:21 7.3926e-05
13 *160:10 7.29867e-05
14 *160:8 3.79961e-05
15 *160:21 *485:B 4.99443e-06
16 *160:21 *162:10 0
17 *160:25 *407:18 2.0895e-06
18 *160:31 *161:8 0
19 *160:33 *178:6 9.96983e-05
20 *160:44 *178:6 4.49469e-06
21 *160:44 *179:23 1.83643e-05
22 *160:44 *199:12 1.09842e-06
23 *430:B *160:33 5.41446e-06
24 *478:B *160:8 2.0895e-06
25 *500:A *160:33 3.07308e-05
26 *41:10 *160:44 0
27 *50:27 *160:21 2.52325e-05
28 *51:69 *160:21 1.04503e-05
29 *67:36 *160:57 5.41446e-06
30 *116:10 *160:21 0
31 *116:14 *160:10 0
32 *116:14 *160:21 0
33 *118:14 *160:25 7.35841e-06
34 *159:8 *160:10 9.00621e-05
35 *159:8 *160:21 2.10106e-05
36 *159:37 *160:21 7.78051e-06
37 *159:37 *160:57 1.09842e-06
*RES
1 *478:Y *160:8 39.2134 
2 *160:8 *160:10 29.8478 
3 *160:10 *485:A2 38.6786 
4 *160:10 *160:21 33.2268 
5 *160:21 *160:23 17.2 
6 *160:23 *160:25 44.3905 
7 *160:25 *160:31 37.779 
8 *160:31 *160:33 95.7337 
9 *160:33 *502:A1 17.2 
10 *160:33 *160:44 37.3286 
11 *160:44 *527:A1 34.4 
12 *160:21 *160:57 38.7347 
13 *160:57 *479:B 17.2 
*END

*D_NET *161 0.000279026
*CONN
*I *482:A2 I *D OA21x2_ASAP7_75t_SL
*I *505:A I *D OR2x2_ASAP7_75t_SL
*I *480:Y O *D OR2x2_ASAP7_75t_SL
*CAP
1 *482:A2 1.16845e-05
2 *505:A 3.82702e-06
3 *480:Y 0
4 *161:8 6.80125e-05
5 *161:6 5.2501e-05
6 *482:A2 *162:14 1.17077e-05
7 *482:A2 *162:22 4.2449e-06
8 *482:A2 *163:8 1.07377e-06
9 *505:A *505:B 5.34278e-06
10 *505:A *162:22 1.96943e-05
11 *505:A *162:41 1.95129e-06
12 *161:8 *496:A 5.3864e-06
13 *161:8 *504:B 2.20128e-06
14 *161:8 *162:28 0
15 *161:8 *172:8 1.30282e-05
16 *161:8 *174:10 4.40246e-06
17 *161:8 *407:63 2.53753e-06
18 *47:18 *161:8 4.96929e-06
19 *47:33 *161:8 3.22574e-06
20 *51:91 *161:8 1.49407e-08
21 *147:47 *482:A2 1.41724e-06
22 *147:47 *161:8 6.18028e-05
23 *160:31 *161:8 0
*RES
1 *480:Y *161:6 34.4 
2 *161:6 *161:8 52.3744 
3 *161:8 *505:A 40.2831 
4 *161:8 *482:A2 42.5074 
*END

*D_NET *162 0.000631334
*CONN
*I *482:B I *D OA21x2_ASAP7_75t_SL
*I *508:A1 I *D OA211x2_ASAP7_75t_SL
*I *496:C I *D OR3x1_ASAP7_75t_SL
*I *481:Y O *D OA21x2_ASAP7_75t_SL
*CAP
1 *482:B 0
2 *508:A1 0
3 *496:C 0
4 *481:Y 5.08552e-05
5 *162:41 2.70915e-05
6 *162:28 5.04871e-06
7 *162:22 5.1692e-05
8 *162:14 5.79147e-05
9 *162:10 7.22868e-05
10 *162:8 3.39238e-05
11 *162:6 5.08552e-05
12 *162:10 *300:50 0
13 *162:10 *353:16 0.000121304
14 *162:14 *163:8 7.63229e-06
15 *162:14 *407:8 1.59615e-06
16 *162:28 *496:A 4.26751e-07
17 *162:28 *181:8 1.31011e-05
18 *162:41 *508:A2 2.69894e-06
19 *162:41 *173:10 1.67815e-06
20 *162:41 *182:6 0
21 *434:A1 *162:6 1.60479e-05
22 *482:A1 *162:14 3.89037e-06
23 *482:A2 *162:14 1.17077e-05
24 *482:A2 *162:22 4.2449e-06
25 *505:A *162:22 1.96943e-05
26 *505:A *162:41 1.95129e-06
27 *45:18 *162:41 8.46363e-06
28 *46:57 *162:10 1.03816e-05
29 *46:68 *162:14 8.06117e-06
30 *50:34 *162:6 2.47522e-06
31 *51:10 *162:10 0
32 *51:51 *162:6 4.86747e-06
33 *51:61 *162:6 1.35684e-06
34 *53:19 *162:6 8.89159e-06
35 *116:10 *162:10 6.77838e-06
36 *141:54 *162:22 1.18128e-05
37 *147:47 *162:22 1.15587e-05
38 *159:53 *162:14 1.04475e-06
39 *160:21 *162:10 0
40 *161:8 *162:28 0
*RES
1 *481:Y *162:6 38.0582 
2 *162:6 *162:8 17.2 
3 *162:8 *162:10 40.548 
4 *162:10 *162:14 40.1975 
5 *162:14 *162:22 47.4342 
6 *162:22 *162:28 38.9053 
7 *162:28 *496:C 17.2 
8 *162:22 *162:41 47.3775 
9 *162:41 *508:A1 17.2 
10 *162:14 *482:B 17.2 
*END

*D_NET *163 0.000132409
*CONN
*I *483:B I *D XNOR2x2_ASAP7_75t_SL
*I *482:Y O *D OA21x2_ASAP7_75t_SL
*CAP
1 *483:B 0
2 *482:Y 2.37277e-05
3 *163:12 1.89129e-05
4 *163:8 4.26406e-05
5 *163:12 *279:28 7.75665e-06
6 *163:12 *401:259 1.12254e-05
7 *163:12 *401:265 5.37866e-07
8 *482:A2 *163:8 1.07377e-06
9 *118:71 *163:12 2.50499e-06
10 *141:50 *163:12 0
11 *159:53 *163:12 9.67723e-06
12 *159:66 *163:12 6.72009e-06
13 *162:14 *163:8 7.63229e-06
*RES
1 *482:Y *163:8 43.492 
2 *163:8 *163:12 33.5318 
3 *163:12 *483:B 17.2 
*END

*D_NET *164 9.49564e-05
*CONN
*I *485:B I *D OA21x2_ASAP7_75t_SL
*I *484:Y O *D AND3x1_ASAP7_75t_SL
*CAP
1 *485:B 1.18117e-05
2 *484:Y 3.9114e-06
3 *164:8 1.57231e-05
4 *50:19 *164:8 2.03526e-06
5 *51:69 *485:B 1.09274e-05
6 *54:41 *485:B 3.94592e-06
7 *159:8 *485:B 1.63638e-05
8 *159:37 *485:B 2.52433e-05
9 *160:21 *485:B 4.99443e-06
*RES
1 *484:Y *164:8 36.0045 
2 *164:8 *485:B 48.4791 
*END

*D_NET *165 1.46957e-05
*CONN
*I *492:A I *D OR3x1_ASAP7_75t_SL
*I *485:Y O *D OA21x2_ASAP7_75t_SL
*CAP
1 *492:A 7.34784e-06
2 *485:Y 7.34784e-06
*RES
1 *485:Y *492:A 38.1438 
*END

*D_NET *166 0.000118143
*CONN
*I *492:B I *D OR3x1_ASAP7_75t_SL
*I *486:Y O *D AND4x1_ASAP7_75t_SL
*CAP
1 *492:B 3.05471e-06
2 *486:Y 2.43731e-05
3 *166:18 1.11193e-05
4 *166:10 3.24377e-05
5 *166:10 *353:8 7.58876e-06
6 *166:10 *407:26 5.69663e-06
7 *166:18 *171:10 2.19482e-06
8 *486:C *166:10 8.48643e-06
9 *116:14 *166:18 1.12179e-06
10 *117:27 *166:18 1.8008e-05
11 *118:31 *166:10 4.06202e-06
*RES
1 *486:Y *166:10 48.1656 
2 *166:10 *166:18 38.2749 
3 *166:18 *492:B 36.0045 
*END

*D_NET *167 7.4142e-05
*CONN
*I *490:B I *D OA211x2_ASAP7_75t_SL
*I *487:Y O *D OR3x1_ASAP7_75t_SL
*CAP
1 *490:B 8.7629e-06
2 *487:Y 8.7629e-06
3 *51:61 *490:B 2.38166e-05
4 *116:33 *490:B 4.06202e-06
5 *116:35 *490:B 2.87375e-05
*RES
1 *487:Y *490:B 43.492 
*END

*D_NET *168 8.92987e-05
*CONN
*I *489:B I *D OR3x1_ASAP7_75t_SL
*I *488:Y O *D INVx1_ASAP7_75t_SL
*CAP
1 *489:B 1.08228e-05
2 *488:Y 4.05647e-06
3 *168:8 1.48793e-05
4 *489:B *169:10 1.85565e-05
5 *168:8 *401:247 1.63536e-05
6 *480:A *168:8 7.84772e-07
7 *489:C *489:B 1.36155e-06
8 *493:B *168:8 5.60551e-07
9 *494:A *489:B 2.13304e-06
10 *57:57 *489:B 9.92599e-06
11 *125:18 *168:8 9.80319e-06
12 *141:54 *168:8 6.10236e-08
*RES
1 *488:Y *168:8 40.0317 
2 *168:8 *489:B 41.3527 
*END

*D_NET *169 0.000131491
*CONN
*I *490:C I *D OA211x2_ASAP7_75t_SL
*I *489:Y O *D OR3x1_ASAP7_75t_SL
*CAP
1 *490:C 1.28613e-05
2 *489:Y 1.44798e-05
3 *169:18 2.19619e-05
4 *169:10 2.35804e-05
5 *490:C *170:10 2.03526e-06
6 *490:C *353:14 2.47522e-06
7 *490:C *405:14 9.75645e-06
8 *169:10 *407:26 1.49407e-08
9 *169:18 *407:26 3.40789e-06
10 *489:B *169:10 1.85565e-05
11 *57:49 *169:18 1.27311e-05
12 *118:18 *169:10 9.63052e-06
*RES
1 *489:Y *169:10 43.7559 
2 *169:10 *169:18 38.001 
3 *169:18 *490:C 41.8876 
*END

*D_NET *170 7.7483e-05
*CONN
*I *491:A I *D INVx1_ASAP7_75t_SL
*I *490:Y O *D OA211x2_ASAP7_75t_SL
*CAP
1 *491:A 0
2 *490:Y 1.44481e-05
3 *170:10 1.44481e-05
4 *170:10 *171:10 2.33649e-05
5 *170:10 *353:8 2.29416e-05
6 *490:C *170:10 2.03526e-06
7 *113:48 *170:10 0
8 *116:14 *170:10 2.45021e-07
*RES
1 *490:Y *170:10 47.831 
2 *170:10 *491:A 34.4 
*END

*D_NET *171 7.95465e-05
*CONN
*I *492:C I *D OR3x1_ASAP7_75t_SL
*I *491:Y O *D INVx1_ASAP7_75t_SL
*CAP
1 *492:C 2.36299e-06
2 *491:Y 1.35746e-05
3 *171:10 1.59376e-05
4 *113:48 *171:10 0
5 *116:14 *171:10 6.52741e-06
6 *116:20 *171:10 1.55843e-05
7 *166:18 *171:10 2.19482e-06
8 *170:10 *171:10 2.33649e-05
*RES
1 *491:Y *171:10 49.3504 
2 *171:10 *492:C 35.4697 
*END

*D_NET *172 0.000201585
*CONN
*I *500:B I *D OR2x4_ASAP7_75t_SL
*I *494:B I *D OR2x2_ASAP7_75t_SL
*I *493:Y O *D OR3x1_ASAP7_75t_SL
*CAP
1 *500:B 1.99235e-05
2 *494:B 0
3 *493:Y 5.05017e-06
4 *172:21 4.08061e-05
5 *172:12 2.20147e-05
6 *172:8 6.18231e-06
7 *500:B *279:8 1.75666e-06
8 *172:21 *173:8 4.09246e-06
9 *494:A *172:12 2.8275e-06
10 *494:A *172:21 5.655e-06
11 *121:8 *500:B 1.47278e-06
12 *121:23 *500:B 6.33206e-07
13 *125:20 *172:12 5.62196e-06
14 *125:20 *172:21 7.25207e-05
15 *161:8 *172:8 1.30282e-05
*RES
1 *493:Y *172:8 38.9053 
2 *172:8 *172:12 18.8045 
3 *172:12 *494:B 17.2 
4 *172:12 *172:21 39.1278 
5 *172:21 *500:B 47.3528 
*END

*D_NET *173 0.000590066
*CONN
*I *523:A2 I *D OA211x2_ASAP7_75t_SL
*I *498:A2 I *D OAI21x1_ASAP7_75t_SL
*I *494:Y O *D OR2x2_ASAP7_75t_SL
*CAP
1 *523:A2 6.36816e-06
2 *498:A2 1.62831e-06
3 *494:Y 2.12405e-05
4 *173:12 7.99647e-06
5 *173:10 7.20163e-05
6 *173:8 9.32567e-05
7 *498:A2 *498:B 5.85387e-06
8 *523:A2 *498:B 1.10242e-05
9 *173:10 *176:10 6.768e-05
10 *173:10 *176:25 4.83862e-06
11 *173:10 *183:16 1.31716e-05
12 *173:10 *184:10 1.66587e-05
13 *173:10 *213:283 1.33022e-05
14 *173:10 *213:302 2.3606e-05
15 *173:10 *232:21 3.56253e-05
16 *498:A1 *498:A2 5.85387e-06
17 *498:A1 *523:A2 2.37922e-05
18 *45:18 *173:10 2.43534e-06
19 *45:28 *173:10 1.63973e-05
20 *45:30 *173:10 4.86244e-05
21 *45:36 *173:10 2.35401e-05
22 *121:8 *173:10 5.04679e-05
23 *121:23 *173:10 1.89173e-05
24 *162:41 *173:10 1.67815e-06
25 *172:21 *173:8 4.09246e-06
*RES
1 *494:Y *173:8 43.492 
2 *173:8 *173:10 87.2907 
3 *173:10 *173:12 17.2 
4 *173:12 *498:A2 18.8045 
5 *173:12 *523:A2 24.1527 
*END

*D_NET *174 0.000229362
*CONN
*I *497:A I *D AND2x2_ASAP7_75t_SL
*I *507:C I *D OR3x1_ASAP7_75t_SL
*I *495:Y O *D OA21x2_ASAP7_75t_SL
*CAP
1 *497:A 0
2 *507:C 1.0148e-05
3 *495:Y 1.31483e-05
4 *174:33 1.61004e-05
5 *174:18 5.2008e-05
6 *174:10 3.89079e-05
7 *174:33 *175:10 1.46633e-05
8 *174:33 *232:29 1.5628e-05
9 *45:70 *507:C 3.90258e-06
10 *45:78 *507:C 7.80516e-06
11 *47:33 *174:10 3.61763e-05
12 *118:8 *174:10 6.28016e-06
13 *147:47 *174:10 4.5698e-06
14 *159:68 *174:33 5.62196e-06
15 *161:8 *174:10 4.40246e-06
*RES
1 *495:Y *174:10 46.1573 
2 *174:10 *174:18 42.6324 
3 *174:18 *507:C 39.2134 
4 *174:18 *174:33 32.8836 
5 *174:33 *497:A 17.2 
*END

*D_NET *175 5.33982e-05
*CONN
*I *497:B I *D AND2x2_ASAP7_75t_SL
*I *496:Y O *D OR3x1_ASAP7_75t_SL
*CAP
1 *497:B 0
2 *496:Y 1.52024e-05
3 *175:10 1.52024e-05
4 *175:10 *181:8 8.33007e-06
5 *47:18 *175:10 0
6 *147:47 *175:10 0
7 *174:33 *175:10 1.46633e-05
*RES
1 *496:Y *175:10 47.831 
2 *175:10 *497:B 34.4 
*END

*D_NET *176 0.000254879
*CONN
*I *523:B I *D OA211x2_ASAP7_75t_SL
*I *498:B I *D OAI21x1_ASAP7_75t_SL
*I *497:Y O *D AND2x2_ASAP7_75t_SL
*CAP
1 *523:B 0
2 *498:B 7.2968e-06
3 *497:Y 4.87652e-06
4 *176:25 2.03556e-05
5 *176:10 4.40844e-05
6 *176:8 2.13085e-05
7 *176:8 *279:22 1.25483e-05
8 *498:A1 *176:25 3.78646e-05
9 *498:A2 *498:B 5.85387e-06
10 *523:A2 *498:B 1.10242e-05
11 *45:18 *176:10 1.38524e-05
12 *45:18 *176:25 3.29527e-06
13 *173:10 *176:10 6.768e-05
14 *173:10 *176:25 4.83862e-06
*RES
1 *497:Y *176:8 38.1438 
2 *176:8 *176:10 22.5266 
3 *176:10 *498:B 39.2134 
4 *176:10 *176:25 33.978 
5 *176:25 *523:B 17.2 
*END

*D_NET *177 0.000158696
*CONN
*I *499:B I *D XNOR2x2_ASAP7_75t_SL
*I *524:A1 I *D AO211x2_ASAP7_75t_SL
*I *498:Y O *D OAI21x1_ASAP7_75t_SL
*CAP
1 *499:B 0
2 *524:A1 1.92942e-05
3 *498:Y 2.45252e-06
4 *177:23 1.56671e-05
5 *177:8 3.74138e-05
6 *177:8 *213:302 5.97901e-06
7 *177:23 *213:302 1.50858e-05
8 *668:B *177:23 1.66514e-05
9 *44:10 *177:8 1.34329e-05
10 *44:10 *177:23 2.68658e-05
11 *45:8 *177:23 0
12 *45:12 *177:23 5.85387e-06
*RES
1 *498:Y *177:8 38.9053 
2 *177:8 *524:A1 45.6313 
3 *177:8 *177:23 36.2626 
4 *177:23 *499:B 17.2 
*END

*D_NET *178 0.000341319
*CONN
*I *502:A2 I *D OA21x2_ASAP7_75t_SL
*I *527:A2 I *D OA211x2_ASAP7_75t_SL
*I *500:Y O *D OR2x4_ASAP7_75t_SL
*CAP
1 *502:A2 0
2 *527:A2 0
3 *500:Y 0
4 *178:14 2.18371e-05
5 *178:6 0.000116107
6 *178:4 9.42697e-05
7 *178:14 *179:12 6.33206e-07
8 *36:47 *178:14 1.64348e-06
9 *41:10 *178:14 1.10561e-06
10 *41:14 *178:14 1.53057e-06
11 *160:33 *178:6 9.96983e-05
12 *160:44 *178:6 4.49469e-06
*RES
1 *500:Y *178:4 17.2 
2 *178:4 *178:6 74.3407 
3 *178:6 *178:14 48.1107 
4 *178:14 *527:A2 17.2 
5 *178:6 *502:A2 17.2 
*END

*D_NET *179 0.000437684
*CONN
*I *527:C I *D OA211x2_ASAP7_75t_SL
*I *502:B I *D OA21x2_ASAP7_75t_SL
*I *501:Y O *D OA21x2_ASAP7_75t_SL
*CAP
1 *527:C 2.76118e-06
2 *502:B 0
3 *501:Y 0
4 *179:23 2.1345e-05
5 *179:12 2.56498e-05
6 *179:6 0.000143664
7 *179:4 0.000136598
8 *527:C *199:12 5.85387e-06
9 *179:6 *308:24 2.52088e-05
10 *179:23 *180:8 1.90474e-05
11 *179:23 *199:12 4.83862e-06
12 *436:A1 *179:6 9.31065e-06
13 *436:C *179:6 1.60484e-05
14 *36:47 *179:12 0
15 *41:10 *179:12 8.34646e-06
16 *41:10 *179:23 0
17 *123:8 *179:6 0
18 *126:24 *179:6 1.40419e-08
19 *132:10 *179:23 0
20 *160:44 *179:23 1.83643e-05
21 *178:14 *179:12 6.33206e-07
*RES
1 *501:Y *179:4 17.2 
2 *179:4 *179:6 52.9477 
3 *179:6 *179:12 41.158 
4 *179:12 *502:B 17.2 
5 *179:12 *179:23 35.246 
6 *179:23 *527:C 36.0045 
*END

*D_NET *180 6.84224e-05
*CONN
*I *503:B I *D XOR2x2_ASAP7_75t_SL
*I *502:Y O *D OA21x2_ASAP7_75t_SL
*CAP
1 *503:B 7.81955e-06
2 *502:Y 6.92129e-06
3 *180:8 1.47408e-05
4 *503:B *308:20 7.93104e-06
5 *503:B *397:8 0
6 *180:8 *397:12 2.12481e-06
7 *180:8 *397:21 9.83747e-06
8 *41:10 *503:B 0
9 *179:23 *180:8 1.90474e-05
*RES
1 *502:Y *180:8 43.492 
2 *180:8 *503:B 41.158 
*END

*D_NET *181 0.000106028
*CONN
*I *508:A2 I *D OA211x2_ASAP7_75t_SL
*I *505:B I *D OR2x2_ASAP7_75t_SL
*I *504:Y O *D OR4x2_ASAP7_75t_SL
*CAP
1 *508:A2 8.85494e-06
2 *505:B 6.10826e-06
3 *504:Y 1.6127e-05
4 *181:10 1.49632e-05
5 *181:8 1.6127e-05
6 *508:A2 *182:6 3.65131e-06
7 *181:8 *496:A 1.25502e-06
8 *181:8 *232:29 0
9 *505:A *505:B 5.34278e-06
10 *45:78 *181:8 0
11 *47:18 *181:8 4.1009e-06
12 *51:91 *181:8 5.36731e-06
13 *147:47 *181:8 0
14 *162:28 *181:8 1.31011e-05
15 *162:41 *508:A2 2.69894e-06
16 *175:10 *181:8 8.33007e-06
*RES
1 *504:Y *181:8 49.6055 
2 *181:8 *181:10 17.2 
3 *181:10 *505:B 22.0134 
4 *181:10 *508:A2 23.0831 
*END

*D_NET *182 0.000130824
*CONN
*I *509:A2 I *D OAI21x1_ASAP7_75t_SL
*I *505:Y O *D OR2x2_ASAP7_75t_SL
*CAP
1 *509:A2 0
2 *505:Y 5.15474e-05
3 *182:12 1.94755e-06
4 *182:6 5.3495e-05
5 *182:6 *508:B 1.10486e-05
6 *182:6 *185:10 0
7 *182:6 *279:14 3.16328e-06
8 *182:12 *183:8 3.76935e-06
9 *508:A2 *182:6 3.65131e-06
10 *509:A1 *182:12 2.20128e-06
11 *44:10 *182:12 0
12 *162:41 *182:6 0
*RES
1 *505:Y *182:6 38.0582 
2 *182:6 *182:12 37.2158 
3 *182:12 *509:A2 17.2 
*END

*D_NET *183 0.000286446
*CONN
*I *517:A I *D NAND2x1_ASAP7_75t_SL
*I *508:B I *D OA211x2_ASAP7_75t_SL
*I *506:Y O *D OA21x2_ASAP7_75t_SL
*CAP
1 *517:A 6.40782e-05
2 *508:B 3.60603e-06
3 *506:Y 1.49572e-05
4 *183:16 3.63851e-05
5 *183:10 9.68573e-05
6 *183:8 1.49572e-05
7 *508:B *508:C 2.03526e-06
8 *517:A *213:275 0
9 *183:8 *185:10 3.6269e-06
10 *183:8 *186:8 3.84449e-06
11 *183:8 *279:8 8.2174e-07
12 *183:16 *213:275 0
13 *44:10 *183:8 0
14 *121:23 *183:16 5.06565e-06
15 *159:68 *183:16 1.22212e-05
16 *173:10 *183:16 1.31716e-05
17 *182:6 *508:B 1.10486e-05
18 *182:12 *183:8 3.76935e-06
*RES
1 *506:Y *183:8 46.2265 
2 *183:8 *183:10 17.2 
3 *183:10 *183:16 35.076 
4 *183:16 *508:B 37.609 
5 *183:10 *517:A 47.1502 
*END

*D_NET *184 5.38511e-05
*CONN
*I *508:C I *D OA211x2_ASAP7_75t_SL
*I *507:Y O *D OR3x1_ASAP7_75t_SL
*CAP
1 *508:C 3.09513e-06
2 *507:Y 1.06254e-05
3 *184:10 1.37206e-05
4 *184:10 *506:A1 7.72307e-07
5 *508:B *508:C 2.03526e-06
6 *121:23 *184:10 6.94376e-06
7 *173:10 *184:10 1.66587e-05
*RES
1 *507:Y *184:10 42.7058 
2 *184:10 *508:C 36.0045 
*END

*D_NET *185 7.59886e-05
*CONN
*I *509:B I *D OAI21x1_ASAP7_75t_SL
*I *508:Y O *D OA211x2_ASAP7_75t_SL
*CAP
1 *509:B 0
2 *508:Y 2.7876e-05
3 *185:10 2.7876e-05
4 *185:10 *186:8 8.46363e-06
5 *185:10 *279:14 8.146e-06
6 *182:6 *185:10 0
7 *183:8 *185:10 3.6269e-06
*RES
1 *508:Y *185:10 49.5168 
2 *185:10 *509:B 34.4 
*END

*D_NET *186 0.000701035
*CONN
*I *534:A1 I *D AO21x1_ASAP7_75t_SL
*I *510:B I *D XNOR2x2_ASAP7_75t_SL
*I *509:Y O *D OAI21x1_ASAP7_75t_SL
*CAP
1 *534:A1 0
2 *510:B 0
3 *509:Y 9.55741e-06
4 *186:47 1.26414e-05
5 *186:39 3.41678e-05
6 *186:28 3.56744e-05
7 *186:22 0.000120984
8 *186:18 6.50489e-05
9 *186:12 0.000134877
10 *186:10 0.000133611
11 *186:8 9.55741e-06
12 *186:28 *201:12 0
13 *186:28 *409:73 2.18135e-06
14 *186:39 *201:12 0
15 *186:47 *534:A2 2.27522e-06
16 *516:A1 *186:12 8.99409e-06
17 *528:A2 *186:39 0
18 *28:26 *186:28 4.43863e-07
19 *28:26 *186:39 7.42096e-06
20 *28:32 *186:39 4.88493e-06
21 *28:32 *186:47 2.67352e-05
22 *29:12 *186:39 1.33667e-05
23 *30:10 *186:39 1.32074e-05
24 *35:21 *186:18 2.25196e-06
25 *39:10 *186:28 0
26 *39:14 *186:28 1.58373e-06
27 *39:16 *186:28 1.26376e-05
28 *39:81 *186:28 0
29 *41:33 *186:12 3.66244e-05
30 *131:12 *186:39 0
31 *183:8 *186:8 3.84449e-06
32 *185:10 *186:8 8.46363e-06
*RES
1 *509:Y *186:8 43.4107 
2 *186:8 *186:10 17.2 
3 *186:10 *186:12 64.7138 
4 *186:12 *186:18 35.2447 
5 *186:18 *186:22 41.0082 
6 *186:22 *186:28 40.5677 
7 *186:28 *510:B 17.2 
8 *186:22 *186:39 36.994 
9 *186:39 *186:47 45.0151 
10 *186:47 *534:A1 17.2 
*END

*D_NET *187 0.000310843
*CONN
*I *512:B I *D XNOR2x2_ASAP7_75t_SL
*I *575:C I *D NOR3x1_ASAP7_75t_SL
*I *573:B I *D AND2x2_ASAP7_75t_SL
*I *511:Y O *D AO21x1_ASAP7_75t_SL
*CAP
1 *512:B 7.23294e-06
2 *575:C 0
3 *573:B 0
4 *511:Y 2.23156e-05
5 *187:32 7.34017e-05
6 *187:16 3.01528e-05
7 *187:10 5.64022e-05
8 *187:6 0.000114734
9 *512:B *342:8 0
10 *187:10 *228:8 0
11 *187:16 *228:8 0
12 *187:16 *229:8 0
13 *36:38 *512:B 0
14 *132:14 *187:32 0
15 *132:18 *187:10 0
16 *134:10 *187:10 3.89953e-06
17 *134:10 *187:16 2.70427e-06
*RES
1 *511:Y *187:6 26.292 
2 *187:6 *187:10 35.7845 
3 *187:10 *187:16 33.6415 
4 *187:16 *573:B 17.2 
5 *187:10 *575:C 34.4 
6 *187:6 *187:32 45.5457 
7 *187:32 *512:B 38.9053 
*END

*D_NET *188 0.000234682
*CONN
*I *530:A2 I *D AO21x1_ASAP7_75t_SL
*I *514:B I *D NAND2x1_ASAP7_75t_SL
*I *513:Y O *D AO21x1_ASAP7_75t_SL
*CAP
1 *530:A2 7.99428e-06
2 *514:B 1.59715e-06
3 *513:Y 0
4 *188:16 2.40909e-05
5 *188:8 5.44981e-05
6 *188:6 2.40101e-05
7 *530:A2 *530:B 3.76935e-06
8 *530:A2 *191:25 1.86635e-05
9 *188:8 *191:10 4.15353e-05
10 *188:8 *191:25 1.15587e-05
11 *188:16 *191:14 3.13426e-06
12 *188:16 *308:26 8.52021e-06
13 *514:A *514:B 1.44167e-06
14 *530:A1 *188:16 1.12894e-06
15 *33:16 *530:A2 0
16 *33:16 *188:8 0
17 *35:10 *188:8 7.24542e-06
18 *35:21 *188:8 3.95845e-06
19 *35:43 *188:16 1.12894e-06
20 *36:60 *188:8 2.04071e-05
21 *36:73 *188:8 0
*RES
1 *513:Y *188:6 34.4 
2 *188:6 *188:8 25.9056 
3 *188:8 *188:16 47.0411 
4 *188:16 *514:B 35.4697 
5 *188:8 *530:A2 42.2276 
*END

*D_NET *189 0.000272262
*CONN
*I *518:A I *D AND2x2_ASAP7_75t_SL
*I *515:C I *D AND3x1_ASAP7_75t_SL
*I *520:A2 I *D OAI22x1_ASAP7_75t_SL
*I *514:Y O *D NAND2x1_ASAP7_75t_SL
*CAP
1 *518:A 0
2 *515:C 0
3 *520:A2 1.28017e-05
4 *514:Y 2.7611e-05
5 *189:35 1.76054e-05
6 *189:25 4.30501e-05
7 *189:8 6.58574e-05
8 *520:A2 *195:8 1.59615e-06
9 *189:25 *193:10 1.26378e-06
10 *189:25 *404:25 2.35847e-05
11 *189:25 *404:27 3.0511e-05
12 *189:25 *404:33 1.06092e-05
13 *189:35 *190:6 5.68125e-06
14 *189:35 *192:16 0
15 *189:35 *404:33 2.72554e-05
16 *189:35 *404:45 1.09067e-06
17 *514:A *189:8 1.51653e-06
18 *134:10 *520:A2 2.22736e-06
*RES
1 *514:Y *189:8 46.701 
2 *189:8 *520:A2 43.1556 
3 *189:8 *189:25 40.4242 
4 *189:25 *189:35 49.0387 
5 *189:35 *515:C 17.2 
6 *189:25 *518:A 17.2 
*END

*D_NET *190 0.00014194
*CONN
*I *524:A2 I *D AO211x2_ASAP7_75t_SL
*I *515:Y O *D AND3x1_ASAP7_75t_SL
*CAP
1 *524:A2 0
2 *515:Y 4.57578e-05
3 *190:14 2.21118e-05
4 *190:6 6.78696e-05
5 *190:14 *524:C 0
6 *121:35 *190:6 5.19552e-07
7 *159:83 *190:14 0
8 *189:35 *190:6 5.68125e-06
*RES
1 *515:Y *190:6 36.9885 
2 *190:6 *190:14 48.9573 
3 *190:14 *524:A2 17.2 
*END

*D_NET *191 0.000364694
*CONN
*I *532:A2 I *D OA21x2_ASAP7_75t_SL
*I *517:B I *D NAND2x1_ASAP7_75t_SL
*I *516:Y O *D OA21x2_ASAP7_75t_SL
*CAP
1 *532:A2 0
2 *517:B 0
3 *516:Y 3.83659e-06
4 *191:25 2.85946e-05
5 *191:14 5.47788e-05
6 *191:12 5.47788e-05
7 *191:10 3.66028e-05
8 *191:8 1.18447e-05
9 *191:25 *530:B 2.19685e-06
10 *191:25 *532:A1 5.17782e-06
11 *191:25 *308:26 0
12 *191:25 *404:23 5.49212e-07
13 *191:25 *404:25 5.09299e-06
14 *448:A1 *191:14 5.85387e-06
15 *516:A1 *191:8 2.20493e-06
16 *530:A1 *191:25 1.19507e-05
17 *530:A2 *191:25 1.86635e-05
18 *35:21 *191:10 1.28696e-05
19 *35:32 *191:10 2.71272e-05
20 *35:43 *191:10 4.83862e-06
21 *35:43 *191:25 2.15045e-05
22 *188:8 *191:10 4.15353e-05
23 *188:8 *191:25 1.15587e-05
24 *188:16 *191:14 3.13426e-06
*RES
1 *516:Y *191:8 36.0045 
2 *191:8 *191:10 14.0792 
3 *191:10 *191:12 17.2 
4 *191:12 *191:14 34.2288 
5 *191:14 *517:B 17.2 
6 *191:10 *191:25 44.8198 
7 *191:25 *532:A2 17.2 
*END

*D_NET *192 0.00011652
*CONN
*I *520:B1 I *D OAI22x1_ASAP7_75t_SL
*I *522:B I *D NOR2x1_ASAP7_75t_SL
*I *518:B I *D AND2x2_ASAP7_75t_SL
*I *517:Y O *D NAND2x1_ASAP7_75t_SL
*CAP
1 *520:B1 0
2 *522:B 5.04691e-06
3 *518:B 0
4 *517:Y 1.09958e-05
5 *192:16 3.21761e-05
6 *192:10 2.71292e-05
7 *192:8 1.09958e-05
8 *192:16 *520:B2 9.75735e-06
9 *192:16 *404:33 5.52807e-07
10 *121:35 *192:16 0
11 *134:10 *192:8 0
12 *149:105 *522:B 5.67735e-06
13 *149:105 *192:8 0
14 *149:105 *192:16 1.41892e-05
15 *189:35 *192:16 0
*RES
1 *517:Y *192:8 42.2843 
2 *192:8 *192:10 17.2 
3 *192:10 *192:16 38.625 
4 *192:16 *518:B 34.4 
5 *192:16 *522:B 38.9053 
6 *192:10 *520:B1 17.2 
*END

*D_NET *193 3.41314e-05
*CONN
*I *521:A2 I *D AO21x1_ASAP7_75t_SL
*I *518:Y O *D AND2x2_ASAP7_75t_SL
*CAP
1 *521:A2 0
2 *518:Y 1.3396e-05
3 *193:10 1.3396e-05
4 *193:10 *521:B 5.52652e-06
5 *193:10 *404:61 5.49212e-07
6 *193:10 *404:71 0
7 *134:10 *193:10 0
8 *189:25 *193:10 1.26378e-06
*RES
1 *518:Y *193:10 43.8321 
2 *193:10 *521:A2 34.4 
*END

*D_NET *194 3.79161e-05
*CONN
*I *520:B2 I *D OAI22x1_ASAP7_75t_SL
*I *519:Y O *D OR2x2_ASAP7_75t_SL
*CAP
1 *520:B2 1.40794e-05
2 *519:Y 1.40794e-05
3 *192:16 *520:B2 9.75735e-06
*RES
1 *519:Y *520:B2 44.5617 
*END

*D_NET *195 8.77105e-05
*CONN
*I *521:B I *D AO21x1_ASAP7_75t_SL
*I *520:Y O *D OAI22x1_ASAP7_75t_SL
*CAP
1 *521:B 2.03016e-05
2 *520:Y 1.98659e-05
3 *195:8 4.01675e-05
4 *521:B *196:6 2.52755e-07
5 *521:B *404:61 0
6 *520:A2 *195:8 1.59615e-06
7 *134:10 *521:B 0
8 *149:105 *521:B 0
9 *193:10 *521:B 5.52652e-06
*RES
1 *520:Y *195:8 42.4224 
2 *195:8 *521:B 48.4225 
*END

*D_NET *196 0.000203845
*CONN
*I *524:B I *D AO211x2_ASAP7_75t_SL
*I *521:Y O *D AO21x1_ASAP7_75t_SL
*CAP
1 *524:B 2.33064e-05
2 *521:Y 4.67971e-05
3 *196:12 3.40578e-05
4 *196:6 5.75485e-05
5 *196:6 *197:8 4.02536e-05
6 *196:6 *404:71 0
7 *196:12 *524:C 1.62854e-06
8 *521:B *196:6 2.52755e-07
9 *149:105 *196:12 0
*RES
1 *521:Y *196:6 40.1975 
2 *196:6 *196:12 42.2843 
3 *196:12 *524:B 30.5706 
*END

*D_NET *197 0.000161132
*CONN
*I *523:C I *D OA211x2_ASAP7_75t_SL
*I *522:Y O *D NOR2x1_ASAP7_75t_SL
*CAP
1 *523:C 0
2 *522:Y 1.21672e-05
3 *197:14 3.11875e-05
4 *197:8 4.33547e-05
5 *197:8 *404:71 2.31697e-05
6 *197:14 *198:8 1.09989e-05
7 *196:6 *197:8 4.02536e-05
*RES
1 *522:Y *197:8 48.8403 
2 *197:8 *197:14 38.7347 
3 *197:14 *523:C 17.2 
*END

*D_NET *198 7.76416e-05
*CONN
*I *524:C I *D AO211x2_ASAP7_75t_SL
*I *523:Y O *D OA211x2_ASAP7_75t_SL
*CAP
1 *524:C 7.94844e-06
2 *523:Y 2.45586e-05
3 *198:8 3.25071e-05
4 *190:14 *524:C 0
5 *196:12 *524:C 1.62854e-06
6 *197:14 *198:8 1.09989e-05
*RES
1 *523:Y *198:8 46.701 
2 *198:8 *524:C 40.0317 
*END

*D_NET *199 9.92426e-05
*CONN
*I *528:B1 I *D AO221x1_ASAP7_75t_SL
*I *527:B I *D OA211x2_ASAP7_75t_SL
*I *525:Y O *D OA211x2_ASAP7_75t_SL
*CAP
1 *528:B1 1.32913e-05
2 *527:B 0
3 *525:Y 0
4 *199:12 2.53952e-05
5 *199:6 3.86865e-05
6 *528:B1 *200:10 4.34288e-06
7 *525:C *528:B1 4.9291e-06
8 *527:C *199:12 5.85387e-06
9 *528:A1 *528:B1 8.06799e-07
10 *38:72 *528:B1 0
11 *38:72 *199:12 0
12 *41:10 *199:12 0
13 *41:44 *528:B1 0
14 *41:44 *199:12 0
15 *132:10 *528:B1 0
16 *132:10 *199:12 0
17 *160:44 *199:12 1.09842e-06
18 *179:23 *199:12 4.83862e-06
*RES
1 *525:Y *199:6 34.4 
2 *199:6 *199:12 35.6711 
3 *199:12 *527:B 17.2 
4 *199:6 *528:B1 46.7897 
*END

*D_NET *200 7.10905e-05
*CONN
*I *528:B2 I *D AO221x1_ASAP7_75t_SL
*I *526:Y O *D OR2x2_ASAP7_75t_SL
*CAP
1 *528:B2 2.05786e-06
2 *526:Y 2.53411e-05
3 *200:10 2.7399e-05
4 *200:10 *526:B 1.11142e-05
5 *528:B1 *200:10 4.34288e-06
6 *32:43 *528:B2 2.52755e-07
7 *132:10 *200:10 5.82688e-07
*RES
1 *526:Y *200:10 47.9974 
2 *200:10 *528:B2 35.4697 
*END

*D_NET *201 0.000194164
*CONN
*I *528:C I *D AO221x1_ASAP7_75t_SL
*I *527:Y O *D OA211x2_ASAP7_75t_SL
*CAP
1 *528:C 7.73569e-06
2 *527:Y 8.93341e-06
3 *201:12 3.65804e-05
4 *201:8 3.77781e-05
5 *201:12 *409:73 0
6 *528:A1 *528:C 3.89037e-06
7 *528:A2 *528:C 2.03526e-06
8 *528:A2 *201:12 8.33296e-06
9 *32:43 *528:C 2.20493e-06
10 *132:10 *201:12 8.66727e-05
11 *186:28 *201:12 0
12 *186:39 *201:12 0
*RES
1 *527:Y *201:8 38.1438 
2 *201:8 *201:12 46.4846 
3 *201:12 *528:C 22.0134 
*END

*D_NET *202 0.000166575
*CONN
*I *529:B I *D XOR2x2_ASAP7_75t_SL
*I *528:Y O *D AO221x1_ASAP7_75t_SL
*CAP
1 *529:B 8.07869e-06
2 *528:Y 5.35089e-05
3 *202:12 2.93061e-05
4 *202:6 7.47363e-05
5 *529:B *534:B 6.7842e-07
6 *529:B *207:8 2.66797e-07
*RES
1 *528:Y *202:6 35.9189 
2 *202:6 *202:12 47.3528 
3 *202:12 *529:B 22.0134 
*END

*D_NET *203 9.09993e-05
*CONN
*I *531:A2 I *D AOI21x1_ASAP7_75t_SL
*I *530:Y O *D AO21x1_ASAP7_75t_SL
*CAP
1 *531:A2 0
2 *530:Y 2.27346e-05
3 *203:6 2.27346e-05
4 *203:6 *404:6 1.35684e-06
5 *203:6 *404:10 7.38275e-06
6 *531:A1 *203:6 3.67905e-05
*RES
1 *530:Y *203:6 36.4537 
2 *203:6 *531:A2 17.2 
*END

*D_NET *204 7.80114e-05
*CONN
*I *534:A2 I *D AO21x1_ASAP7_75t_SL
*I *531:Y O *D AOI21x1_ASAP7_75t_SL
*CAP
1 *534:A2 1.29458e-05
2 *531:Y 2.07558e-05
3 *204:10 3.37016e-05
4 *28:32 *204:10 8.33296e-06
5 *30:10 *204:10 0
6 *186:47 *534:A2 2.27522e-06
*RES
1 *531:Y *204:10 45.2382 
2 *204:10 *534:A2 40.8179 
*END

*D_NET *205 6.91057e-05
*CONN
*I *533:A2 I *D OAI21x1_ASAP7_75t_SL
*I *532:Y O *D OA21x2_ASAP7_75t_SL
*CAP
1 *533:A2 0
2 *532:Y 2.91206e-05
3 *205:6 2.91206e-05
4 *29:31 *205:6 1.08644e-05
*RES
1 *532:Y *205:6 34.8492 
2 *205:6 *533:A2 17.2 
*END

*D_NET *206 0.000118735
*CONN
*I *534:B I *D AO21x1_ASAP7_75t_SL
*I *533:Y O *D OAI21x1_ASAP7_75t_SL
*CAP
1 *534:B 1.86167e-05
2 *533:Y 3.31383e-05
3 *206:8 5.1755e-05
4 *534:B *207:8 5.2384e-06
5 *534:B *207:12 9.30798e-06
6 *529:B *534:B 6.7842e-07
*RES
1 *533:Y *206:8 46.701 
2 *206:8 *534:B 45.9147 
*END

*D_NET *207 8.70808e-05
*CONN
*I *535:B I *D XNOR2x2_ASAP7_75t_SL
*I *534:Y O *D AO21x1_ASAP7_75t_SL
*CAP
1 *535:B 0
2 *534:Y 1.07976e-05
3 *207:12 2.53362e-05
4 *207:8 3.61338e-05
5 *529:B *207:8 2.66797e-07
6 *534:B *207:8 5.2384e-06
7 *534:B *207:12 9.30798e-06
*RES
1 *534:Y *207:8 38.6786 
2 *207:8 *207:12 38.6003 
3 *207:12 *535:B 17.2 
*END

*D_NET *208 0.000133401
*CONN
*I *640:B2 I *D OA222x2_ASAP7_75t_SL
*I *561:A1 I *D OA21x2_ASAP7_75t_SL
*I *551:Y O *D INVx1_ASAP7_75t_SL
*CAP
1 *640:B2 0
2 *561:A1 2.585e-06
3 *551:Y 0
4 *208:29 1.72966e-05
5 *208:10 3.52509e-05
6 *208:4 4.99625e-05
7 *208:10 *402:482 1.12839e-05
8 *208:29 *640:B1 3.16603e-06
9 *208:29 *304:20 1.40419e-08
10 *208:29 *339:12 8.45637e-06
11 *208:29 *402:482 4.57952e-06
12 *70:10 *208:10 2.83874e-07
13 *72:8 *208:10 0
14 *146:14 *561:A1 5.22376e-07
*RES
1 *551:Y *208:4 17.2 
2 *208:4 *208:10 37.0489 
3 *208:10 *561:A1 35.4697 
4 *208:4 *208:29 44.7034 
5 *208:29 *640:B2 17.2 
*END

*D_NET *209 0.000287508
*CONN
*I *555:A I *D INVx1_ASAP7_75t_SL
*I *579:B I *D OR2x4_ASAP7_75t_SL
*I *635:B I *D AO21x2_ASAP7_75t_SL
*I *553:B I *D AOI21x1_ASAP7_75t_SL
*I *552:Y O *D NAND2x1_ASAP7_75t_SL
*CAP
1 *555:A 1.11327e-05
2 *579:B 0
3 *635:B 2.18844e-05
4 *553:B 0
5 *552:Y 0
6 *209:26 1.2244e-05
7 *209:12 3.28949e-05
8 *209:4 1.21218e-05
9 *555:A *232:6 2.12062e-05
10 *635:B *210:130 2.29378e-05
11 *209:12 *232:6 1.32074e-05
12 *209:26 *232:6 7.35354e-06
13 *133:54 *635:B 5.85387e-06
14 *133:60 *635:B 2.0561e-05
15 *133:60 *209:12 2.59405e-05
16 *137:14 *555:A 4.718e-05
17 *137:14 *209:12 1.32074e-05
18 *137:14 *209:26 5.40225e-06
19 *141:93 *635:B 1.52651e-06
20 *141:100 *635:B 2.20964e-06
21 *147:10 *209:12 3.32524e-06
22 *147:14 *209:12 7.31886e-06
*RES
1 *552:Y *209:4 17.2 
2 *209:4 *209:12 47.1544 
3 *209:12 *553:B 17.2 
4 *209:12 *635:B 33.7796 
5 *209:4 *209:26 2.1393 
6 *209:26 *579:B 17.2 
7 *209:26 *555:A 32.1751 
*END

*D_NET *210 0.00434457
*CONN
*I *594:A2 I *D AO22x1_ASAP7_75t_SL
*I *589:A2 I *D AO22x1_ASAP7_75t_SL
*I *564:A2 I *D AO221x1_ASAP7_75t_SL
*I *560:A2 I *D AO221x1_ASAP7_75t_SL
*I *572:B I *D AND2x2_ASAP7_75t_SL
*I *598:A2 I *D AO221x2_ASAP7_75t_SL
*I *622:A2 I *D AO221x2_ASAP7_75t_SL
*I *619:A2 I *D AO221x2_ASAP7_75t_SL
*I *615:A2 I *D AO221x2_ASAP7_75t_SL
*I *610:A2 I *D AO221x2_ASAP7_75t_SL
*I *606:A2 I *D AO221x2_ASAP7_75t_SL
*I *553:Y O *D AOI21x1_ASAP7_75t_SL
*CAP
1 *594:A2 5.30392e-06
2 *589:A2 2.83908e-06
3 *564:A2 2.32669e-06
4 *560:A2 4.80727e-06
5 *572:B 0
6 *598:A2 0
7 *622:A2 2.77705e-06
8 *619:A2 0
9 *615:A2 0
10 *610:A2 6.99791e-06
11 *606:A2 0
12 *553:Y 0
13 *210:218 6.06175e-05
14 *210:216 5.53136e-05
15 *210:207 5.46681e-06
16 *210:203 5.14269e-05
17 *210:201 8.46729e-05
18 *210:190 3.82005e-05
19 *210:188 5.56579e-05
20 *210:186 8.56465e-05
21 *210:169 2.33224e-05
22 *210:161 7.80371e-05
23 *210:159 8.95105e-05
24 *210:157 7.42702e-05
25 *210:155 7.91495e-05
26 *210:142 2.11822e-05
27 *210:134 9.48348e-05
28 *210:130 9.77034e-05
29 *210:110 4.94393e-05
30 *210:101 7.93588e-05
31 *210:99 4.27715e-05
32 *210:90 1.25975e-05
33 *210:86 6.36992e-05
34 *210:75 8.83361e-05
35 *210:65 3.79585e-05
36 *210:59 4.60185e-05
37 *210:50 3.62853e-05
38 *210:46 5.05028e-05
39 *210:44 4.86006e-05
40 *210:38 3.17727e-05
41 *210:30 0.000108036
42 *210:28 8.78055e-05
43 *210:20 5.46324e-05
44 *210:18 4.92518e-05
45 *210:16 5.67999e-05
46 *210:14 5.67999e-05
47 *210:12 2.60232e-05
48 *210:4 4.51946e-05
49 *560:A2 *217:8 6.8352e-06
50 *560:A2 *302:14 3.65467e-06
51 *564:A2 *219:14 6.19506e-06
52 *594:A2 *595:B 5.09299e-06
53 *594:A2 *245:10 1.95129e-06
54 *610:A2 *349:6 6.44983e-06
55 *622:A2 *264:25 5.08828e-06
56 *622:A2 *352:22 1.27802e-05
57 *210:16 *276:154 6.97416e-06
58 *210:16 *276:158 4.15281e-05
59 *210:16 *279:134 2.31069e-05
60 *210:16 *279:142 7.03708e-06
61 *210:16 *294:10 5.85581e-05
62 *210:16 *294:23 6.94376e-06
63 *210:16 *326:10 1.57186e-05
64 *210:16 *398:28 1.29126e-05
65 *210:16 *402:255 0
66 *210:16 *402:266 0
67 *210:20 *598:C 1.62312e-05
68 *210:28 *598:C 3.46317e-06
69 *210:28 *400:76 1.31716e-05
70 *210:28 *401:127 5.06565e-06
71 *210:30 *213:20 2.19163e-06
72 *210:38 *213:40 3.68925e-06
73 *210:46 *213:44 0.000207767
74 *210:46 *252:6 3.31731e-05
75 *210:46 *252:12 1.86666e-05
76 *210:50 *295:39 1.35961e-06
77 *210:50 *400:37 2.32553e-05
78 *210:59 *607:B 0
79 *210:59 *295:30 2.00541e-05
80 *210:59 *295:39 3.52601e-06
81 *210:59 *400:33 0.000100592
82 *210:59 *400:37 3.25624e-05
83 *210:65 *213:62 1.04475e-06
84 *210:65 *400:31 1.57785e-05
85 *210:75 *611:B 3.73144e-06
86 *210:75 *213:64 0
87 *210:75 *213:83 2.19685e-06
88 *210:75 *349:6 1.02506e-06
89 *210:75 *400:20 1.33022e-05
90 *210:86 *213:83 1.55e-05
91 *210:86 *258:14 2.03762e-05
92 *210:86 *279:71 1.65842e-06
93 *210:86 *279:77 2.18135e-06
94 *210:86 *279:81 7.16897e-05
95 *210:86 *296:10 0
96 *210:86 *296:18 5.19498e-06
97 *210:86 *400:20 0
98 *210:101 *279:71 0.000101867
99 *210:110 *619:A1 7.57697e-06
100 *210:110 *655:B1 3.3563e-06
101 *210:110 *656:B1 1.67815e-06
102 *210:110 *276:74 0
103 *210:110 *276:89 1.32726e-05
104 *210:110 *279:61 7.84026e-05
105 *210:110 *279:71 2.49844e-05
106 *210:110 *279:110 9.29587e-06
107 *210:110 *299:20 4.1643e-05
108 *210:110 *320:12 5.66897e-06
109 *210:110 *392:10 0
110 *210:130 *276:14 9.08513e-06
111 *210:130 *276:233 2.7925e-05
112 *210:142 *225:10 4.17901e-06
113 *210:142 *225:14 1.51587e-05
114 *210:142 *398:8 1.47193e-05
115 *210:142 *403:63 1.45743e-06
116 *210:155 *398:10 1.44082e-05
117 *210:157 *279:234 9.11898e-05
118 *210:161 *567:A 5.09995e-06
119 *210:161 *213:200 0
120 *210:161 *276:284 2.48213e-05
121 *210:161 *398:85 5.25968e-05
122 *210:161 *402:359 2.09673e-05
123 *210:169 *216:24 6.57263e-06
124 *210:169 *279:250 1.89046e-05
125 *210:169 *302:10 4.19247e-06
126 *210:169 *302:20 0
127 *210:186 *276:284 1.05918e-05
128 *210:186 *279:269 1.12298e-05
129 *210:186 *402:359 8.21945e-06
130 *210:186 *402:369 9.22573e-07
131 *210:188 *213:167 0
132 *210:188 *213:232 5.07932e-06
133 *210:188 *276:292 7.82894e-06
134 *210:188 *279:277 1.88258e-05
135 *210:188 *305:20 9.82791e-06
136 *210:188 *397:44 4.45689e-05
137 *210:188 *397:51 2.49763e-05
138 *210:201 *219:14 7.70236e-05
139 *210:201 *340:29 1.47201e-06
140 *210:203 *589:A1 0
141 *210:203 *647:C2 0
142 *210:203 *213:240 0
143 *210:203 *322:8 1.28682e-05
144 *210:203 *401:87 0.000106177
145 *210:203 *401:96 1.85329e-05
146 *210:207 *589:B2 1.35684e-06
147 *210:218 *213:240 0
148 *210:218 *213:251 0
149 *210:218 *245:10 4.33555e-07
150 *210:218 *310:20 0
151 *210:218 *401:96 7.03655e-05
152 *468:A1 *210:30 2.12481e-06
153 *473:C *210:30 3.68565e-06
154 *579:A *210:12 2.19448e-07
155 *607:A2 *210:59 6.40748e-07
156 *635:B *210:130 2.29378e-05
157 *15:14 *210:218 3.84173e-05
158 *18:20 *210:161 3.19287e-05
159 *22:18 *210:20 2.56207e-05
160 *22:30 *210:44 1.54398e-05
161 *34:14 *210:134 2.20706e-05
162 *37:14 *210:188 1.13547e-05
163 *40:38 *210:188 1.30409e-05
164 *64:27 *210:16 0
165 *69:8 *210:38 2.30873e-06
166 *82:10 *210:75 0
167 *133:16 *210:130 6.28016e-06
168 *133:50 *210:12 1.16299e-05
169 *135:14 *210:134 1.01523e-05
170 *137:20 *210:130 3.05118e-08
171 *141:93 *210:12 4.92332e-06
172 *141:100 *210:12 3.57119e-06
173 *141:100 *210:130 1.7743e-05
174 *141:109 *210:130 7.1436e-05
175 *146:102 *210:59 1.92529e-05
176 *146:117 *210:86 0
177 *146:117 *210:101 0
178 *146:117 *210:110 0
179 *146:125 *210:110 7.17027e-06
180 *147:140 *210:155 4.71121e-06
181 *149:85 *210:30 0
182 *149:105 *210:130 6.7203e-06
183 *149:169 *210:203 1.06078e-05
184 *149:212 *210:218 0
*RES
1 *553:Y *210:4 17.2 
2 *210:4 *210:12 47.4342 
3 *210:12 *210:14 17.2 
4 *210:14 *210:16 63.6378 
5 *210:16 *210:18 17.2 
6 *210:18 *210:20 35.2985 
7 *210:20 *210:28 39.975 
8 *210:28 *210:30 34.7636 
9 *210:30 *210:38 43.4694 
10 *210:38 *210:44 39.7501 
11 *210:44 *210:46 63.6442 
12 *210:46 *210:50 25.0843 
13 *210:50 *606:A2 34.4 
14 *210:50 *210:59 43.9269 
15 *210:59 *210:65 47.7706 
16 *210:65 *210:75 49.8569 
17 *210:75 *610:A2 39.2134 
18 *210:75 *210:86 58.5693 
19 *210:86 *210:90 18.2696 
20 *210:90 *615:A2 17.2 
21 *210:90 *210:99 22.5483 
22 *210:99 *210:101 34.3531 
23 *210:101 *619:A2 34.4 
24 *210:101 *210:110 58.5693 
25 *210:110 *622:A2 38.1438 
26 *210:20 *598:A2 17.2 
27 *210:4 *210:130 45.7529 
28 *210:130 *210:134 45.5534 
29 *210:134 *210:142 46.3167 
30 *210:142 *572:B 17.2 
31 *210:142 *210:155 39.4685 
32 *210:155 *210:157 34.7636 
33 *210:157 *210:159 17.2 
34 *210:159 *210:161 59.6956 
35 *210:161 *210:169 45.9714 
36 *210:169 *560:A2 38.6786 
37 *210:159 *210:186 47.4977 
38 *210:186 *210:188 57.1614 
39 *210:188 *210:190 17.2 
40 *210:190 *564:A2 18.8045 
41 *210:190 *210:201 41.2671 
42 *210:201 *210:203 51.2481 
43 *210:203 *210:207 18.8045 
44 *210:207 *589:A2 18.8045 
45 *210:207 *210:216 17.2 
46 *210:216 *210:218 59.6956 
47 *210:218 *594:A2 38.1438 
*END

*D_NET *211 0.000203957
*CONN
*P req_msg[14] I
*I *554:A I *D BUFx2_ASAP7_75t_SL
*CAP
1 req_msg[14] 7.11376e-05
2 *554:A 0
3 *211:13 5.92654e-06
4 *211:5 7.70641e-05
5 *211:5 *277:7 1.78679e-05
6 *211:13 *309:10 9.51745e-07
7 *150:7 *211:5 3.10095e-05
*RES
1 req_msg[14] *211:5 34.6842 
2 *211:5 *211:13 37.6001 
3 *211:13 *554:A 17.2 
*END

*D_NET *212 0.000280823
*CONN
*I *576:B I *D OA211x2_ASAP7_75t_SL
*I *556:C I *D AND3x4_ASAP7_75t_SL
*I *555:Y O *D INVx1_ASAP7_75t_SL
*CAP
1 *576:B 8.40543e-06
2 *556:C 0
3 *555:Y 2.02786e-05
4 *212:29 1.37867e-05
5 *212:23 6.20056e-05
6 *212:10 7.69029e-05
7 *576:B *576:A1 2.28976e-06
8 *576:B *576:A2 5.34278e-06
9 *212:29 *229:8 5.37866e-07
10 *451:A *212:23 5.22376e-07
11 *451:B *576:B 4.00461e-05
12 *451:B *212:23 1.26378e-06
13 *133:10 *212:23 0
14 *133:16 *212:23 0
15 *134:10 *212:29 0
16 *137:14 *212:10 1.84922e-05
17 *137:14 *212:23 5.09299e-06
18 *137:20 *212:10 5.79724e-07
19 *137:20 *212:23 1.09842e-06
20 *141:115 *212:23 0
21 *141:126 *576:B 7.63254e-07
22 *142:8 *212:23 8.23084e-06
23 *142:10 *212:29 0
24 *149:105 *212:10 4.97654e-06
25 *149:105 *212:23 1.02072e-05
*RES
1 *555:Y *212:10 49.4601 
2 *212:10 *556:C 34.4 
3 *212:10 *212:23 46.2789 
4 *212:23 *212:29 38.3422 
5 *212:29 *576:B 30.0358 
*END

*D_NET *213 0.00557028
*CONN
*I *584:B I *D NAND2x1_ASAP7_75t_SL
*I *632:B2 I *D AO221x2_ASAP7_75t_SL
*I *627:B2 I *D AO221x2_ASAP7_75t_SL
*I *564:B1 I *D AO221x1_ASAP7_75t_SL
*I *595:A2 I *D AO21x2_ASAP7_75t_SL
*I *590:A2 I *D AO21x2_ASAP7_75t_SL
*I *566:B I *D NAND2x1_ASAP7_75t_SL
*I *560:B1 I *D AO221x1_ASAP7_75t_SL
*I *569:A I *D OR3x1_ASAP7_75t_SL
*I *602:B2 I *D AO221x2_ASAP7_75t_SL
*I *598:B1 I *D AO221x2_ASAP7_75t_SL
*I *606:B1 I *D AO221x2_ASAP7_75t_SL
*I *622:B1 I *D AO221x2_ASAP7_75t_SL
*I *619:B1 I *D AO221x2_ASAP7_75t_SL
*I *615:B1 I *D AO221x2_ASAP7_75t_SL
*I *610:B1 I *D AO221x2_ASAP7_75t_SL
*I *556:Y O *D AND3x4_ASAP7_75t_SL
*CAP
1 *584:B 0
2 *632:B2 5.04049e-06
3 *627:B2 0
4 *564:B1 1.00674e-05
5 *595:A2 3.24144e-06
6 *590:A2 2.60037e-06
7 *566:B 4.58587e-06
8 *560:B1 1.7939e-06
9 *569:A 6.43599e-06
10 *602:B2 0
11 *598:B1 1.57273e-06
12 *606:B1 1.77876e-06
13 *622:B1 3.38542e-06
14 *619:B1 4.07623e-06
15 *615:B1 1.63131e-06
16 *610:B1 2.42653e-06
17 *556:Y 0
18 *213:325 5.00185e-05
19 *213:323 5.90438e-05
20 *213:308 1.80646e-05
21 *213:302 6.78461e-05
22 *213:300 6.38473e-05
23 *213:293 1.23849e-05
24 *213:285 0.000143557
25 *213:283 0.000136598
26 *213:275 8.91294e-05
27 *213:273 8.37035e-05
28 *213:271 8.39745e-05
29 *213:251 4.54797e-05
30 *213:240 0.00011848
31 *213:238 7.36415e-05
32 *213:236 2.69025e-05
33 *213:232 5.24779e-05
34 *213:208 4.48559e-05
35 *213:200 9.70503e-05
36 *213:198 6.616e-05
37 *213:187 2.7369e-05
38 *213:181 2.52702e-05
39 *213:175 2.98224e-05
40 *213:167 6.66494e-05
41 *213:165 4.87499e-05
42 *213:163 5.10566e-05
43 *213:157 3.68625e-05
44 *213:153 0.000181102
45 *213:151 0.000179788
46 *213:149 0.000144595
47 *213:142 4.70605e-05
48 *213:113 5.79442e-05
49 *213:102 8.61194e-05
50 *213:91 4.25665e-05
51 *213:83 6.61289e-05
52 *213:72 2.95066e-05
53 *213:64 8.66062e-05
54 *213:62 2.75094e-05
55 *213:56 6.94908e-05
56 *213:54 5.66227e-05
57 *213:50 2.12157e-05
58 *213:44 0.000105976
59 *213:42 9.43326e-05
60 *213:40 5.99524e-05
61 *213:34 6.46742e-05
62 *213:26 2.1496e-05
63 *213:22 6.22621e-05
64 *213:20 5.83496e-05
65 *213:18 6.59876e-05
66 *213:12 5.69038e-05
67 *213:8 0.000124273
68 *213:6 0.000135628
69 *560:B1 *217:8 1.44639e-06
70 *564:B1 *220:6 1.18174e-06
71 *566:B *221:10 1.36155e-06
72 *569:A *569:B 5.22376e-07
73 *569:A *569:C 2.20493e-06
74 *595:A2 *310:26 5.51397e-07
75 *598:B1 *303:36 5.9771e-06
76 *598:B1 *346:25 8.13589e-06
77 *606:B1 *606:C 5.62196e-06
78 *610:B1 *610:C 5.62196e-06
79 *615:B1 *260:18 1.44167e-06
80 *619:B1 *617:B 1.66584e-05
81 *619:B1 *351:34 6.45454e-06
82 *632:B2 *632:C 5.41446e-06
83 *213:8 *276:233 1.45158e-05
84 *213:8 *398:59 2.83874e-07
85 *213:12 *398:22 0
86 *213:12 *398:28 0
87 *213:18 *279:150 3.73908e-06
88 *213:18 *398:39 0
89 *213:26 *347:10 0
90 *213:34 *303:36 5.62196e-06
91 *213:34 *346:25 5.85387e-06
92 *213:44 *252:12 1.07377e-06
93 *213:50 *252:12 0
94 *213:50 *400:37 0
95 *213:54 *606:C 5.41446e-06
96 *213:56 *253:10 5.52264e-06
97 *213:56 *400:33 0
98 *213:56 *400:37 0
99 *213:56 *401:153 7.03708e-06
100 *213:56 *401:217 2.36328e-05
101 *213:56 *402:90 0
102 *213:62 *401:157 8.146e-06
103 *213:64 *402:99 1.84022e-05
104 *213:72 *401:157 6.29754e-06
105 *213:83 *258:14 2.20128e-06
106 *213:83 *276:43 3.27212e-05
107 *213:83 *276:62 5.52807e-07
108 *213:83 *279:81 3.14548e-05
109 *213:83 *297:37 2.22736e-06
110 *213:83 *402:99 4.37858e-05
111 *213:91 *260:18 3.06629e-06
112 *213:91 *276:62 6.91266e-06
113 *213:102 *258:14 2.45021e-07
114 *213:102 *260:18 5.63702e-07
115 *213:102 *276:62 1.86346e-05
116 *213:102 *276:74 1.13547e-05
117 *213:102 *279:71 0
118 *213:102 *350:27 1.9619e-05
119 *213:102 *402:148 4.00499e-05
120 *213:102 *402:167 1.64046e-05
121 *213:113 *265:8 1.31643e-05
122 *213:113 *276:74 1.57871e-05
123 *213:113 *276:89 0
124 *213:113 *332:8 1.36943e-05
125 *213:113 *351:38 5.19498e-06
126 *213:113 *352:26 1.09842e-06
127 *213:113 *375:9 0
128 *213:113 *392:10 2.45028e-06
129 *213:113 *402:167 2.4723e-05
130 *213:113 *402:182 6.30954e-05
131 *213:113 *402:186 9.39763e-06
132 *213:142 *602:B1 4.2449e-06
133 *213:142 *400:76 0
134 *213:153 *286:14 0
135 *213:153 *397:36 0
136 *213:153 *403:51 0
137 *213:153 *403:83 1.24672e-08
138 *213:157 *220:12 3.55626e-07
139 *213:157 *402:391 3.05118e-08
140 *213:163 *641:A1 2.52755e-07
141 *213:163 *220:12 1.95409e-06
142 *213:163 *305:20 3.91501e-06
143 *213:163 *402:391 1.02842e-06
144 *213:167 *276:292 0.000128473
145 *213:167 *276:301 1.24523e-05
146 *213:167 *287:50 1.62424e-05
147 *213:167 *341:10 3.23664e-05
148 *213:167 *402:361 9.55553e-07
149 *213:167 *402:380 6.96246e-06
150 *213:175 *569:C 0
151 *213:175 *279:275 5.25278e-06
152 *213:175 *307:6 2.27303e-05
153 *213:175 *323:12 0
154 *213:175 *401:49 0
155 *213:181 *323:6 6.29754e-06
156 *213:187 *569:C 5.08098e-06
157 *213:187 *222:8 1.30409e-05
158 *213:187 *224:8 6.33206e-07
159 *213:187 *341:18 2.83874e-07
160 *213:198 *221:10 8.46363e-06
161 *213:198 *224:8 2.77657e-06
162 *213:198 *341:18 1.12894e-06
163 *213:200 *216:18 1.67815e-06
164 *213:200 *221:10 2.37635e-05
165 *213:200 *279:250 0
166 *213:208 *560:B2 1.70708e-06
167 *213:208 *276:257 2.03413e-06
168 *213:208 *279:250 1.26565e-05
169 *213:232 *276:301 1.59893e-05
170 *213:232 *305:20 4.59343e-06
171 *213:232 *397:51 1.60763e-06
172 *213:236 *340:25 1.65766e-05
173 *213:240 *589:A1 8.20229e-06
174 *213:240 *647:C2 3.03529e-05
175 *213:240 *279:292 0
176 *213:240 *279:301 0
177 *213:240 *309:16 1.12894e-06
178 *213:240 *322:8 0
179 *213:240 *344:10 6.33206e-07
180 *213:251 *279:301 0
181 *213:251 *310:20 1.73917e-06
182 *213:251 *344:10 1.42562e-06
183 *213:251 *344:21 2.95766e-05
184 *213:251 *345:12 1.98367e-05
185 *213:275 *279:22 2.79851e-06
186 *213:283 *279:22 2.28976e-06
187 *213:285 *353:28 5.26122e-05
188 *213:285 *401:259 3.65131e-06
189 *213:285 *401:277 2.28884e-06
190 *213:293 *353:34 2.36401e-05
191 *213:293 *402:218 1.57656e-05
192 *213:302 *632:A1 5.52807e-07
193 *213:302 *668:A 0
194 *213:302 *273:10 1.64764e-06
195 *213:302 *354:10 6.34089e-05
196 *213:302 *354:23 0
197 *213:308 *632:C 9.30483e-06
198 *213:323 *354:23 1.64348e-06
199 *213:325 *584:A 2.96818e-06
200 *213:325 *232:64 2.56835e-05
201 *213:325 *343:23 6.78917e-06
202 *453:A1 *213:8 3.73271e-05
203 *517:A *213:275 0
204 *668:B *213:302 4.2035e-05
205 *5:12 *213:200 8.361e-06
206 *15:14 *213:240 0
207 *15:14 *213:251 0
208 *18:10 *213:200 0
209 *18:20 *213:198 1.34466e-06
210 *18:20 *213:200 2.98814e-06
211 *20:37 *213:72 5.52807e-07
212 *20:37 *213:83 1.10561e-06
213 *20:125 *213:8 3.93602e-06
214 *20:125 *213:149 6.62106e-06
215 *22:30 *213:44 1.09492e-05
216 *24:6 *213:26 0
217 *24:6 *213:142 0
218 *28:18 *213:240 7.87863e-06
219 *43:50 *213:302 9.8079e-06
220 *44:10 *213:302 1.38218e-05
221 *45:18 *213:302 0
222 *74:14 *213:200 0
223 *77:8 *590:A2 2.12481e-06
224 *93:8 *213:240 9.81516e-06
225 *118:65 *213:285 2.55671e-05
226 *121:23 *213:302 9.81516e-06
227 *124:19 *213:271 4.27283e-06
228 *125:41 *213:271 5.27966e-06
229 *126:10 *213:271 5.3441e-06
230 *126:16 *213:271 5.48821e-07
231 *133:20 *213:8 1.31716e-05
232 *133:22 *213:8 1.49079e-05
233 *144:10 *213:8 0
234 *149:10 *213:72 5.52652e-06
235 *149:23 *213:72 6.33206e-07
236 *149:29 *213:113 3.32579e-06
237 *149:85 *213:20 0.000172124
238 *149:93 *213:8 0
239 *149:97 *213:8 0
240 *149:105 *213:8 2.9732e-06
241 *149:105 *213:149 1.04472e-05
242 *149:105 *213:271 1.53239e-05
243 *159:68 *213:275 3.16328e-06
244 *173:10 *213:283 1.33022e-05
245 *173:10 *213:302 2.3606e-05
246 *177:8 *213:302 5.97901e-06
247 *177:23 *213:302 1.50858e-05
248 *183:16 *213:275 0
249 *210:30 *213:20 2.19163e-06
250 *210:38 *213:40 3.68925e-06
251 *210:46 *213:44 0.000207767
252 *210:65 *213:62 1.04475e-06
253 *210:75 *213:64 0
254 *210:75 *213:83 2.19685e-06
255 *210:86 *213:83 1.55e-05
256 *210:161 *213:200 0
257 *210:188 *213:167 0
258 *210:188 *213:232 5.07932e-06
259 *210:203 *213:240 0
260 *210:218 *213:240 0
261 *210:218 *213:251 0
*RES
1 *556:Y *213:6 34.4 
2 *213:6 *213:8 65.3273 
3 *213:8 *213:12 39.1278 
4 *213:12 *213:18 38.9053 
5 *213:18 *213:20 50.8084 
6 *213:20 *213:22 17.2 
7 *213:22 *213:26 27.337 
8 *213:26 *213:34 37.7878 
9 *213:34 *213:40 36.4707 
10 *213:40 *213:42 17.2 
11 *213:42 *213:44 79.6889 
12 *213:44 *213:50 42.2843 
13 *213:50 *213:54 22.0134 
14 *213:54 *213:56 41.6743 
15 *213:56 *213:62 44.5617 
16 *213:62 *213:64 6.19483 
17 *213:64 *213:72 47.9974 
18 *213:72 *610:B1 36.0045 
19 *213:64 *213:83 59.6956 
20 *213:83 *213:91 42.7058 
21 *213:91 *615:B1 35.4697 
22 *213:91 *213:102 34.3531 
23 *213:102 *619:B1 39.2134 
24 *213:102 *213:113 58.5693 
25 *213:113 *622:B1 36.0045 
26 *213:50 *606:B1 18.8045 
27 *213:26 *598:B1 19.3393 
28 *213:22 *213:142 43.6935 
29 *213:142 *602:B2 17.2 
30 *213:6 *213:149 47.2121 
31 *213:149 *213:151 17.2 
32 *213:151 *213:153 59.5205 
33 *213:153 *213:157 18.2325 
34 *213:157 *213:163 28.6581 
35 *213:163 *213:165 17.2 
36 *213:165 *213:167 55.7534 
37 *213:167 *213:175 49.237 
38 *213:175 *213:181 42.4224 
39 *213:181 *213:187 28.9415 
40 *213:187 *569:A 20.9438 
41 *213:187 *213:198 25.0843 
42 *213:198 *213:200 42.8945 
43 *213:200 *213:208 47.8269 
44 *213:208 *560:B1 35.4697 
45 *213:198 *566:B 36.5393 
46 *213:163 *213:232 35.0229 
47 *213:232 *213:236 33.7796 
48 *213:236 *213:238 17.2 
49 *213:238 *213:240 60.8219 
50 *213:240 *590:A2 36.0045 
51 *213:240 *213:251 41.6743 
52 *213:251 *595:A2 36.0045 
53 *213:157 *564:B1 39.2134 
54 *213:149 *213:271 63.7316 
55 *213:271 *213:273 17.2 
56 *213:273 *213:275 37.9726 
57 *213:275 *213:283 40.5098 
58 *213:283 *213:285 83.9675 
59 *213:285 *213:293 47.8593 
60 *213:293 *627:B2 17.2 
61 *213:275 *213:300 17.2 
62 *213:300 *213:302 75.4642 
63 *213:302 *213:308 37.0741 
64 *213:308 *632:B2 38.8203 
65 *213:308 *213:323 23.958 
66 *213:323 *213:325 36.3681 
67 *213:325 *584:B 17.2 
*END

*D_NET *214 0.000137673
*CONN
*P req_msg[13] I
*I *557:A I *D BUFx2_ASAP7_75t_SL
*CAP
1 req_msg[13] 1.99914e-05
2 *557:A 2.66197e-05
3 *214:11 4.66112e-05
4 *557:A *308:6 9.9223e-06
5 *557:A *362:13 0
6 *557:A *381:6 0
7 *214:11 *277:7 3.1739e-05
8 *214:11 *383:18 0
9 *150:9 *214:11 2.78959e-06
*RES
1 req_msg[13] *214:11 47.3907 
2 *214:11 *557:A 39.1278 
*END

*D_NET *215 0.000294661
*CONN
*P req_msg[12] I
*I *558:A I *D BUFx2_ASAP7_75t_SL
*CAP
1 req_msg[12] 1.30302e-05
2 *558:A 0
3 *215:13 8.08492e-05
4 *215:11 0.000109448
5 *215:7 4.16289e-05
6 *215:7 resp_msg[11] 1.74199e-05
7 *215:7 *275:9 1.74199e-05
8 *215:13 *306:12 1.06856e-05
9 *215:13 *307:6 4.17901e-06
10 *215:13 *363:13 0
*RES
1 req_msg[12] *215:7 29.1582 
2 *215:7 *215:11 42.0732 
3 *215:11 *215:13 55.6218 
4 *215:13 *558:A 17.2 
*END

*D_NET *216 0.000308517
*CONN
*I *560:C I *D AO221x1_ASAP7_75t_SL
*I *559:Y O *D AO21x1_ASAP7_75t_SL
*CAP
1 *560:C 1.66555e-06
2 *559:Y 5.42126e-06
3 *216:24 3.83961e-05
4 *216:18 4.09248e-05
5 *216:12 5.31234e-05
6 *216:8 5.43505e-05
7 *560:C *217:8 1.82733e-06
8 *216:24 *560:B2 8.52381e-06
9 *216:24 *276:257 3.875e-06
10 *216:24 *302:10 9.34096e-06
11 *216:24 *302:20 1.86407e-06
12 *5:12 *216:18 4.83862e-06
13 *5:14 *216:24 7.6115e-05
14 *210:169 *216:24 6.57263e-06
15 *213:200 *216:18 1.67815e-06
*RES
1 *559:Y *216:8 37.779 
2 *216:8 *216:12 38.0582 
3 *216:12 *216:18 38.3422 
4 *216:18 *216:24 48.1385 
5 *216:24 *560:C 35.4697 
*END

*D_NET *217 0.000132633
*CONN
*I *561:B I *D OA21x2_ASAP7_75t_SL
*I *560:Y O *D AO221x1_ASAP7_75t_SL
*CAP
1 *561:B 0
2 *560:Y 3.54315e-05
3 *217:18 1.77724e-05
4 *217:8 5.32039e-05
5 *217:8 *302:14 2.86376e-07
6 *217:18 *276:257 1.50458e-05
7 *560:A2 *217:8 6.8352e-06
8 *560:B1 *217:8 1.44639e-06
9 *560:C *217:8 1.82733e-06
10 *72:8 *217:18 7.84037e-07
11 *146:18 *217:18 0
*RES
1 *560:Y *217:8 48.8403 
2 *217:8 *217:18 48.1674 
3 *217:18 *561:B 34.4 
*END

*D_NET *218 0.00012873
*CONN
*I *564:A1 I *D AO221x1_ASAP7_75t_SL
*I *641:C2 I *D OA222x2_ASAP7_75t_SL
*I *562:Y O *D INVx1_ASAP7_75t_SL
*CAP
1 *564:A1 1.34624e-05
2 *641:C2 0
3 *562:Y 5.51695e-06
4 *218:8 1.89793e-05
5 *564:A1 *219:14 2.03648e-05
6 *564:A1 *220:6 8.0894e-06
7 *564:A1 *279:292 0
8 *564:A1 *397:51 2.0794e-05
9 *218:8 *279:277 1.6865e-05
10 *218:8 *397:44 1.33043e-05
11 *218:8 *397:51 1.13541e-05
*RES
1 *562:Y *218:8 42.2843 
2 *218:8 *641:C2 34.4 
3 *218:8 *564:A1 47.6326 
*END

*D_NET *219 0.000227388
*CONN
*I *564:C I *D AO221x1_ASAP7_75t_SL
*I *563:Y O *D AO21x1_ASAP7_75t_SL
*CAP
1 *564:C 0
2 *563:Y 1.80992e-05
3 *219:14 2.59649e-05
4 *219:10 4.40641e-05
5 *219:10 *563:A2 5.96787e-07
6 *219:10 *401:70 7.93359e-06
7 *219:14 *220:6 3.77902e-06
8 *219:14 *340:29 1.12047e-05
9 *564:A1 *219:14 2.03648e-05
10 *564:A2 *219:14 6.19506e-06
11 *149:169 *219:10 7.56423e-06
12 *149:180 *219:10 4.59815e-06
13 *210:201 *219:14 7.70236e-05
*RES
1 *563:Y *219:10 46.5062 
2 *219:10 *219:14 41.2671 
3 *219:14 *564:C 17.2 
*END

*D_NET *220 0.000249249
*CONN
*I *565:B I *D OA21x2_ASAP7_75t_SL
*I *564:Y O *D AO221x1_ASAP7_75t_SL
*CAP
1 *565:B 3.75851e-05
2 *564:Y 5.70236e-05
3 *220:12 5.59873e-05
4 *220:6 7.54258e-05
5 *565:B *287:24 6.7842e-07
6 *565:B *409:14 6.49184e-07
7 *220:6 *340:14 1.36155e-06
8 *220:12 *402:391 0
9 *564:A1 *220:6 8.0894e-06
10 *564:B1 *220:6 1.18174e-06
11 *39:10 *220:12 0
12 *73:10 *565:B 5.17782e-06
13 *213:157 *220:12 3.55626e-07
14 *213:163 *220:12 1.95409e-06
15 *219:14 *220:6 3.77902e-06
*RES
1 *564:Y *220:6 38.0582 
2 *220:6 *220:12 46.7897 
3 *220:12 *565:B 36.9885 
*END

*D_NET *221 6.87441e-05
*CONN
*I *570:B1 I *D AOI22x1_ASAP7_75t_SL
*I *566:Y O *D NAND2x1_ASAP7_75t_SL
*CAP
1 *570:B1 0
2 *566:Y 1.1556e-05
3 *221:10 1.1556e-05
4 *221:10 *224:8 1.15055e-05
5 *566:B *221:10 1.36155e-06
6 *74:14 *221:10 5.37866e-07
7 *213:198 *221:10 8.46363e-06
8 *213:200 *221:10 2.37635e-05
*RES
1 *566:Y *221:10 47.2111 
2 *221:10 *570:B1 34.4 
*END

*D_NET *222 4.42794e-05
*CONN
*I *569:B I *D OR3x1_ASAP7_75t_SL
*I *567:Y O *D NOR2x1_ASAP7_75t_SL
*CAP
1 *569:B 3.40462e-06
2 *567:Y 2.622e-06
3 *222:8 6.02662e-06
4 *569:B *569:C 5.62196e-06
5 *222:8 *569:C 1.30409e-05
6 *569:A *569:B 5.22376e-07
7 *213:187 *222:8 1.30409e-05
*RES
1 *567:Y *222:8 38.9053 
2 *222:8 *569:B 36.5393 
*END

*D_NET *223 0.000170511
*CONN
*I *569:C I *D OR3x1_ASAP7_75t_SL
*I *568:Y O *D AND3x1_ASAP7_75t_SL
*CAP
1 *569:C 7.60147e-06
2 *568:Y 1.79332e-05
3 *223:8 2.55347e-05
4 *569:C *323:12 8.58704e-06
5 *569:C *341:18 8.02946e-06
6 *223:8 *288:8 3.94194e-05
7 *223:8 *307:14 2.80323e-06
8 *223:8 *323:6 2.03526e-06
9 *223:8 *402:340 1.04899e-05
10 *549:A *223:8 2.21283e-05
11 *569:A *569:C 2.20493e-06
12 *569:B *569:C 5.62196e-06
13 *213:175 *569:C 0
14 *213:187 *569:C 5.08098e-06
15 *222:8 *569:C 1.30409e-05
*RES
1 *568:Y *223:8 49.9099 
2 *223:8 *569:C 45.0151 
*END

*D_NET *224 4.63512e-05
*CONN
*I *570:B2 I *D AOI22x1_ASAP7_75t_SL
*I *569:Y O *D OR3x1_ASAP7_75t_SL
*CAP
1 *570:B2 0
2 *569:Y 1.45419e-05
3 *224:8 1.45419e-05
4 *74:14 *224:8 2.35211e-06
5 *213:187 *224:8 6.33206e-07
6 *213:198 *224:8 2.77657e-06
7 *221:10 *224:8 1.15055e-05
*RES
1 *569:Y *224:8 48.4791 
2 *224:8 *570:B2 34.4 
*END

*D_NET *225 0.000165449
*CONN
*I *644:C2 I *D OA222x2_ASAP7_75t_SL
*I *572:A I *D AND2x2_ASAP7_75t_SL
*I *571:Y O *D INVx1_ASAP7_75t_SL
*CAP
1 *644:C2 0
2 *572:A 0
3 *571:Y 1.46785e-05
4 *225:29 1.12615e-05
5 *225:14 2.36797e-05
6 *225:10 2.70966e-05
7 *225:10 *276:235 2.66207e-05
8 *225:10 *289:16 8.18407e-06
9 *225:14 *279:234 2.71839e-06
10 *225:14 *398:8 6.7842e-07
11 *225:29 *279:230 1.63901e-05
12 *225:29 *307:14 3.89037e-06
13 *225:29 *398:10 2.42073e-06
14 *146:18 *225:29 1.49407e-08
15 *147:140 *225:10 7.97185e-06
16 *147:157 *225:29 5.0551e-07
17 *210:142 *225:10 4.17901e-06
18 *210:142 *225:14 1.51587e-05
*RES
1 *571:Y *225:10 48.4472 
2 *225:10 *225:14 24.6875 
3 *225:14 *572:A 17.2 
4 *225:14 *225:29 43.354 
5 *225:29 *644:C2 17.2 
*END

*D_NET *226 4.79914e-05
*CONN
*I *578:B1 I *D OA33x2_ASAP7_75t_SL
*I *572:Y O *D AND2x2_ASAP7_75t_SL
*CAP
1 *578:B1 5.31554e-06
2 *572:Y 7.09897e-06
3 *226:8 1.24145e-05
4 *226:8 *398:119 0
5 *135:6 *578:B1 6.6195e-06
6 *135:14 *226:8 1.49407e-08
7 *146:18 *226:8 1.6528e-05
*RES
1 *572:Y *226:8 40.0317 
2 *226:8 *578:B1 39.2134 
*END

*D_NET *227 1.96437e-05
*CONN
*I *576:A1 I *D OA211x2_ASAP7_75t_SL
*I *573:Y O *D AND2x2_ASAP7_75t_SL
*CAP
1 *576:A1 2.18866e-06
2 *573:Y 6.48829e-06
3 *227:8 8.67695e-06
4 *227:8 *229:8 0
5 *576:B *576:A1 2.28976e-06
6 *34:33 *227:8 0
*RES
1 *573:Y *227:8 38.9053 
2 *227:8 *576:A1 36.0045 
*END

*D_NET *228 2.55161e-05
*CONN
*I *575:B I *D NOR3x1_ASAP7_75t_SL
*I *574:Y O *D INVx1_ASAP7_75t_SL
*CAP
1 *575:B 4.84254e-06
2 *574:Y 7.91552e-06
3 *228:8 1.27581e-05
4 *35:10 *228:8 0
5 *38:10 *228:8 0
6 *187:10 *228:8 0
7 *187:16 *228:8 0
*RES
1 *574:Y *228:8 40.0317 
2 *228:8 *575:B 37.0741 
*END

*D_NET *229 5.00292e-05
*CONN
*I *576:A2 I *D OA211x2_ASAP7_75t_SL
*I *575:Y O *D NOR3x1_ASAP7_75t_SL
*CAP
1 *576:A2 4.43728e-06
2 *575:Y 1.65233e-05
3 *229:8 2.09606e-05
4 *576:B *576:A2 5.34278e-06
5 *36:24 *229:8 2.22736e-06
6 *187:16 *229:8 0
7 *212:29 *229:8 5.37866e-07
8 *227:8 *229:8 0
*RES
1 *575:Y *229:8 47.3528 
2 *229:8 *576:A2 38.1438 
*END

*D_NET *230 0.000100498
*CONN
*I *578:B2 I *D OA33x2_ASAP7_75t_SL
*I *576:Y O *D OA211x2_ASAP7_75t_SL
*CAP
1 *578:B2 5.06402e-06
2 *576:Y 2.99213e-05
3 *230:8 3.49853e-05
4 *578:B2 *231:12 8.66568e-06
5 *578:B2 *398:119 1.50848e-05
6 *230:8 *578:A1 2.52755e-07
7 *578:A3 *230:8 2.52755e-07
8 *75:8 *230:8 3.65131e-06
9 *147:140 *578:B2 2.62011e-06
*RES
1 *576:Y *230:8 47.7706 
2 *230:8 *578:B2 40.5381 
*END

*D_NET *231 0.000417161
*CONN
*I *578:B3 I *D OA33x2_ASAP7_75t_SL
*I *577:Y O *D AO21x1_ASAP7_75t_SL
*CAP
1 *578:B3 0
2 *577:Y 0
3 *231:12 9.91344e-06
4 *231:6 0.000180502
5 *231:4 0.000170588
6 *231:6 *699:CLK 0
7 *231:6 *324:12 1.60115e-05
8 *231:12 *665:A 5.52264e-06
9 *231:12 *398:119 5.19498e-06
10 *578:B2 *231:12 8.66568e-06
11 *36:10 *231:6 6.7842e-07
12 *36:10 *231:12 8.33296e-06
13 *37:8 *231:6 0
14 *37:26 *231:6 3.21669e-06
15 *146:18 *231:12 0
16 *147:140 *231:12 8.53501e-06
*RES
1 *577:Y *231:4 17.2 
2 *231:4 *231:6 70.5969 
3 *231:6 *231:12 46.7897 
4 *231:12 *578:B3 17.2 
*END

*D_NET *232 0.00176604
*CONN
*I *629:B I *D NOR2x1_ASAP7_75t_SL
*I *583:A2 I *D OA21x2_ASAP7_75t_SL
*I *624:B I *D NOR2x1_ASAP7_75t_SL
*I *599:B I *D NOR2x1_ASAP7_75t_SL
*I *579:Y O *D OR2x4_ASAP7_75t_SL
*CAP
1 *629:B 0
2 *583:A2 6.97798e-06
3 *624:B 0
4 *599:B 0
5 *579:Y 4.32246e-05
6 *232:70 2.52202e-05
7 *232:64 0.000155857
8 *232:62 0.000150469
9 *232:56 1.64969e-05
10 *232:52 7.18678e-05
11 *232:50 6.82252e-05
12 *232:43 3.14306e-05
13 *232:39 9.34603e-05
14 *232:33 8.90848e-05
15 *232:29 9.29649e-05
16 *232:27 7.27002e-05
17 *232:21 7.79692e-05
18 *232:14 3.75696e-05
19 *232:8 0.000108748
20 *232:6 4.32246e-05
21 *232:14 *276:22 6.09087e-06
22 *232:14 *402:266 0
23 *232:21 *279:8 0
24 *232:27 *433:A 8.20846e-06
25 *232:29 *408:10 1.34329e-05
26 *232:29 *409:41 9.93746e-06
27 *232:29 *409:52 8.51183e-06
28 *232:39 *268:6 6.63708e-05
29 *232:39 *269:8 3.16603e-06
30 *232:39 *401:271 6.33206e-07
31 *232:43 *268:6 1.56713e-06
32 *232:43 *269:12 2.91071e-05
33 *232:52 *631:B 0
34 *232:52 *271:8 1.67815e-06
35 *232:52 *274:18 3.35786e-05
36 *232:52 *301:29 3.47607e-06
37 *232:52 *352:12 0
38 *232:52 *401:299 0
39 *232:64 *584:A 7.14604e-06
40 *232:64 *343:23 1.96943e-05
41 *232:70 *236:14 0
42 *232:70 *237:8 0
43 *232:70 *343:10 0
44 *555:A *232:6 2.12062e-05
45 *585:A1 *583:A2 1.96943e-05
46 *625:B *232:39 3.13426e-06
47 *16:18 *583:A2 6.7842e-07
48 *39:42 *232:21 1.12894e-06
49 *43:29 *232:52 4.42421e-06
50 *45:18 *232:29 0.00010771
51 *45:28 *232:29 1.14208e-05
52 *45:30 *232:29 5.37866e-07
53 *45:36 *232:27 6.7842e-07
54 *45:36 *232:29 2.41275e-06
55 *45:78 *232:29 3.33101e-05
56 *64:31 *232:14 1.60283e-05
57 *87:8 *232:52 0
58 *121:8 *232:21 3.94592e-06
59 *122:8 *232:21 0
60 *137:14 *232:6 1.47702e-05
61 *141:50 *232:39 0
62 *141:93 *232:14 2.50197e-06
63 *141:150 *232:14 1.12894e-06
64 *141:150 *232:21 1.04961e-05
65 *146:140 *232:52 0
66 *147:60 *232:33 7.86466e-06
67 *147:60 *232:39 2.6409e-06
68 *147:62 *232:29 4.74248e-06
69 *173:10 *232:21 3.56253e-05
70 *174:33 *232:29 1.5628e-05
71 *181:8 *232:29 0
72 *209:12 *232:6 1.32074e-05
73 *209:26 *232:6 7.35354e-06
74 *213:325 *232:64 2.56835e-05
*RES
1 *579:Y *232:6 39.1278 
2 *232:6 *232:8 17.2 
3 *232:8 *232:14 47.0158 
4 *232:14 *599:B 17.2 
5 *232:8 *232:21 57.4429 
6 *232:21 *232:27 39.2134 
7 *232:27 *232:29 70.3958 
8 *232:29 *232:33 29.501 
9 *232:33 *232:39 47.4053 
10 *232:39 *232:43 40.1975 
11 *232:43 *624:B 17.2 
12 *232:33 *232:50 17.2 
13 *232:50 *232:52 58.5693 
14 *232:52 *232:56 18.8045 
15 *232:56 *232:62 44.537 
16 *232:62 *232:64 64.7138 
17 *232:64 *232:70 46.7897 
18 *232:70 *583:A2 23.0831 
19 *232:56 *629:B 17.2 
*END

*D_NET *233 0.000440575
*CONN
*I *582:A2 I *D AO21x1_ASAP7_75t_SL
*I *580:Y O *D INVx1_ASAP7_75t_SL
*CAP
1 *582:A2 0
2 *580:Y 1.70524e-05
3 *233:20 1.19352e-05
4 *233:12 0.000201896
5 *233:10 0.000189961
6 *233:8 1.70524e-05
7 *233:20 *235:10 2.67761e-06
*RES
1 *580:Y *233:8 46.2265 
2 *233:8 *233:10 17.2 
3 *233:10 *233:12 88.2461 
4 *233:12 *233:20 41.6361 
5 *233:20 *582:A2 17.2 
*END

*D_NET *234 5.21022e-05
*CONN
*I *582:B I *D AO21x1_ASAP7_75t_SL
*I *581:Y O *D OA211x2_ASAP7_75t_SL
*CAP
1 *582:B 3.34582e-06
2 *581:Y 2.19217e-05
3 *234:8 2.52676e-05
4 *582:B *235:10 1.56713e-06
5 *234:8 *401:317 0
6 *234:8 *402:418 0
7 *581:B *234:8 0
8 *31:10 *234:8 0
*RES
1 *581:Y *234:8 48.4791 
2 *234:8 *582:B 36.5393 
*END

*D_NET *235 0.000210612
*CONN
*I *583:B I *D OA21x2_ASAP7_75t_SL
*I *582:Y O *D AO21x1_ASAP7_75t_SL
*CAP
1 *583:B 0
2 *582:Y 2.81233e-05
3 *235:14 6.00771e-05
4 *235:12 6.00771e-05
5 *235:10 2.81233e-05
6 *235:14 *290:8 9.40277e-06
7 *547:A *235:14 2.66992e-06
8 *582:B *235:10 1.56713e-06
9 *583:A1 *235:14 1.5804e-05
10 *16:18 *235:14 2.0895e-06
11 *233:20 *235:10 2.67761e-06
*RES
1 *582:Y *235:10 47.3775 
2 *235:10 *235:12 17.2 
3 *235:12 *235:14 41.1815 
4 *235:14 *583:B 17.2 
*END

*D_NET *236 0.000136325
*CONN
*I *585:B1 I *D AOI22x1_ASAP7_75t_SL
*I *583:Y O *D OA21x2_ASAP7_75t_SL
*CAP
1 *585:B1 0
2 *583:Y 3.65928e-05
3 *236:14 8.00304e-06
4 *236:6 4.45959e-05
5 *236:14 *585:B2 7.63254e-07
6 *236:14 *237:8 2.05883e-06
7 *236:14 *343:10 2.19685e-06
8 *583:A1 *236:6 3.31198e-05
9 *585:A1 *236:6 8.99409e-06
10 *232:70 *236:14 0
*RES
1 *583:Y *236:6 36.9885 
2 *236:6 *236:14 41.0163 
3 *236:14 *585:B1 17.2 
*END

*D_NET *237 3.43072e-05
*CONN
*I *585:B2 I *D AOI22x1_ASAP7_75t_SL
*I *584:Y O *D NAND2x1_ASAP7_75t_SL
*CAP
1 *585:B2 5.25644e-06
2 *584:Y 3.76603e-06
3 *237:8 9.02247e-06
4 *237:8 *343:10 1.34402e-05
5 *232:70 *237:8 0
6 *236:14 *585:B2 7.63254e-07
7 *236:14 *237:8 2.05883e-06
*RES
1 *584:Y *237:8 38.9053 
2 *237:8 *585:B2 37.0741 
*END

*D_NET *238 0.000104423
*CONN
*I *589:A1 I *D AO22x1_ASAP7_75t_SL
*I *647:C2 I *D OA222x2_ASAP7_75t_SL
*I *586:Y O *D INVx1_ASAP7_75t_SL
*CAP
1 *589:A1 1.23201e-05
2 *647:C2 1.72179e-05
3 *586:Y 0
4 *238:6 2.9538e-05
5 *647:C2 *309:16 6.53938e-06
6 *647:C2 *309:24 2.52755e-07
7 *210:203 *589:A1 0
8 *210:203 *647:C2 0
9 *213:240 *589:A1 8.20229e-06
10 *213:240 *647:C2 3.03529e-05
*RES
1 *586:Y *238:6 34.4 
2 *238:6 *647:C2 49.8852 
3 *238:6 *589:A1 41.5228 
*END

*D_NET *239 6.20096e-05
*CONN
*I *589:B1 I *D AO22x1_ASAP7_75t_SL
*I *587:Y O *D NAND2x1_ASAP7_75t_SL
*CAP
1 *589:B1 0
2 *587:Y 1.04327e-05
3 *239:8 1.04327e-05
4 *239:8 *401:96 3.73343e-05
5 *149:193 *239:8 3.25708e-06
6 *149:204 *239:8 5.52807e-07
*RES
1 *587:Y *239:8 46.7897 
2 *239:8 *589:B1 34.4 
*END

*D_NET *240 6.24058e-05
*CONN
*I *589:B2 I *D AO22x1_ASAP7_75t_SL
*I *588:Y O *D AO21x1_ASAP7_75t_SL
*CAP
1 *589:B2 1.86857e-05
2 *588:Y 7.58283e-06
3 *240:8 2.62686e-05
4 *149:193 *240:8 8.51183e-06
5 *210:207 *589:B2 1.35684e-06
*RES
1 *588:Y *240:8 41.158 
2 *240:8 *589:B2 44.0269 
*END

*D_NET *241 0.000118948
*CONN
*I *590:B I *D AO21x2_ASAP7_75t_SL
*I *589:Y O *D AO22x1_ASAP7_75t_SL
*CAP
1 *590:B 2.69472e-05
2 *589:Y 1.16191e-05
3 *241:8 3.85663e-05
4 *77:8 *590:B 1.51653e-06
5 *149:193 *241:8 1.692e-05
6 *149:204 *241:8 2.33787e-05
*RES
1 *589:Y *241:8 47.3528 
2 *241:8 *590:B 49.3751 
*END

*D_NET *242 0.000107877
*CONN
*I *594:A1 I *D AO22x1_ASAP7_75t_SL
*I *648:C2 I *D OA222x2_ASAP7_75t_SL
*I *591:Y O *D INVx1_ASAP7_75t_SL
*CAP
1 *594:A1 0
2 *648:C2 0
3 *591:Y 1.34865e-05
4 *242:25 3.38445e-05
5 *242:14 3.57208e-05
6 *242:10 1.53629e-05
7 *242:10 *292:6 5.25794e-06
8 *242:10 *397:70 0
9 *242:25 *243:8 0
10 *78:12 *242:10 0
11 *78:12 *242:25 2.43534e-06
12 *94:8 *242:14 5.0551e-07
13 *94:8 *242:25 1.26378e-06
*RES
1 *591:Y *242:10 42.6491 
2 *242:10 *242:14 18.2696 
3 *242:14 *648:C2 17.2 
4 *242:14 *242:25 38.9898 
5 *242:25 *594:A1 34.4 
*END

*D_NET *243 5.12451e-05
*CONN
*I *594:B1 I *D AO22x1_ASAP7_75t_SL
*I *592:Y O *D NAND2x1_ASAP7_75t_SL
*CAP
1 *594:B1 2.18866e-06
2 *592:Y 1.39429e-05
3 *243:8 1.61316e-05
4 *594:B1 *594:B2 2.28976e-06
5 *78:12 *243:8 0
6 *149:212 *243:8 1.66921e-05
7 *242:25 *243:8 0
*RES
1 *592:Y *243:8 47.3528 
2 *243:8 *594:B1 36.0045 
*END

*D_NET *244 5.26252e-05
*CONN
*I *594:B2 I *D AO22x1_ASAP7_75t_SL
*I *593:Y O *D AO21x1_ASAP7_75t_SL
*CAP
1 *594:B2 6.07304e-06
2 *593:Y 1.17599e-05
3 *244:10 1.78329e-05
4 *594:B2 *245:10 8.146e-06
5 *244:10 *328:12 1.52651e-06
6 *594:B1 *594:B2 2.28976e-06
7 *149:212 *244:10 4.99711e-06
*RES
1 *593:Y *244:10 41.1013 
2 *244:10 *594:B2 40.2831 
*END

*D_NET *245 0.000101516
*CONN
*I *595:B I *D AO21x2_ASAP7_75t_SL
*I *594:Y O *D AO22x1_ASAP7_75t_SL
*CAP
1 *595:B 1.45041e-05
2 *594:Y 2.77214e-05
3 *245:10 4.22255e-05
4 *595:B *310:26 1.44167e-06
5 *245:10 *310:20 0
6 *594:A2 *595:B 5.09299e-06
7 *594:A2 *245:10 1.95129e-06
8 *594:B2 *245:10 8.146e-06
9 *149:212 *245:10 0
10 *210:218 *245:10 4.33555e-07
*RES
1 *594:Y *245:10 48.5038 
2 *245:10 *595:B 44.0269 
*END

*D_NET *246 3.04795e-05
*CONN
*I *597:B I *D AO21x1_ASAP7_75t_SL
*I *596:Y O *D AND3x1_ASAP7_75t_SL
*CAP
1 *597:B 2.94634e-06
2 *596:Y 4.68017e-06
3 *246:8 7.62651e-06
4 *597:B *401:14 2.90269e-07
5 *246:8 *347:10 2.12135e-06
6 *246:8 *401:127 1.28148e-05
*RES
1 *596:Y *246:8 38.9053 
2 *246:8 *597:B 35.4697 
*END

*D_NET *247 0.0001984
*CONN
*I *598:C I *D AO221x2_ASAP7_75t_SL
*I *597:Y O *D AO21x1_ASAP7_75t_SL
*CAP
1 *598:C 9.65532e-06
2 *597:Y 8.05581e-06
3 *247:12 4.58207e-05
4 *247:8 4.42212e-05
5 *598:C *303:36 7.9549e-06
6 *247:12 *313:8 6.78309e-06
7 *247:12 *401:127 1.21742e-05
8 *20:79 *247:12 1.30255e-05
9 *22:18 *598:C 5.85387e-06
10 *22:18 *247:12 8.06436e-06
11 *22:22 *598:C 3.1923e-06
12 *23:12 *247:12 3.95845e-06
13 *79:8 *247:12 9.94583e-06
14 *210:20 *598:C 1.62312e-05
15 *210:28 *598:C 3.46317e-06
*RES
1 *597:Y *247:8 37.0741 
2 *247:8 *247:12 49.3005 
3 *247:12 *598:C 25.7572 
*END

*D_NET *248 3.76818e-05
*CONN
*I *603:B1 I *D OA22x2_ASAP7_75t_SL
*I *599:Y O *D NOR2x1_ASAP7_75t_SL
*CAP
1 *603:B1 2.52446e-06
2 *599:Y 1.57941e-05
3 *248:8 1.83185e-05
4 *603:B1 *294:25 1.04475e-06
5 *248:8 *250:12 0
*RES
1 *599:Y *248:8 46.2265 
2 *248:8 *603:B1 35.4697 
*END

*D_NET *249 1.73986e-05
*CONN
*I *601:B I *D NOR2x1_ASAP7_75t_SL
*I *600:Y O *D OA21x2_ASAP7_75t_SL
*CAP
1 *601:B 0
2 *600:Y 2.7203e-06
3 *249:8 2.7203e-06
4 *249:8 *401:247 5.97901e-06
5 *64:37 *249:8 5.97901e-06
*RES
1 *600:Y *249:8 38.9053 
2 *249:8 *601:B 34.4 
*END

*D_NET *250 0.000129495
*CONN
*I *602:C I *D AO221x2_ASAP7_75t_SL
*I *601:Y O *D NOR2x1_ASAP7_75t_SL
*CAP
1 *602:C 5.50938e-06
2 *601:Y 5.00668e-06
3 *250:12 4.73691e-05
4 *250:8 4.68664e-05
5 *602:C *602:A2 3.68287e-06
6 *602:C *401:232 5.62196e-06
7 *250:12 *251:8 0
8 *250:12 *313:8 1.89962e-06
9 *250:12 *401:239 0
10 *64:37 *250:8 3.73144e-06
11 *80:10 *250:12 9.8079e-06
12 *146:174 *250:12 0
13 *248:8 *250:12 0
*RES
1 *601:Y *250:8 37.0741 
2 *250:8 *250:12 49.3005 
3 *250:12 *602:C 21.4786 
*END

*D_NET *251 5.69979e-05
*CONN
*I *603:B2 I *D OA22x2_ASAP7_75t_SL
*I *602:Y O *D AO221x2_ASAP7_75t_SL
*CAP
1 *603:B2 2.42653e-06
2 *602:Y 1.49974e-05
3 *251:8 1.7424e-05
4 *603:B2 *294:25 5.62196e-06
5 *146:166 *251:8 0
6 *146:174 *251:8 1.6528e-05
7 *250:12 *251:8 0
*RES
1 *602:Y *251:8 47.3528 
2 *251:8 *603:B2 36.0045 
*END

*D_NET *252 0.000292363
*CONN
*I *652:C2 I *D OA222x2_ASAP7_75t_SL
*I *606:A1 I *D AO221x2_ASAP7_75t_SL
*I *604:Y O *D INVx1_ASAP7_75t_SL
*CAP
1 *652:C2 0
2 *606:A1 2.10642e-06
3 *604:Y 4.35276e-05
4 *252:25 2.45515e-05
5 *252:12 3.82814e-05
6 *252:6 0.000104254
7 *606:A1 *348:29 1.35684e-06
8 *252:12 *400:37 1.31716e-05
9 *252:25 *295:39 0
10 *252:25 *348:18 6.68208e-06
11 *252:25 *402:74 5.51814e-06
12 *210:46 *252:6 3.31731e-05
13 *210:46 *252:12 1.86666e-05
14 *213:44 *252:12 1.07377e-06
15 *213:50 *252:12 0
*RES
1 *604:Y *252:6 41.2671 
2 *252:6 *252:12 37.2153 
3 *252:12 *606:A1 35.4697 
4 *252:6 *252:25 35.7845 
5 *252:25 *652:C2 34.4 
*END

*D_NET *253 7.2491e-05
*CONN
*I *606:C I *D AO221x2_ASAP7_75t_SL
*I *605:Y O *D AO21x1_ASAP7_75t_SL
*CAP
1 *606:C 7.32609e-06
2 *605:Y 1.45878e-05
3 *253:10 2.19139e-05
4 *606:C *348:29 6.92634e-06
5 *253:10 *400:37 0
6 *606:B1 *606:C 5.62196e-06
7 *149:46 *253:10 1.36155e-06
8 *149:61 *253:10 3.81627e-06
9 *213:54 *606:C 5.41446e-06
10 *213:56 *253:10 5.52264e-06
*RES
1 *605:Y *253:10 44.9018 
2 *253:10 *606:C 40.2831 
*END

*D_NET *254 8.20422e-05
*CONN
*I *607:B I *D OA21x2_ASAP7_75t_SL
*I *606:Y O *D AO221x2_ASAP7_75t_SL
*CAP
1 *607:B 1.8444e-05
2 *606:Y 5.04814e-06
3 *254:8 2.34922e-05
4 *607:B *295:16 0
5 *607:B *295:30 2.83874e-07
6 *607:B *295:39 2.04071e-05
7 *254:8 *348:29 3.81627e-06
8 *607:A2 *607:B 7.84772e-07
9 *81:10 *607:B 3.84488e-06
10 *146:102 *607:B 1.94919e-06
11 *149:67 *607:B 3.97187e-06
12 *210:59 *607:B 0
*RES
1 *606:Y *254:8 37.0741 
2 *254:8 *607:B 49.6055 
*END

*D_NET *255 0.000172028
*CONN
*I *653:C2 I *D OA222x2_ASAP7_75t_SL
*I *610:A1 I *D AO221x2_ASAP7_75t_SL
*I *608:Y O *D INVx1_ASAP7_75t_SL
*CAP
1 *653:C2 0
2 *610:A1 2.34124e-06
3 *608:Y 0
4 *255:29 1.26982e-05
5 *255:10 3.36615e-05
6 *255:4 4.40185e-05
7 *610:A1 *349:6 1.40419e-08
8 *255:10 *402:99 1.44908e-05
9 *255:10 *402:107 3.56648e-06
10 *255:29 *276:32 1.07377e-06
11 *255:29 *296:10 5.37569e-06
12 *255:29 *296:18 6.87388e-06
13 *255:29 *296:26 7.35354e-06
14 *20:37 *255:10 4.05601e-05
15 *58:6 *255:10 0
16 *58:6 *255:29 0
*RES
1 *608:Y *255:4 17.2 
2 *255:4 *255:10 39.808 
3 *255:10 *610:A1 35.4697 
4 *255:4 *255:29 43.7188 
5 *255:29 *653:C2 17.2 
*END

*D_NET *256 3.6551e-05
*CONN
*I *610:C I *D AO221x2_ASAP7_75t_SL
*I *609:Y O *D AO21x1_ASAP7_75t_SL
*CAP
1 *610:C 9.52627e-06
2 *609:Y 9.52627e-06
3 *610:C *349:6 5.22376e-07
4 *610:C *349:12 4.20803e-06
5 *610:C *349:29 3.46317e-06
6 *609:B *610:C 3.68287e-06
7 *610:B1 *610:C 5.62196e-06
*RES
1 *609:Y *610:C 41.8876 
*END

*D_NET *257 5.00181e-05
*CONN
*I *611:B I *D OA21x2_ASAP7_75t_SL
*I *610:Y O *D AO221x2_ASAP7_75t_SL
*CAP
1 *611:B 6.35521e-06
2 *610:Y 6.35521e-06
3 *611:B *296:6 1.96943e-05
4 *611:B *349:6 3.05302e-06
5 *611:A2 *611:B 8.87763e-06
6 *146:106 *611:B 1.95129e-06
7 *210:75 *611:B 3.73144e-06
*RES
1 *610:Y *611:B 42.4224 
*END

*D_NET *258 0.000137546
*CONN
*I *654:C2 I *D OA222x2_ASAP7_75t_SL
*I *615:A1 I *D AO221x2_ASAP7_75t_SL
*I *612:Y O *D INVx1_ASAP7_75t_SL
*CAP
1 *654:C2 0
2 *615:A1 0
3 *612:Y 1.51417e-05
4 *258:14 1.20914e-05
5 *258:6 2.7233e-05
6 *258:6 *654:C1 1.23408e-05
7 *258:14 *654:C1 7.35354e-06
8 *258:14 *260:18 3.06629e-06
9 *258:14 *350:27 5.13209e-07
10 *55:6 *258:6 3.65663e-06
11 *99:6 *258:6 3.33273e-05
12 *210:86 *258:14 2.03762e-05
13 *213:83 *258:14 2.20128e-06
14 *213:102 *258:14 2.45021e-07
*RES
1 *612:Y *258:6 32.1751 
2 *258:6 *258:14 45.55 
3 *258:14 *615:A1 17.2 
4 *258:6 *654:C2 17.2 
*END

*D_NET *259 0.000138717
*CONN
*I *614:B I *D AO21x1_ASAP7_75t_SL
*I *613:Y O *D AND3x1_ASAP7_75t_SL
*CAP
1 *614:B 7.53879e-06
2 *613:Y 3.38685e-05
3 *259:8 4.14073e-05
4 *614:B *614:A1 8.87763e-06
5 *614:B *317:12 1.36155e-06
6 *614:B *401:184 3.94592e-06
7 *259:8 *260:10 3.78271e-05
8 *259:8 *317:12 3.89037e-06
*RES
1 *613:Y *259:8 48.8403 
2 *259:8 *614:B 41.0163 
*END

*D_NET *260 0.000168324
*CONN
*I *615:C I *D AO221x2_ASAP7_75t_SL
*I *614:Y O *D AO21x1_ASAP7_75t_SL
*CAP
1 *615:C 1.97068e-06
2 *614:Y 1.45477e-05
3 *260:18 2.66757e-05
4 *260:10 3.92527e-05
5 *260:10 *613:B 4.06202e-06
6 *260:10 *402:144 1.45409e-05
7 *613:C *260:10 1.04475e-06
8 *613:C *260:18 5.85387e-06
9 *615:B1 *260:18 1.44167e-06
10 *20:45 *260:10 4.83862e-06
11 *20:60 *260:10 9.57164e-06
12 *213:91 *260:18 3.06629e-06
13 *213:102 *260:18 5.63702e-07
14 *258:14 *260:18 3.06629e-06
15 *259:8 *260:10 3.78271e-05
*RES
1 *614:Y *260:10 49.0953 
2 *260:10 *260:18 46.3079 
3 *260:18 *615:C 35.4697 
*END

*D_NET *261 0.000289528
*CONN
*I *655:C2 I *D OA222x2_ASAP7_75t_SL
*I *619:A1 I *D AO221x2_ASAP7_75t_SL
*I *616:Y O *D INVx1_ASAP7_75t_SL
*CAP
1 *655:C2 2.48088e-06
2 *619:A1 1.7783e-05
3 *616:Y 5.44892e-06
4 *261:16 2.4493e-05
5 *261:12 9.12544e-05
6 *261:10 8.70253e-05
7 *261:8 5.44892e-06
8 *619:A1 *279:61 8.46363e-06
9 *261:16 *279:61 1.19507e-05
10 *49:14 *261:12 2.20495e-05
11 *146:117 *619:A1 4.42421e-06
12 *146:117 *261:16 1.12894e-06
13 *210:110 *619:A1 7.57697e-06
*RES
1 *616:Y *261:8 37.779 
2 *261:8 *261:10 17.2 
3 *261:10 *261:12 43.3208 
4 *261:12 *261:16 21.7053 
5 *261:16 *619:A1 47.6893 
6 *261:16 *655:C2 35.4697 
*END

*D_NET *262 4.07708e-05
*CONN
*I *618:B I *D AO21x1_ASAP7_75t_SL
*I *617:Y O *D AND3x1_ASAP7_75t_SL
*CAP
1 *618:B 3.06146e-06
2 *617:Y 6.25184e-06
3 *262:8 9.31331e-06
4 *262:8 *375:9 1.86782e-06
5 *262:8 *401:188 0
6 *149:29 *262:8 2.02764e-05
*RES
1 *617:Y *262:8 41.158 
2 *262:8 *618:B 36.0045 
*END

*D_NET *263 8.89798e-05
*CONN
*I *619:C I *D AO221x2_ASAP7_75t_SL
*I *618:Y O *D AO21x1_ASAP7_75t_SL
*CAP
1 *619:C 1.22342e-05
2 *618:Y 2.38107e-05
3 *263:8 3.60449e-05
4 *619:C *655:B2 4.43244e-06
5 *619:C *351:24 8.45637e-06
6 *263:8 *655:A1 3.48165e-06
7 *263:8 *655:A2 2.66797e-07
8 *263:8 *655:B1 2.52755e-07
*RES
1 *618:Y *263:8 44.0269 
2 *263:8 *619:C 42.7625 
*END

*D_NET *264 0.000275849
*CONN
*I *622:A1 I *D AO221x2_ASAP7_75t_SL
*I *656:C2 I *D OA222x2_ASAP7_75t_SL
*I *620:Y O *D INVx1_ASAP7_75t_SL
*CAP
1 *622:A1 0
2 *656:C2 8.97637e-06
3 *620:Y 1.67132e-05
4 *264:25 3.30108e-05
5 *264:8 5.87004e-05
6 *656:C2 *276:93 6.81991e-06
7 *656:C2 *320:14 2.66207e-05
8 *656:C2 *399:47 8.06436e-06
9 *264:8 *320:14 3.03035e-05
10 *264:25 *266:10 6.86929e-06
11 *264:25 *352:22 3.1923e-06
12 *264:25 *399:47 2.36328e-05
13 *264:25 *399:60 2.12359e-05
14 *622:A2 *264:25 5.08828e-06
15 *101:8 *656:C2 0
16 *101:8 *264:25 0
17 *146:125 *656:C2 0
18 *146:125 *264:25 0
19 *146:129 *264:25 2.66207e-05
*RES
1 *620:Y *264:8 43.492 
2 *264:8 *656:C2 45.2382 
3 *264:8 *264:25 48.4502 
4 *264:25 *622:A1 17.2 
*END

*D_NET *265 0.000121269
*CONN
*I *622:C I *D AO221x2_ASAP7_75t_SL
*I *621:Y O *D AO21x1_ASAP7_75t_SL
*CAP
1 *622:C 1.18684e-05
2 *621:Y 4.77561e-06
3 *265:14 2.03345e-05
4 *265:8 1.32418e-05
5 *622:C *299:20 1.62854e-06
6 *622:C *352:22 5.85387e-06
7 *622:C *392:10 2.65972e-05
8 *265:8 *375:9 0
9 *265:14 *320:6 2.38044e-05
10 *213:113 *265:8 1.31643e-05
*RES
1 *621:Y *265:8 38.9053 
2 *265:8 *265:14 41.3527 
3 *265:14 *622:C 45.0151 
*END

*D_NET *266 4.62924e-05
*CONN
*I *623:B I *D OA21x2_ASAP7_75t_SL
*I *622:Y O *D AO221x2_ASAP7_75t_SL
*CAP
1 *623:B 0
2 *622:Y 1.50628e-05
3 *266:10 1.50628e-05
4 *266:10 *299:14 8.71771e-06
5 *266:10 *299:20 0
6 *266:10 *399:60 5.79724e-07
7 *623:A2 *266:10 0
8 *264:25 *266:10 6.86929e-06
*RES
1 *622:Y *266:10 44.8451 
2 *266:10 *623:B 34.4 
*END

*D_NET *267 8.5975e-05
*CONN
*I *628:B1 I *D OA22x2_ASAP7_75t_SL
*I *624:Y O *D NOR2x1_ASAP7_75t_SL
*CAP
1 *628:B1 6.20052e-06
2 *624:Y 5.54934e-06
3 *267:8 1.17499e-05
4 *628:B1 *300:12 1.66706e-05
5 *628:B1 *352:22 5.41446e-06
6 *267:8 *279:119 1.2903e-05
7 *146:136 *628:B1 2.74873e-05
*RES
1 *624:Y *267:8 38.9053 
2 *267:8 *628:B1 42.4224 
*END

*D_NET *268 0.000141503
*CONN
*I *626:B I *D NOR2x1_ASAP7_75t_SL
*I *625:Y O *D OA21x2_ASAP7_75t_SL
*CAP
1 *626:B 0
2 *625:Y 2.20945e-05
3 *268:6 2.20945e-05
4 *268:6 *269:12 5.85387e-06
5 *268:6 *401:271 9.15304e-06
6 *625:A2 *268:6 8.13589e-06
7 *625:B *268:6 6.23355e-06
8 *232:39 *268:6 6.63708e-05
9 *232:43 *268:6 1.56713e-06
*RES
1 *625:Y *268:6 38.593 
2 *268:6 *626:B 17.2 
*END

*D_NET *269 0.000226601
*CONN
*I *627:C I *D AO221x2_ASAP7_75t_SL
*I *626:Y O *D NOR2x1_ASAP7_75t_SL
*CAP
1 *627:C 0
2 *626:Y 2.47418e-06
3 *269:12 3.35258e-05
4 *269:10 3.35258e-05
5 *269:8 2.47418e-06
6 *269:8 *353:41 8.06436e-06
7 *269:12 *627:A1 0.000102995
8 *269:12 *320:22 5.41446e-06
9 *232:39 *269:8 3.16603e-06
10 *232:43 *269:12 2.91071e-05
11 *268:6 *269:12 5.85387e-06
*RES
1 *626:Y *269:8 37.2158 
2 *269:8 *269:10 17.2 
3 *269:10 *269:12 36.9029 
4 *269:12 *627:C 17.2 
*END

*D_NET *270 4.87628e-05
*CONN
*I *628:B2 I *D OA22x2_ASAP7_75t_SL
*I *627:Y O *D AO221x2_ASAP7_75t_SL
*CAP
1 *628:B2 2.23767e-06
2 *627:Y 8.06307e-06
3 *270:8 1.03007e-05
4 *270:8 *276:116 0
5 *270:8 *352:20 3.94604e-06
6 *270:8 *399:86 2.28585e-05
7 *146:136 *628:B2 1.35684e-06
*RES
1 *627:Y *270:8 42.2843 
2 *270:8 *628:B2 35.4697 
*END

*D_NET *271 5.07781e-05
*CONN
*I *633:B1 I *D OA22x2_ASAP7_75t_SL
*I *629:Y O *D NOR2x1_ASAP7_75t_SL
*CAP
1 *633:B1 2.08099e-06
2 *629:Y 1.42297e-05
3 *271:8 1.63107e-05
4 *271:8 *631:A 2.83874e-07
5 *271:8 *274:18 9.77825e-06
6 *271:8 *401:299 1.09067e-06
7 *43:39 *271:8 3.79923e-06
8 *141:36 *633:B1 1.52651e-06
9 *232:52 *271:8 1.67815e-06
*RES
1 *629:Y *271:8 46.2265 
2 *271:8 *633:B1 35.4697 
*END

*D_NET *272 7.75991e-05
*CONN
*I *631:B I *D NOR2x1_ASAP7_75t_SL
*I *630:Y O *D OA21x2_ASAP7_75t_SL
*CAP
1 *631:B 1.84218e-05
2 *630:Y 9.32083e-06
3 *272:8 2.77426e-05
4 *631:B *631:A 5.79724e-07
5 *631:B *273:10 0
6 *631:B *354:10 0
7 *631:B *401:299 5.52264e-06
8 *43:50 *272:8 1.60115e-05
9 *232:52 *631:B 0
*RES
1 *630:Y *272:8 39.2134 
2 *272:8 *631:B 47.3528 
*END

*D_NET *273 5.32642e-05
*CONN
*I *632:C I *D AO221x2_ASAP7_75t_SL
*I *631:Y O *D NOR2x1_ASAP7_75t_SL
*CAP
1 *632:C 9.29297e-06
2 *631:Y 7.44785e-06
3 *273:10 1.67408e-05
4 *632:C *632:B1 1.35684e-06
5 *273:10 *354:10 2.05883e-06
6 *631:B *273:10 0
7 *632:B2 *632:C 5.41446e-06
8 *213:302 *273:10 1.64764e-06
9 *213:308 *632:C 9.30483e-06
*RES
1 *631:Y *273:10 39.9466 
2 *273:10 *632:C 40.8179 
*END

*D_NET *274 0.000223084
*CONN
*I *633:B2 I *D OA22x2_ASAP7_75t_SL
*I *632:Y O *D AO221x2_ASAP7_75t_SL
*CAP
1 *633:B2 0
2 *632:Y 8.38601e-06
3 *274:18 8.06504e-06
4 *274:12 5.24833e-05
5 *274:8 5.28043e-05
6 *274:8 *354:23 0
7 *274:12 *401:303 5.54001e-05
8 *274:18 *401:299 0
9 *536:A *274:12 1.01102e-06
10 *43:39 *274:12 1.0391e-06
11 *43:39 *274:18 5.37866e-07
12 *232:52 *274:18 3.35786e-05
13 *271:8 *274:18 9.77825e-06
*RES
1 *632:Y *274:8 38.9053 
2 *274:8 *274:12 47.685 
3 *274:12 *274:18 45.6633 
4 *274:18 *633:B2 17.2 
*END

*D_NET *275 0.000311544
*CONN
*P req_msg[11] I
*I *634:A I *D BUFx2_ASAP7_75t_SL
*CAP
1 req_msg[11] 2.51756e-05
2 *634:A 0
3 *275:19 1.32915e-05
4 *275:13 6.23016e-05
5 *275:11 4.90101e-05
6 *275:9 2.51756e-05
7 *275:9 resp_msg[11] 0
8 *275:9 *364:9 3.55479e-05
9 *275:13 *341:29 1.88316e-05
10 *275:13 *364:13 5.41981e-05
11 *149:156 *275:19 0
12 *149:169 *275:19 1.05922e-05
13 *215:7 *275:9 1.74199e-05
*RES
1 req_msg[11] *275:9 37.7703 
2 *275:9 *275:11 17.2 
3 *275:11 *275:13 48.6691 
4 *275:13 *275:19 44.537 
5 *275:19 *634:A 17.2 
*END

*D_NET *276 0.0063983
*CONN
*I *644:B1 I *D OA222x2_ASAP7_75t_SL
*I *643:B1 I *D OA222x2_ASAP7_75t_SL
*I *647:B1 I *D OA222x2_ASAP7_75t_SL
*I *648:B1 I *D OA222x2_ASAP7_75t_SL
*I *646:B1 I *D OA222x2_ASAP7_75t_SL
*I *641:B1 I *D OA222x2_ASAP7_75t_SL
*I *640:B1 I *D OA222x2_ASAP7_75t_SL
*I *651:B1 I *D OA222x2_ASAP7_75t_SL
*I *652:B1 I *D OA222x2_ASAP7_75t_SL
*I *649:B1 I *D OA222x2_ASAP7_75t_SL
*I *656:B1 I *D OA222x2_ASAP7_75t_SL
*I *660:B1 I *D OA222x2_ASAP7_75t_SL
*I *658:B1 I *D OA222x2_ASAP7_75t_SL
*I *655:B1 I *D OA222x2_ASAP7_75t_SL
*I *654:B1 I *D OA222x2_ASAP7_75t_SL
*I *653:B1 I *D OA222x2_ASAP7_75t_SL
*I *635:Y O *D AO21x2_ASAP7_75t_SL
*CAP
1 *644:B1 4.71273e-06
2 *643:B1 3.6639e-06
3 *647:B1 0
4 *648:B1 1.97545e-06
5 *646:B1 0
6 *641:B1 0
7 *640:B1 1.99268e-05
8 *651:B1 2.16965e-06
9 *652:B1 0
10 *649:B1 1.12224e-05
11 *656:B1 2.12964e-06
12 *660:B1 1.12071e-06
13 *658:B1 2.02226e-05
14 *655:B1 9.46585e-06
15 *654:B1 3.94028e-06
16 *653:B1 1.63242e-06
17 *635:Y 0
18 *276:363 2.53394e-05
19 *276:337 4.84957e-06
20 *276:329 7.8479e-05
21 *276:327 7.36295e-05
22 *276:325 6.7445e-06
23 *276:317 4.1562e-05
24 *276:315 4.3886e-05
25 *276:309 2.72104e-05
26 *276:305 5.22514e-05
27 *276:301 6.28859e-05
28 *276:292 8.9221e-05
29 *276:290 4.63816e-05
30 *276:284 3.95616e-05
31 *276:280 6.18763e-05
32 *276:263 2.97472e-05
33 *276:257 6.13413e-05
34 *276:255 9.07513e-05
35 *276:253 3.81693e-05
36 *276:247 4.7673e-05
37 *276:243 1.56202e-05
38 *276:235 0.000122334
39 *276:233 0.000126761
40 *276:211 5.54029e-06
41 *276:203 1.5539e-05
42 *276:195 9.15868e-05
43 *276:193 8.15881e-05
44 *276:191 1.37484e-05
45 *276:170 2.49708e-05
46 *276:168 4.8428e-05
47 *276:166 6.85261e-05
48 *276:158 5.53013e-05
49 *276:154 4.59531e-05
50 *276:146 5.71972e-05
51 *276:144 4.86169e-05
52 *276:124 9.25974e-06
53 *276:116 6.65761e-05
54 *276:114 5.84371e-05
55 *276:112 5.34796e-05
56 *276:97 8.01467e-05
57 *276:93 0.000123503
58 *276:91 0.000117059
59 *276:89 2.89234e-05
60 *276:76 3.62596e-05
61 *276:74 3.30316e-05
62 *276:68 4.36463e-05
63 *276:62 3.14982e-05
64 *276:51 3.28245e-05
65 *276:43 2.38426e-05
66 *276:32 0.000197173
67 *276:30 0.000179698
68 *276:28 5.33195e-05
69 *276:22 8.97049e-05
70 *276:14 6.94449e-05
71 *276:4 4.83158e-05
72 *640:B1 *560:B2 1.85329e-05
73 *640:B1 *302:20 5.24059e-07
74 *640:B1 *339:12 5.79724e-07
75 *643:B1 *306:20 8.96003e-06
76 *643:B1 *402:369 1.49407e-08
77 *648:B1 *648:A2 3.90258e-06
78 *648:B1 *397:70 8.29207e-07
79 *649:B1 *649:B2 5.36731e-06
80 *649:B1 *279:170 0
81 *649:B1 *279:182 1.52651e-06
82 *649:B1 *303:14 0
83 *653:B1 *296:26 5.0551e-07
84 *654:B1 *297:37 5.85387e-06
85 *656:B1 *333:14 2.98532e-06
86 *658:B1 *658:C1 1.62854e-06
87 *658:B1 *300:26 5.66897e-06
88 *658:B1 *402:214 0
89 *660:B1 *301:39 2.96818e-06
90 *276:28 *401:247 1.52999e-05
91 *276:32 *296:18 1.2768e-05
92 *276:32 *296:26 1.78333e-06
93 *276:51 *297:14 3.68287e-06
94 *276:51 *297:20 5.62196e-06
95 *276:51 *297:37 1.98844e-05
96 *276:62 *297:37 4.83862e-06
97 *276:62 *402:148 2.98428e-05
98 *276:74 *655:B2 1.12254e-05
99 *276:74 *298:37 1.00883e-05
100 *276:74 *332:8 1.34402e-05
101 *276:89 *333:14 5.22486e-06
102 *276:89 *392:10 5.49212e-07
103 *276:89 *402:186 1.89747e-06
104 *276:93 *656:B2 7.72307e-07
105 *276:93 *279:110 3.68287e-06
106 *276:93 *320:14 1.24131e-05
107 *276:112 *279:42 1.91848e-05
108 *276:112 *402:214 4.73997e-05
109 *276:116 *279:119 1.46419e-05
110 *276:116 *300:12 9.24107e-06
111 *276:116 *399:86 0
112 *276:116 *399:101 2.78577e-05
113 *276:124 *279:119 3.47607e-06
114 *276:124 *399:101 8.06799e-07
115 *276:146 *279:134 5.49212e-07
116 *276:146 *279:142 9.30442e-05
117 *276:146 *279:205 3.03529e-05
118 *276:154 *651:C2 1.66706e-05
119 *276:154 *279:146 2.03526e-06
120 *276:158 *279:150 7.61977e-06
121 *276:158 *326:10 1.00079e-05
122 *276:166 *279:162 2.6409e-06
123 *276:166 *402:255 8.06436e-06
124 *276:168 *279:162 0.000229117
125 *276:168 *293:24 2.01215e-05
126 *276:168 *400:63 0.000159866
127 *276:191 *400:63 1.96943e-05
128 *276:191 *402:64 4.43244e-06
129 *276:195 *279:186 0.00013137
130 *276:195 *400:63 8.82914e-06
131 *276:203 *329:22 0
132 *276:203 *348:18 1.49407e-08
133 *276:243 *279:215 5.11286e-06
134 *276:243 *401:112 3.6736e-06
135 *276:247 *398:10 6.22763e-06
136 *276:253 *700:CLK 7.55242e-06
137 *276:253 *289:8 6.15972e-06
138 *276:253 *398:10 4.67442e-06
139 *276:253 *398:12 3.16603e-06
140 *276:253 *398:103 3.56648e-06
141 *276:257 *560:B2 8.86354e-06
142 *276:280 *402:340 5.5264e-05
143 *276:284 *643:C1 5.00998e-07
144 *276:284 *279:269 7.51496e-07
145 *276:284 *306:20 1.24803e-05
146 *276:290 *643:C1 3.68287e-06
147 *276:290 *643:C2 3.1923e-06
148 *276:292 *305:20 8.37418e-06
149 *276:301 *305:20 3.17005e-06
150 *276:301 *309:24 0
151 *276:301 *340:14 6.17498e-06
152 *276:301 *341:10 1.83062e-05
153 *276:301 *397:51 0
154 *276:301 *397:59 0
155 *276:301 *402:391 5.52807e-07
156 *276:301 *402:399 3.32579e-06
157 *276:309 *402:399 6.57985e-05
158 *276:315 *291:6 6.7842e-07
159 *276:315 *291:14 4.92332e-06
160 *276:317 *397:59 2.42308e-05
161 *276:317 *397:70 4.91032e-05
162 *276:317 *402:399 7.17445e-05
163 *276:325 *648:A2 3.56648e-06
164 *276:325 *310:26 8.52654e-07
165 *276:325 *397:70 3.88115e-06
166 *276:329 *279:314 0.000260713
167 *276:329 *402:434 1.01765e-05
168 *276:337 *646:A2 2.20493e-06
169 *276:337 *308:34 4.60945e-06
170 *276:363 *279:301 1.62854e-06
171 *276:363 *309:24 1.44639e-06
172 *276:363 *397:59 2.03998e-05
173 *421:A2 *276:32 3.90258e-06
174 *421:B *276:32 5.85387e-06
175 *446:A *276:32 3.89037e-06
176 *446:C *276:32 3.89037e-06
177 *446:E *276:32 2.7925e-05
178 *571:A *276:235 2.61188e-06
179 *579:A *276:14 0
180 *579:A *276:146 7.31606e-07
181 *620:A *276:93 1.35818e-05
182 *656:C2 *276:93 6.81991e-06
183 *5:25 *276:257 0.00012917
184 *5:25 *276:280 1.61287e-05
185 *20:37 *276:43 2.98783e-05
186 *20:43 *276:51 6.7842e-07
187 *23:18 *276:168 3.06114e-06
188 *25:32 *276:329 8.58398e-05
189 *28:20 *276:305 0
190 *28:20 *276:363 0
191 *34:6 *276:253 6.78445e-06
192 *34:10 *276:280 2.83874e-07
193 *34:14 *276:243 4.3357e-06
194 *37:14 *276:290 1.73158e-06
195 *37:14 *276:292 1.00967e-05
196 *37:20 *643:B1 3.64631e-06
197 *37:20 *276:290 3.89509e-05
198 *40:38 *276:292 5.79724e-07
199 *46:46 *276:116 3.86931e-05
200 *57:12 *276:32 2.61188e-06
201 *57:20 *276:32 1.07377e-06
202 *58:30 *276:32 4.81639e-06
203 *64:73 *276:32 1.27782e-06
204 *67:8 *649:B1 5.22376e-07
205 *67:10 *649:B1 5.06565e-06
206 *67:10 *276:191 3.16603e-06
207 *70:6 *276:263 1.01102e-06
208 *71:26 *276:158 0
209 *72:8 *276:257 1.67815e-06
210 *94:8 *276:325 1.29755e-05
211 *94:12 *276:317 4.97654e-06
212 *96:8 *276:146 0
213 *98:10 *276:32 1.53057e-06
214 *112:10 *276:32 3.07519e-06
215 *113:10 *276:32 1.62312e-05
216 *133:44 *276:235 9.75645e-06
217 *133:50 *276:146 7.97185e-06
218 *137:6 *276:32 8.76428e-05
219 *137:14 *276:32 0.000111186
220 *137:26 *276:235 5.57465e-06
221 *141:62 *276:28 6.58216e-06
222 *141:72 *276:28 8.46363e-06
223 *141:85 *276:28 3.68197e-05
224 *141:93 *276:22 1.49692e-05
225 *141:109 *276:235 1.33238e-05
226 *147:109 *276:146 1.18973e-05
227 *147:136 *644:B1 1.35684e-06
228 *147:140 *276:247 1.53546e-05
229 *147:140 *276:253 7.89306e-06
230 *147:157 *644:B1 2.03526e-06
231 *149:29 *276:43 5.79724e-07
232 *149:29 *276:51 2.33715e-05
233 *149:29 *276:62 9.95998e-05
234 *208:29 *640:B1 3.16603e-06
235 *210:16 *276:154 6.97416e-06
236 *210:16 *276:158 4.15281e-05
237 *210:110 *655:B1 3.3563e-06
238 *210:110 *656:B1 1.67815e-06
239 *210:110 *276:74 0
240 *210:110 *276:89 1.32726e-05
241 *210:130 *276:14 9.08513e-06
242 *210:130 *276:233 2.7925e-05
243 *210:161 *276:284 2.48213e-05
244 *210:186 *276:284 1.05918e-05
245 *210:188 *276:292 7.82894e-06
246 *213:8 *276:233 1.45158e-05
247 *213:83 *276:43 3.27212e-05
248 *213:83 *276:62 5.52807e-07
249 *213:91 *276:62 6.91266e-06
250 *213:102 *276:62 1.86346e-05
251 *213:102 *276:74 1.13547e-05
252 *213:113 *276:74 1.57871e-05
253 *213:113 *276:89 0
254 *213:167 *276:292 0.000128473
255 *213:167 *276:301 1.24523e-05
256 *213:208 *276:257 2.03413e-06
257 *213:232 *276:301 1.59893e-05
258 *216:24 *276:257 3.875e-06
259 *217:18 *276:257 1.50458e-05
260 *225:10 *276:235 2.66207e-05
261 *232:14 *276:22 6.09087e-06
262 *255:29 *276:32 1.07377e-06
263 *263:8 *655:B1 2.52755e-07
264 *270:8 *276:116 0
*RES
1 *635:Y *276:4 17.2 
2 *276:4 *276:14 46.0574 
3 *276:14 *276:22 49.2733 
4 *276:22 *276:28 49.5446 
5 *276:28 *276:30 17.2 
6 *276:30 *276:32 133.171 
7 *276:32 *653:B1 18.2696 
8 *276:32 *276:43 41.9793 
9 *276:43 *276:51 44.9585 
10 *276:51 *654:B1 36.5393 
11 *276:51 *276:62 34.3531 
12 *276:62 *276:68 39.2134 
13 *276:68 *276:74 48.9887 
14 *276:74 *276:76 17.2 
15 *276:76 *655:B1 43.2973 
16 *276:76 *276:89 23.653 
17 *276:89 *276:91 17.2 
18 *276:91 *276:93 57.2263 
19 *276:93 *276:97 20.579 
20 *276:97 *658:B1 47.8593 
21 *276:97 *276:112 45.5457 
22 *276:112 *276:114 17.2 
23 *276:114 *276:116 54.0639 
24 *276:116 *276:124 39.89 
25 *276:124 *660:B1 36.5393 
26 *276:89 *656:B1 37.2158 
27 *276:14 *276:144 17.2 
28 *276:144 *276:146 51.5297 
29 *276:146 *276:154 42.0293 
30 *276:154 *276:158 49.3005 
31 *276:158 *276:166 46.3079 
32 *276:166 *276:168 75.4103 
33 *276:168 *276:170 17.2 
34 *276:170 *649:B1 43.354 
35 *276:170 *276:191 47.0411 
36 *276:191 *276:193 17.2 
37 *276:193 *276:195 46.5298 
38 *276:195 *276:203 38.3765 
39 *276:203 *276:211 37.7312 
40 *276:211 *652:B1 17.2 
41 *276:154 *651:B1 35.4697 
42 *276:4 *276:233 48.5605 
43 *276:233 *276:235 56.1566 
44 *276:235 *276:243 39.4874 
45 *276:243 *276:247 23.1132 
46 *276:247 *276:253 45.9425 
47 *276:253 *276:255 17.2 
48 *276:255 *276:257 57.4429 
49 *276:257 *276:263 38.1438 
50 *276:263 *640:B1 48.9856 
51 *276:255 *276:280 37.2719 
52 *276:280 *276:284 35.7845 
53 *276:284 *276:290 45.6313 
54 *276:290 *276:292 42.8006 
55 *276:292 *641:B1 34.4 
56 *276:292 *276:301 50.1218 
57 *276:301 *276:305 19.8741 
58 *276:305 *276:309 39.1635 
59 *276:309 *276:315 38.1438 
60 *276:315 *276:317 56.3166 
61 *276:317 *276:325 39.5517 
62 *276:325 *276:327 17.2 
63 *276:327 *276:329 47.1835 
64 *276:329 *276:337 37.9189 
65 *276:337 *646:B1 17.2 
66 *276:325 *648:B1 36.3144 
67 *276:305 *276:363 49.1804 
68 *276:363 *647:B1 17.2 
69 *276:284 *643:B1 38.7636 
70 *276:247 *644:B1 36.5393 
*END

*D_NET *277 0.000219884
*CONN
*P req_msg[10] I
*I *636:A I *D BUFx2_ASAP7_75t_SL
*CAP
1 req_msg[10] 6.00489e-05
2 *636:A 9.46081e-06
3 *277:7 6.95097e-05
4 *636:A *309:10 1.30911e-06
5 *150:7 *277:7 2.99482e-05
6 *211:5 *277:7 1.78679e-05
7 *214:11 *277:7 3.1739e-05
*RES
1 req_msg[10] *277:7 47.9883 
2 *277:7 *636:A 40.8764 
*END

*D_NET *278 3.27715e-05
*CONN
*I *638:B I *D NAND2x2_ASAP7_75t_SL
*I *637:Y O *D AO21x1_ASAP7_75t_SL
*CAP
1 *638:B 1.94896e-06
2 *637:Y 8.63175e-06
3 *278:8 1.05807e-05
4 *638:B *638:A 3.65131e-06
5 *278:8 *279:134 2.68933e-07
6 *458:A *638:B 7.63254e-07
7 *20:129 *638:B 2.96818e-06
8 *20:144 *278:8 3.95845e-06
*RES
1 *637:Y *278:8 40.0317 
2 *278:8 *638:B 37.0741 
*END

*D_NET *279 0.00584
*CONN
*I *643:C1 I *D OA222x2_ASAP7_75t_SL
*I *646:C1 I *D OA222x2_ASAP7_75t_SL
*I *648:C1 I *D OA222x2_ASAP7_75t_SL
*I *647:C1 I *D OA222x2_ASAP7_75t_SL
*I *641:C1 I *D OA222x2_ASAP7_75t_SL
*I *640:C1 I *D OA222x2_ASAP7_75t_SL
*I *644:C1 I *D OA222x2_ASAP7_75t_SL
*I *651:C1 I *D OA222x2_ASAP7_75t_SL
*I *649:C1 I *D OA222x2_ASAP7_75t_SL
*I *652:C1 I *D OA222x2_ASAP7_75t_SL
*I *660:C1 I *D OA222x2_ASAP7_75t_SL
*I *656:C1 I *D OA222x2_ASAP7_75t_SL
*I *655:C1 I *D OA222x2_ASAP7_75t_SL
*I *654:C1 I *D OA222x2_ASAP7_75t_SL
*I *653:C1 I *D OA222x2_ASAP7_75t_SL
*I *658:C1 I *D OA222x2_ASAP7_75t_SL
*I *638:Y O *D NAND2x2_ASAP7_75t_SL
*CAP
1 *643:C1 6.88832e-06
2 *646:C1 0
3 *648:C1 0
4 *647:C1 0
5 *641:C1 7.65167e-06
6 *640:C1 2.15385e-05
7 *644:C1 1.14517e-06
8 *651:C1 0
9 *649:C1 0
10 *652:C1 0
11 *660:C1 2.31077e-06
12 *656:C1 0
13 *655:C1 0
14 *654:C1 7.04955e-06
15 *653:C1 0
16 *658:C1 1.33914e-05
17 *638:Y 0
18 *279:322 6.66572e-06
19 *279:314 9.65332e-05
20 *279:312 9.28015e-05
21 *279:301 0.000108115
22 *279:292 0.000164531
23 *279:290 7.03601e-05
24 *279:279 1.8661e-05
25 *279:277 5.1183e-05
26 *279:275 6.42316e-05
27 *279:269 4.54012e-05
28 *279:250 4.42047e-05
29 *279:242 2.89197e-05
30 *279:236 8.84888e-05
31 *279:234 0.000135666
32 *279:230 3.26416e-05
33 *279:217 5.81989e-06
34 *279:215 2.45172e-05
35 *279:207 0.000120313
36 *279:205 9.91278e-05
37 *279:186 1.78354e-05
38 *279:184 1.78354e-05
39 *279:182 5.02755e-05
40 *279:176 5.441e-05
41 *279:170 1.74948e-05
42 *279:162 0.000146214
43 *279:160 0.000142177
44 *279:156 2.16884e-05
45 *279:150 4.56684e-05
46 *279:146 3.62231e-05
47 *279:142 3.18793e-05
48 *279:140 3.89298e-05
49 *279:134 3.70314e-05
50 *279:132 3.55e-05
51 *279:119 7.79469e-05
52 *279:117 7.56361e-05
53 *279:110 7.45828e-06
54 *279:81 1.21388e-05
55 *279:77 3.94953e-05
56 *279:71 8.47995e-05
57 *279:69 5.42194e-05
58 *279:65 6.87399e-06
59 *279:61 2.51561e-05
60 *279:55 0.000113021
61 *279:53 8.34552e-05
62 *279:42 3.88884e-05
63 *279:36 4.42259e-05
64 *279:28 4.80433e-05
65 *279:22 6.24983e-05
66 *279:18 3.86966e-05
67 *279:14 1.20849e-05
68 *279:8 0.00013209
69 *279:6 0.000125518
70 *279:4 5.10684e-06
71 *643:C1 *306:20 6.45414e-06
72 *643:C1 *341:18 1.91777e-05
73 *644:C1 *398:10 4.25954e-06
74 *658:C1 *399:80 0
75 *660:C1 *301:39 5.62196e-06
76 *279:8 *286:18 0
77 *279:28 *353:24 1.01102e-06
78 *279:42 *300:26 7.34229e-06
79 *279:42 *402:214 3.33273e-05
80 *279:55 *300:26 9.50756e-06
81 *279:55 *402:214 1.34087e-05
82 *279:71 *655:B2 0
83 *279:71 *298:37 0
84 *279:71 *351:24 1.91241e-06
85 *279:77 *297:14 3.16328e-06
86 *279:119 *660:C2 2.19685e-06
87 *279:119 *300:50 0
88 *279:119 *399:101 0
89 *279:134 *638:A 8.84338e-06
90 *279:134 *402:266 0
91 *279:142 *294:23 6.94376e-06
92 *279:142 *398:28 1.52167e-06
93 *279:160 *326:10 2.98375e-05
94 *279:160 *402:255 3.93602e-06
95 *279:170 *303:14 1.49667e-05
96 *279:170 *402:28 6.33206e-07
97 *279:176 *402:28 0
98 *279:176 *402:45 0
99 *279:182 *315:14 2.71839e-06
100 *279:182 *402:45 0
101 *279:182 *402:64 2.08675e-06
102 *279:186 *400:63 8.20313e-05
103 *279:186 *402:68 1.66266e-05
104 *279:207 *644:A1 5.22376e-07
105 *279:207 *402:319 9.30483e-06
106 *279:207 *402:463 9.08513e-06
107 *279:215 *402:323 2.30654e-05
108 *279:230 *398:10 1.88897e-05
109 *279:250 *302:20 0
110 *279:250 *398:85 9.40283e-06
111 *279:269 *341:18 7.5755e-06
112 *279:269 *402:359 1.70708e-06
113 *279:269 *402:369 0
114 *279:275 *306:12 5.25839e-05
115 *279:275 *307:6 2.03608e-06
116 *279:275 *402:359 4.92332e-06
117 *279:277 *397:44 1.19115e-05
118 *279:277 *401:49 0
119 *279:277 *401:59 0
120 *279:292 *309:16 3.6269e-06
121 *279:292 *340:25 9.43723e-06
122 *279:292 *397:51 0
123 *279:292 *397:59 0
124 *279:292 *401:70 0
125 *279:301 *309:16 7.84037e-07
126 *279:301 *310:20 0
127 *279:301 *310:26 5.22486e-06
128 *279:301 *344:10 5.79724e-07
129 *279:301 *344:21 1.60187e-05
130 *279:301 *345:12 9.97736e-06
131 *279:301 *397:59 0
132 *279:301 *397:70 0
133 *279:312 *310:26 2.35211e-06
134 *279:314 *402:434 5.83659e-05
135 *279:322 *646:C2 8.87763e-06
136 *279:322 *308:34 0
137 *435:B *279:8 2.1664e-06
138 *458:A *279:132 1.32074e-05
139 *500:B *279:8 1.75666e-06
140 *564:A1 *279:292 0
141 *619:A1 *279:61 8.46363e-06
142 *649:B1 *279:170 0
143 *649:B1 *279:182 1.52651e-06
144 *658:B1 *658:C1 1.62854e-06
145 *686:D *279:301 5.52807e-07
146 *5:14 *279:242 1.46661e-05
147 *5:25 *279:236 0
148 *5:25 *279:250 0
149 *7:10 *279:119 1.02072e-05
150 *20:144 *279:8 0
151 *22:6 *279:156 3.09505e-05
152 *28:18 *279:301 4.94291e-06
153 *34:14 *279:215 0
154 *44:10 *279:8 1.10561e-06
155 *44:10 *279:18 2.95616e-05
156 *46:18 *279:42 4.86813e-05
157 *46:22 *658:C1 0
158 *46:68 *279:28 0
159 *67:8 *279:182 0
160 *75:12 *279:215 7.50766e-06
161 *78:12 *279:301 0
162 *78:12 *279:312 0
163 *89:12 *279:277 5.16789e-05
164 *121:8 *279:8 0
165 *121:23 *279:8 0
166 *121:23 *279:18 2.98157e-05
167 *133:60 *279:8 1.2903e-05
168 *133:60 *279:134 2.07842e-05
169 *141:50 *279:22 7.637e-06
170 *141:50 *279:28 2.13843e-06
171 *141:150 *279:8 0
172 *142:25 *279:207 2.12863e-05
173 *146:18 *644:C1 0
174 *146:18 *279:230 0
175 *146:117 *279:61 5.94641e-06
176 *146:117 *279:71 0
177 *146:117 *279:77 0
178 *146:117 *279:110 1.67815e-06
179 *146:123 *279:55 2.0895e-06
180 *146:125 *279:110 1.30336e-05
181 *147:109 *279:134 5.09367e-05
182 *147:113 *279:207 9.56782e-05
183 *147:126 *279:207 1.25483e-05
184 *147:128 *279:207 9.61873e-06
185 *147:136 *279:215 1.29118e-06
186 *147:157 *644:C1 7.84037e-07
187 *159:41 *279:22 5.82944e-07
188 *159:41 *279:28 9.54383e-05
189 *159:41 *279:36 2.90209e-08
190 *159:68 *279:22 0.000102826
191 *163:12 *279:28 7.75665e-06
192 *176:8 *279:22 1.25483e-05
193 *182:6 *279:14 3.16328e-06
194 *183:8 *279:8 8.2174e-07
195 *185:10 *279:14 8.146e-06
196 *210:16 *279:134 2.31069e-05
197 *210:16 *279:142 7.03708e-06
198 *210:86 *279:71 1.65842e-06
199 *210:86 *279:77 2.18135e-06
200 *210:86 *279:81 7.16897e-05
201 *210:101 *279:71 0.000101867
202 *210:110 *279:61 7.84026e-05
203 *210:110 *279:71 2.49844e-05
204 *210:110 *279:110 9.29587e-06
205 *210:157 *279:234 9.11898e-05
206 *210:169 *279:250 1.89046e-05
207 *210:186 *279:269 1.12298e-05
208 *210:188 *279:277 1.88258e-05
209 *213:18 *279:150 3.73908e-06
210 *213:83 *279:81 3.14548e-05
211 *213:102 *279:71 0
212 *213:175 *279:275 5.25278e-06
213 *213:200 *279:250 0
214 *213:208 *279:250 1.26565e-05
215 *213:240 *279:292 0
216 *213:240 *279:301 0
217 *213:251 *279:301 0
218 *213:275 *279:22 2.79851e-06
219 *213:283 *279:22 2.28976e-06
220 *218:8 *279:277 1.6865e-05
221 *225:14 *279:234 2.71839e-06
222 *225:29 *279:230 1.63901e-05
223 *232:21 *279:8 0
224 *258:6 *654:C1 1.23408e-05
225 *258:14 *654:C1 7.35354e-06
226 *261:16 *279:61 1.19507e-05
227 *267:8 *279:119 1.2903e-05
228 *276:93 *279:110 3.68287e-06
229 *276:112 *279:42 1.91848e-05
230 *276:116 *279:119 1.46419e-05
231 *276:124 *279:119 3.47607e-06
232 *276:146 *279:134 5.49212e-07
233 *276:146 *279:142 9.30442e-05
234 *276:146 *279:205 3.03529e-05
235 *276:154 *279:146 2.03526e-06
236 *276:158 *279:150 7.61977e-06
237 *276:166 *279:162 2.6409e-06
238 *276:168 *279:162 0.000229117
239 *276:195 *279:186 0.00013137
240 *276:243 *279:215 5.11286e-06
241 *276:284 *643:C1 5.00998e-07
242 *276:284 *279:269 7.51496e-07
243 *276:290 *643:C1 3.68287e-06
244 *276:329 *279:314 0.000260713
245 *276:363 *279:301 1.62854e-06
246 *278:8 *279:134 2.68933e-07
*RES
1 *638:Y *279:4 17.2 
2 *279:4 *279:6 17.2 
3 *279:6 *279:8 91.2329 
4 *279:8 *279:14 40.2831 
5 *279:14 *279:18 27.337 
6 *279:18 *279:22 49.8243 
7 *279:22 *279:28 47.2919 
8 *279:28 *279:36 45.2382 
9 *279:36 *279:42 47.2352 
10 *279:42 *658:C1 43.4107 
11 *279:42 *279:53 17.2 
12 *279:53 *279:55 56.1566 
13 *279:55 *279:61 44.7101 
14 *279:61 *279:65 18.8045 
15 *279:65 *279:69 18.8045 
16 *279:69 *279:71 50.1218 
17 *279:71 *279:77 34.3464 
18 *279:77 *279:81 40.853 
19 *279:81 *653:C1 34.4 
20 *279:71 *654:C1 40.2831 
21 *279:65 *655:C1 17.2 
22 *279:55 *279:110 43.354 
23 *279:110 *656:C1 17.2 
24 *279:36 *279:117 17.2 
25 *279:117 *279:119 59.6956 
26 *279:119 *660:C1 36.0045 
27 *279:4 *279:132 20.9438 
28 *279:132 *279:134 38.8585 
29 *279:134 *279:140 37.0741 
30 *279:140 *279:142 33.2268 
31 *279:142 *279:146 18.8045 
32 *279:146 *279:150 43.1056 
33 *279:150 *279:156 43.492 
34 *279:156 *279:160 27.337 
35 *279:160 *279:162 72.2014 
36 *279:162 *279:170 44.9018 
37 *279:170 *279:176 37.2158 
38 *279:176 *279:182 43.9166 
39 *279:182 *279:184 17.2 
40 *279:184 *279:186 40.6467 
41 *279:186 *652:C1 17.2 
42 *279:170 *649:C1 17.2 
43 *279:146 *651:C1 17.2 
44 *279:140 *279:205 27.337 
45 *279:205 *279:207 73.271 
46 *279:207 *279:215 46.4575 
47 *279:215 *279:217 17.2 
48 *279:217 *644:C1 35.8079 
49 *279:217 *279:230 24.2396 
50 *279:230 *279:234 43.4064 
51 *279:234 *279:236 56.3166 
52 *279:236 *279:242 38.1438 
53 *279:242 *279:250 49.6398 
54 *279:250 *640:C1 48.0098 
55 *279:234 *279:269 44.5327 
56 *279:269 *279:275 49.9099 
57 *279:275 *279:277 48.9954 
58 *279:277 *279:279 17.2 
59 *279:279 *641:C1 20.409 
60 *279:279 *279:290 23.0831 
61 *279:290 *279:292 42.8006 
62 *279:292 *647:C1 34.4 
63 *279:292 *279:301 83.9117 
64 *279:301 *648:C1 34.4 
65 *279:301 *279:312 20.1097 
66 *279:312 *279:314 45.8849 
67 *279:314 *279:322 39.3356 
68 *279:322 *646:C1 17.2 
69 *279:269 *643:C1 42.2276 
*END

*D_NET *280 0.000188453
*CONN
*P req_msg[0] I
*I *639:A I *D BUFx2_ASAP7_75t_SL
*CAP
1 req_msg[0] 3.41896e-05
2 *639:A 9.1862e-06
3 *280:13 5.3413e-05
4 *280:11 7.84164e-05
5 *280:11 resp_msg[0] 0
6 *280:13 *304:12 5.63702e-07
7 *280:13 *339:31 9.97906e-07
8 *280:13 *380:8 1.1686e-05
*RES
1 req_msg[0] *280:11 45.8982 
2 *280:11 *280:13 38.3891 
3 *280:13 *639:A 39.2134 
*END

*D_NET *281 4.76086e-05
*CONN
*I *643:C2 I *D OA222x2_ASAP7_75t_SL
*I *642:Y O *D INVx1_ASAP7_75t_SL
*CAP
1 *643:C2 1.71766e-05
2 *642:Y 1.71766e-05
3 *37:14 *643:C2 7.58265e-07
4 *90:10 *643:C2 9.30483e-06
5 *276:290 *643:C2 3.1923e-06
*RES
1 *642:Y *643:C2 44.5617 
*END

*D_NET *282 4.18721e-05
*CONN
*I *646:C2 I *D OA222x2_ASAP7_75t_SL
*I *645:Y O *D INVx1_ASAP7_75t_SL
*CAP
1 *646:C2 1.36486e-05
2 *645:Y 1.36486e-05
3 *581:A2 *646:C2 5.17782e-06
4 *31:26 *646:C2 5.19552e-07
5 *279:322 *646:C2 8.87763e-06
*RES
1 *645:Y *646:C2 44.5617 
*END

*D_NET *283 9.5977e-05
*CONN
*I *651:C2 I *D OA222x2_ASAP7_75t_SL
*I *650:Y O *D INVx1_ASAP7_75t_SL
*CAP
1 *651:C2 1.25694e-05
2 *650:Y 9.27732e-06
3 *283:10 2.18467e-05
4 *651:C2 *398:28 2.16456e-05
5 *283:10 *294:10 1.2561e-05
6 *283:10 *402:266 5.52807e-07
7 *64:18 *283:10 4.26751e-07
8 *64:27 *283:10 4.26751e-07
9 *276:154 *651:C2 1.66706e-05
*RES
1 *650:Y *283:10 40.5098 
2 *283:10 *651:C2 44.0269 
*END

*D_NET *284 5.14316e-05
*CONN
*I *658:C2 I *D OA222x2_ASAP7_75t_SL
*I *657:Y O *D INVx1_ASAP7_75t_SL
*CAP
1 *658:C2 1.28482e-05
2 *657:Y 1.28482e-05
3 *658:C2 *399:82 1.85975e-05
4 *102:10 *658:C2 7.13767e-06
*RES
1 *657:Y *658:C2 44.5617 
*END

*D_NET *285 9.99201e-05
*CONN
*I *660:C2 I *D OA222x2_ASAP7_75t_SL
*I *659:Y O *D INVx1_ASAP7_75t_SL
*CAP
1 *660:C2 7.01134e-06
2 *659:Y 2.32793e-05
3 *285:8 3.02906e-05
4 *660:C2 *301:39 5.22376e-07
5 *660:C2 *399:101 0
6 *285:8 *301:33 2.6409e-06
7 *285:8 *301:39 3.0511e-05
8 *103:10 *660:C2 3.46769e-06
9 *279:119 *660:C2 2.19685e-06
*RES
1 *659:Y *285:8 46.701 
2 *285:8 *660:C2 40.5381 
*END

*D_NET *286 0.00107279
*CONN
*P clk I
*I *861:A I *D BUFx4_ASAP7_75t_SL
*CAP
1 clk 2.73915e-05
2 *861:A 0
3 *286:18 9.90115e-06
4 *286:14 0.000342836
5 *286:12 0.000332935
6 *286:10 0.000133298
7 *286:8 0.000160689
8 *286:14 *397:36 1.65323e-05
9 *286:14 *403:15 0
10 *286:14 *403:51 4.92085e-05
11 *286:18 *403:13 0
12 *213:153 *286:14 0
13 *279:8 *286:18 0
*RES
1 clk *286:8 25.8685 
2 *286:8 *286:10 71.5671 
3 *286:10 *286:12 11.8 
4 *286:12 *286:14 124.29 
5 *286:14 *286:18 23.8641 
6 *286:18 *861:A 34.4 
*END

*D_NET *287 0.00033919
*CONN
*I *641:B2 I *D OA222x2_ASAP7_75t_SL
*I *565:A1 I *D OA21x2_ASAP7_75t_SL
*I *667:B I *D HAxp5_ASAP7_75t_SL
*I *550:Y O *D INVx1_ASAP7_75t_SL
*CAP
1 *641:B2 0
2 *565:A1 0
3 *667:B 0
4 *550:Y 7.63609e-06
5 *287:50 5.02368e-06
6 *287:32 1.59282e-05
7 *287:24 3.66469e-05
8 *287:18 6.35979e-05
9 *287:14 6.55933e-05
10 *287:6 3.53738e-05
11 *287:14 *402:380 3.00603e-06
12 *287:24 *397:23 1.91585e-06
13 *287:24 *409:14 2.21567e-05
14 *287:32 *409:14 2.28836e-05
15 *287:50 *305:20 3.90258e-06
16 *287:50 *341:10 1.65859e-05
17 *550:A *287:14 0
18 *565:B *287:24 6.7842e-07
19 *39:10 *287:14 0
20 *73:10 *287:24 1.02072e-05
21 *132:10 *287:32 0
22 *146:28 *287:24 1.1812e-05
23 *213:167 *287:50 1.62424e-05
*RES
1 *550:Y *287:6 19.8741 
2 *287:6 *287:14 45.3516 
3 *287:14 *287:18 40.1975 
4 *287:18 *287:24 35.4727 
5 *287:24 *287:32 45.9147 
6 *287:32 *667:B 17.2 
7 *287:24 *565:A1 17.2 
8 *287:6 *287:50 41.1013 
9 *287:50 *641:B2 17.2 
*END

*D_NET *288 0.000273216
*CONN
*I *666:A I *D HAxp5_ASAP7_75t_SL
*I *643:B2 I *D OA222x2_ASAP7_75t_SL
*I *549:Y O *D INVx1_ASAP7_75t_SL
*CAP
1 *666:A 2.31226e-05
2 *643:B2 1.30996e-05
3 *549:Y 1.16757e-05
4 *288:10 5.70745e-05
5 *288:8 3.25281e-05
6 *643:B2 *643:A1 1.22004e-05
7 *643:B2 *306:20 8.13589e-06
8 *288:8 *307:14 4.75553e-05
9 *288:8 *402:340 2.34603e-06
10 *666:B *666:A 3.90551e-06
11 *5:25 *288:10 1.9888e-05
12 *37:20 *643:B2 5.86507e-07
13 *37:28 *666:A 1.12894e-06
14 *37:34 *666:A 5.49212e-07
15 *223:8 *288:8 3.94194e-05
*RES
1 *549:Y *288:8 46.701 
2 *288:8 *288:10 16.3318 
3 *288:10 *643:B2 41.8876 
4 *288:10 *666:A 49.6055 
*END

*D_NET *289 0.00019422
*CONN
*I *644:B2 I *D OA222x2_ASAP7_75t_SL
*I *665:A I *D HAxp5_ASAP7_75t_SL
*I *578:A2 I *D OA33x2_ASAP7_75t_SL
*I *548:Y O *D INVx1_ASAP7_75t_SL
*CAP
1 *644:B2 0
2 *665:A 8.49457e-06
3 *578:A2 0
4 *548:Y 1.20732e-05
5 *289:16 2.12328e-05
6 *289:12 1.46686e-05
7 *289:8 1.40036e-05
8 *665:A *401:112 6.8435e-06
9 *665:A *403:63 0
10 *289:8 *398:12 1.6136e-06
11 *289:8 *401:112 1.4124e-05
12 *289:12 *307:14 5.85387e-06
13 *289:16 *401:112 4.37438e-05
14 *34:33 *665:A 0
15 *36:10 *665:A 7.84037e-07
16 *147:136 *289:12 5.0551e-07
17 *147:140 *665:A 3.85212e-06
18 *147:140 *289:8 1.4645e-05
19 *147:140 *289:16 1.19159e-05
20 *225:10 *289:16 8.18407e-06
21 *231:12 *665:A 5.52264e-06
22 *276:253 *289:8 6.15972e-06
*RES
1 *548:Y *289:8 47.916 
2 *289:8 *289:12 18.8045 
3 *289:12 *289:16 32.4055 
4 *289:16 *578:A2 34.4 
5 *289:16 *665:A 44.537 
6 *289:12 *644:B2 17.2 
*END

*D_NET *290 0.000145274
*CONN
*I *646:B2 I *D OA222x2_ASAP7_75t_SL
*I *664:B I *D HAxp5_ASAP7_75t_SL
*I *547:Y O *D INVx1_ASAP7_75t_SL
*CAP
1 *646:B2 1.75942e-06
2 *664:B 1.46065e-05
3 *547:Y 1.98674e-05
4 *290:10 3.87724e-05
5 *290:8 4.22738e-05
6 *646:B2 *646:A2 3.89037e-06
7 *664:B *308:26 0
8 *664:B *308:34 2.89387e-06
9 *664:B *402:434 2.05883e-06
10 *290:10 *308:34 3.05118e-08
11 *290:10 *402:434 2.0915e-06
12 *31:34 *664:B 3.81627e-06
13 *31:38 *664:B 1.67815e-06
14 *31:53 *664:B 9.41947e-07
15 *31:53 *290:10 1.18996e-06
16 *92:8 *290:10 0
17 *147:79 *290:10 0
18 *235:14 *290:8 9.40277e-06
*RES
1 *547:Y *290:8 44.5617 
2 *290:8 *290:10 14.0792 
3 *290:10 *664:B 44.9585 
4 *290:10 *646:B2 35.4697 
*END

*D_NET *291 0.000276149
*CONN
*I *647:B2 I *D OA222x2_ASAP7_75t_SL
*I *663:A I *D HAxp5_ASAP7_75t_SL
*I *546:Y O *D INVx1_ASAP7_75t_SL
*CAP
1 *647:B2 2.42902e-06
2 *663:A 1.74491e-05
3 *546:Y 1.75649e-05
4 *291:25 1.97904e-05
5 *291:14 3.35919e-05
6 *291:6 5.1069e-05
7 *647:B2 *647:A2 5.85387e-06
8 *291:25 *309:24 4.83862e-06
9 *291:25 *397:59 2.96149e-05
10 *291:25 *402:399 3.21095e-05
11 *546:A *291:6 5.17782e-06
12 *30:10 *663:A 1.48593e-05
13 *30:60 *663:A 3.5648e-05
14 *30:60 *291:14 5.51397e-07
15 *276:315 *291:6 6.7842e-07
16 *276:315 *291:14 4.92332e-06
*RES
1 *546:Y *291:6 28.4313 
2 *291:6 *291:14 44.1686 
3 *291:14 *663:A 31.6403 
4 *291:6 *291:25 41.9793 
5 *291:25 *647:B2 36.0045 
*END

*D_NET *292 0.000294124
*CONN
*I *648:B2 I *D OA222x2_ASAP7_75t_SL
*I *662:A I *D HAxp5_ASAP7_75t_SL
*I *545:Y O *D INVx1_ASAP7_75t_SL
*CAP
1 *648:B2 0
2 *662:A 0
3 *545:Y 1.43713e-05
4 *292:27 1.74737e-05
5 *292:12 2.97276e-05
6 *292:6 6.15726e-05
7 *292:6 *397:74 1.44167e-06
8 *292:6 *397:76 6.53938e-06
9 *292:12 *397:76 3.15143e-05
10 *292:27 *648:A2 7.13384e-06
11 *292:27 *402:410 1.30874e-05
12 *545:A *292:6 5.34278e-06
13 *25:14 *292:6 3.90258e-06
14 *25:16 *292:6 2.01215e-05
15 *25:16 *292:12 7.33726e-05
16 *28:32 *292:12 7.32095e-07
17 *94:12 *292:27 2.53282e-06
18 *242:10 *292:6 5.25794e-06
*RES
1 *545:Y *292:6 31.6403 
2 *292:6 *292:12 48.1952 
3 *292:12 *662:A 34.4 
4 *292:6 *292:27 45.9714 
5 *292:27 *648:B2 17.2 
*END

*D_NET *293 0.000456471
*CONN
*I *596:B I *D AND3x1_ASAP7_75t_SL
*I *676:A I *D HAxp5_ASAP7_75t_SL
*I *649:B2 I *D OA222x2_ASAP7_75t_SL
*I *544:Y O *D INVx1_ASAP7_75t_SL
*CAP
1 *596:B 0
2 *676:A 0
3 *649:B2 6.12924e-06
4 *544:Y 7.59909e-06
5 *293:50 2.13536e-05
6 *293:37 2.35803e-05
7 *293:24 2.6527e-05
8 *293:16 4.3978e-05
9 *293:14 2.31599e-05
10 *293:12 4.79385e-05
11 *293:8 1.1024e-05
12 *649:B2 *402:64 6.33206e-07
13 *293:8 *347:10 5.43755e-06
14 *293:12 *400:63 1.25529e-05
15 *293:14 *303:6 2.03526e-06
16 *293:14 *303:25 3.35031e-05
17 *293:14 *400:63 0.000117174
18 *293:24 *303:14 1.12901e-05
19 *293:24 *400:63 2.88806e-06
20 *293:37 *303:14 8.06436e-06
21 *293:50 *346:10 0
22 *293:50 *347:10 0
23 *293:50 *402:22 3.64631e-06
24 *293:50 *402:24 6.09485e-06
25 *649:B1 *649:B2 5.36731e-06
26 *23:18 *293:8 5.79724e-07
27 *23:18 *293:12 5.68629e-06
28 *23:18 *293:14 6.7842e-07
29 *67:10 *293:24 3.05118e-08
30 *67:10 *293:37 1.09842e-06
31 *67:21 *293:37 7.75e-06
32 *67:30 *293:37 5.49212e-07
33 *276:168 *293:24 2.01215e-05
*RES
1 *544:Y *293:8 40.0317 
2 *293:8 *293:12 20.9438 
3 *293:12 *293:14 34.7636 
4 *293:14 *293:16 17.2 
5 *293:16 *293:24 46.3645 
6 *293:24 *649:B2 38.9053 
7 *293:16 *293:37 35.7845 
8 *293:37 *676:A 17.2 
9 *293:12 *293:50 47.6326 
10 *293:50 *596:B 17.2 
*END

*D_NET *294 0.000382651
*CONN
*I *603:A1 I *D OA22x2_ASAP7_75t_SL
*I *675:A I *D HAxp5_ASAP7_75t_SL
*I *651:B2 I *D OA222x2_ASAP7_75t_SL
*I *543:Y O *D INVx1_ASAP7_75t_SL
*CAP
1 *603:A1 0
2 *675:A 9.40117e-06
3 *651:B2 0
4 *543:Y 0
5 *294:29 6.57546e-05
6 *294:25 9.919e-05
7 *294:23 4.7642e-05
8 *294:10 2.58044e-05
9 *294:4 3.06098e-05
10 *603:B1 *294:25 1.04475e-06
11 *603:B2 *294:25 5.62196e-06
12 *64:27 *294:10 6.1257e-06
13 *66:43 *675:A 0
14 *80:10 *294:29 5.08828e-06
15 *146:174 *294:25 1.36155e-06
16 *210:16 *294:10 5.85581e-05
17 *210:16 *294:23 6.94376e-06
18 *279:142 *294:23 6.94376e-06
19 *283:10 *294:10 1.2561e-05
*RES
1 *543:Y *294:4 17.2 
2 *294:4 *294:10 40.6546 
3 *294:10 *651:B2 34.4 
4 *294:4 *294:23 40.0317 
5 *294:23 *294:25 26.2064 
6 *294:25 *294:29 49.8243 
7 *294:29 *675:A 41.158 
8 *294:25 *603:A1 17.2 
*END

*D_NET *295 0.000344684
*CONN
*I *674:A I *D HAxp5_ASAP7_75t_SL
*I *652:B2 I *D OA222x2_ASAP7_75t_SL
*I *607:A1 I *D OA21x2_ASAP7_75t_SL
*I *542:Y O *D INVx1_ASAP7_75t_SL
*CAP
1 *674:A 0
2 *652:B2 2.32968e-06
3 *607:A1 0
4 *542:Y 6.41829e-06
5 *295:39 4.91022e-05
6 *295:37 4.67725e-05
7 *295:30 1.69971e-05
8 *295:20 3.27903e-05
9 *295:16 6.07409e-05
10 *295:10 4.49477e-05
11 *295:8 6.41829e-06
12 *652:B2 *329:22 6.7842e-07
13 *295:16 *401:147 7.09118e-06
14 *295:39 *400:37 0
15 *295:39 *402:80 1.12894e-06
16 *607:B *295:16 0
17 *607:B *295:30 2.83874e-07
18 *607:B *295:39 2.04071e-05
19 *61:23 *295:8 5.21648e-06
20 *81:10 *295:30 4.00409e-06
21 *149:67 *295:16 0
22 *149:69 *295:20 1.4417e-05
23 *210:50 *295:39 1.35961e-06
24 *210:59 *295:30 2.00541e-05
25 *210:59 *295:39 3.52601e-06
26 *252:25 *295:39 0
*RES
1 *542:Y *295:8 38.9053 
2 *295:8 *295:10 17.2 
3 *295:10 *295:16 39.4112 
4 *295:16 *295:20 29.501 
5 *295:20 *295:30 46.5062 
6 *295:30 *607:A1 17.2 
7 *295:20 *295:37 17.2 
8 *295:37 *295:39 34.3531 
9 *295:39 *652:B2 35.4697 
10 *295:10 *674:A 17.2 
*END

*D_NET *296 0.000461677
*CONN
*I *673:A I *D HAxp5_ASAP7_75t_SL
*I *611:A1 I *D OA21x2_ASAP7_75t_SL
*I *653:B2 I *D OA222x2_ASAP7_75t_SL
*I *541:Y O *D INVx1_ASAP7_75t_SL
*CAP
1 *673:A 3.4055e-05
2 *611:A1 0
3 *653:B2 2.55518e-06
4 *541:Y 0
5 *296:46 5.03741e-05
6 *296:26 2.79572e-05
7 *296:18 3.25107e-05
8 *296:10 2.46399e-05
9 *296:6 3.8605e-05
10 *296:4 3.73929e-05
11 *296:6 *349:6 9.67506e-05
12 *296:10 *400:20 3.00843e-05
13 *296:26 *402:107 3.76935e-06
14 *611:B *296:6 1.96943e-05
15 *653:B1 *296:26 5.0551e-07
16 *20:37 *296:26 8.33296e-06
17 *58:17 *673:A 0
18 *146:106 *296:6 1.51001e-05
19 *146:117 *296:10 0
20 *210:86 *296:10 0
21 *210:86 *296:18 5.19498e-06
22 *255:29 *296:10 5.37569e-06
23 *255:29 *296:18 6.87388e-06
24 *255:29 *296:26 7.35354e-06
25 *276:32 *296:18 1.2768e-05
26 *276:32 *296:26 1.78333e-06
*RES
1 *541:Y *296:4 17.2 
2 *296:4 *296:6 29.4154 
3 *296:6 *296:10 33.5318 
4 *296:10 *296:18 42.0859 
5 *296:18 *296:26 48.4472 
6 *296:26 *653:B2 36.0045 
7 *296:6 *611:A1 17.2 
8 *296:4 *296:46 44.537 
9 *296:46 *673:A 32.7099 
*END

*D_NET *297 0.000536375
*CONN
*I *672:A I *D HAxp5_ASAP7_75t_SL
*I *654:B2 I *D OA222x2_ASAP7_75t_SL
*I *613:B I *D AND3x1_ASAP7_75t_SL
*I *540:Y O *D INVx1_ASAP7_75t_SL
*CAP
1 *672:A 0
2 *654:B2 0
3 *613:B 1.49811e-06
4 *540:Y 1.21521e-05
5 *297:46 3.78946e-05
6 *297:37 1.08656e-05
7 *297:20 3.75965e-05
8 *297:14 0.000130166
9 *297:12 9.17945e-05
10 *297:8 5.86394e-05
11 *297:14 *400:8 1.29045e-05
12 *297:20 *401:169 0
13 *297:20 *401:184 0
14 *297:20 *402:115 2.22736e-06
15 *297:20 *402:123 5.03576e-06
16 *297:20 *402:131 5.67735e-06
17 *297:20 *402:144 7.66607e-06
18 *654:B1 *297:37 5.85387e-06
19 *672:B *297:46 2.44497e-05
20 *20:43 *297:20 1.07377e-06
21 *55:6 *297:46 1.95129e-06
22 *55:13 *297:46 4.54484e-05
23 *213:83 *297:37 2.22736e-06
24 *260:10 *613:B 4.06202e-06
25 *276:51 *297:14 3.68287e-06
26 *276:51 *297:20 5.62196e-06
27 *276:51 *297:37 1.98844e-05
28 *276:62 *297:37 4.83862e-06
29 *279:77 *297:14 3.16328e-06
*RES
1 *540:Y *297:8 43.4107 
2 *297:8 *297:12 21.7053 
3 *297:12 *297:14 54.0173 
4 *297:14 *297:20 42.6238 
5 *297:20 *613:B 35.4697 
6 *297:14 *297:37 43.8888 
7 *297:37 *654:B2 17.2 
8 *297:8 *297:46 39.1278 
9 *297:46 *672:A 17.2 
*END

*D_NET *298 0.000512195
*CONN
*I *655:B2 I *D OA222x2_ASAP7_75t_SL
*I *617:B I *D AND3x1_ASAP7_75t_SL
*I *671:A I *D HAxp5_ASAP7_75t_SL
*I *539:Y O *D INVx1_ASAP7_75t_SL
*CAP
1 *655:B2 9.81687e-06
2 *617:B 2.28811e-05
3 *671:A 2.58847e-05
4 *539:Y 2.00842e-05
5 *298:37 5.89552e-05
6 *298:31 2.89265e-05
7 *298:25 7.63727e-05
8 *298:23 7.37033e-05
9 *298:10 4.59689e-05
10 *617:B *351:34 1.04475e-06
11 *655:B2 *351:24 1.12901e-05
12 *298:25 *351:12 5.39412e-05
13 *298:25 *351:24 5.19552e-07
14 *298:31 *351:18 6.33206e-07
15 *298:31 *399:22 5.52807e-07
16 *298:37 *351:24 3.54169e-05
17 *617:C *617:B 2.90209e-08
18 *619:B1 *617:B 1.66584e-05
19 *619:C *655:B2 4.43244e-06
20 *52:25 *671:A 0
21 *52:25 *298:10 0
22 *146:117 *298:31 3.76935e-06
23 *276:74 *655:B2 1.12254e-05
24 *276:74 *298:37 1.00883e-05
25 *279:71 *655:B2 0
26 *279:71 *298:37 0
*RES
1 *539:Y *298:10 46.0848 
2 *298:10 *671:A 49.1804 
3 *298:10 *298:23 17.2 
4 *298:23 *298:25 40.1119 
5 *298:25 *298:31 37.2158 
6 *298:31 *298:37 39.5246 
7 *298:37 *617:B 47.7706 
8 *298:37 *655:B2 44.537 
*END

*D_NET *299 0.000722582
*CONN
*I *670:A I *D HAxp5_ASAP7_75t_SL
*I *623:A1 I *D OA21x2_ASAP7_75t_SL
*I *656:B2 I *D OA222x2_ASAP7_75t_SL
*I *538:Y O *D INVx1_ASAP7_75t_SL
*CAP
1 *670:A 2.2097e-05
2 *623:A1 0
3 *656:B2 7.36151e-06
4 *538:Y 0
5 *299:46 6.82491e-05
6 *299:44 7.53619e-05
7 *299:40 3.79318e-05
8 *299:20 4.4989e-05
9 *299:14 5.14302e-05
10 *299:8 7.86111e-05
11 *299:4 7.35304e-05
12 *299:14 *399:60 6.31056e-06
13 *299:20 *352:37 0
14 *299:20 *392:10 0
15 *299:46 *300:20 2.21123e-06
16 *299:46 *320:22 4.45472e-06
17 *299:46 *402:218 7.31006e-05
18 *538:A *299:8 0
19 *622:C *299:20 1.62854e-06
20 *623:A2 *299:14 2.6409e-06
21 *623:A2 *299:20 2.45028e-06
22 *46:22 *299:46 1.32842e-05
23 *46:28 *299:46 5.49212e-07
24 *49:33 *670:A 5.30786e-06
25 *85:10 *299:8 0
26 *102:10 *299:46 3.76935e-06
27 *146:125 *299:20 2.83874e-07
28 *146:129 *299:44 9.58962e-05
29 *210:110 *299:20 4.1643e-05
30 *266:10 *299:14 8.71771e-06
31 *266:10 *299:20 0
32 *276:93 *656:B2 7.72307e-07
*RES
1 *538:Y *299:4 17.2 
2 *299:4 *299:8 47.685 
3 *299:8 *299:14 29.2212 
4 *299:14 *299:20 47.9191 
5 *299:20 *656:B2 38.6786 
6 *299:14 *623:A1 17.2 
7 *299:4 *299:40 40.0317 
8 *299:40 *299:44 46.6154 
9 *299:44 *299:46 40.548 
10 *299:46 *670:A 45.6313 
*END

*D_NET *300 0.000546054
*CONN
*I *669:B I *D HAxp5_ASAP7_75t_SL
*I *628:A1 I *D OA22x2_ASAP7_75t_SL
*I *658:B2 I *D OA222x2_ASAP7_75t_SL
*I *537:Y O *D INVx1_ASAP7_75t_SL
*CAP
1 *669:B 0
2 *628:A1 4.63328e-06
3 *658:B2 0
4 *537:Y 0
5 *300:50 6.05502e-05
6 *300:48 7.21464e-05
7 *300:26 4.83683e-05
8 *300:20 8.18927e-05
9 *300:16 5.54966e-05
10 *300:12 4.05238e-05
11 *300:4 3.47811e-05
12 *628:A1 *399:86 2.05897e-06
13 *628:A1 *402:218 0
14 *300:12 *352:20 2.96334e-06
15 *300:20 *320:22 2.0153e-05
16 *300:20 *399:86 3.39128e-05
17 *300:26 *658:A1 1.09842e-06
18 *300:26 *402:214 1.12894e-06
19 *300:50 *353:16 0
20 *300:50 *353:24 0
21 *300:50 *353:41 0
22 *300:50 *401:281 2.22736e-06
23 *628:B1 *300:12 1.66706e-05
24 *658:B1 *300:26 5.66897e-06
25 *46:18 *300:26 9.50756e-06
26 *46:57 *300:50 0
27 *51:10 *300:50 2.05045e-06
28 *146:129 *628:A1 1.44167e-06
29 *146:136 *300:12 7.38275e-06
30 *146:136 *300:48 9.83747e-06
31 *159:37 *300:50 3.25708e-06
32 *162:10 *300:50 0
33 *276:116 *300:12 9.24107e-06
34 *279:42 *300:26 7.34229e-06
35 *279:55 *300:26 9.50756e-06
36 *279:119 *300:50 0
37 *299:46 *300:20 2.21123e-06
*RES
1 *537:Y *300:4 17.2 
2 *300:4 *300:12 47.8468 
3 *300:12 *300:16 22.1781 
4 *300:16 *300:20 45.8276 
5 *300:20 *300:26 43.6332 
6 *300:26 *658:B2 34.4 
7 *300:16 *628:A1 37.8162 
8 *300:4 *300:48 24.1527 
9 *300:48 *300:50 40.548 
10 *300:50 *669:B 34.4 
*END

*D_NET *301 0.000413032
*CONN
*I *633:A1 I *D OA22x2_ASAP7_75t_SL
*I *660:B2 I *D OA222x2_ASAP7_75t_SL
*I *668:A I *D HAxp5_ASAP7_75t_SL
*I *536:Y O *D INVx1_ASAP7_75t_SL
*CAP
1 *633:A1 0
2 *660:B2 0
3 *668:A 2.45794e-05
4 *536:Y 1.42695e-05
5 *301:39 2.52804e-05
6 *301:33 6.63913e-05
7 *301:29 4.41293e-05
8 *301:23 3.74249e-05
9 *301:8 7.32553e-05
10 *668:A *354:10 2.68933e-07
11 *301:8 *354:10 1.10561e-06
12 *301:8 *401:299 0
13 *301:39 *353:41 0
14 *633:A2 *301:33 1.35684e-06
15 *660:B1 *301:39 2.96818e-06
16 *660:C1 *301:39 5.62196e-06
17 *660:C2 *301:39 5.22376e-07
18 *43:12 *301:33 1.27255e-05
19 *45:18 *668:A 9.93857e-06
20 *103:10 *301:39 9.08513e-06
21 *141:36 *301:23 8.44508e-06
22 *141:36 *301:29 1.12894e-06
23 *141:36 *301:33 1.2768e-05
24 *141:42 *301:33 1.52773e-05
25 *147:62 *668:A 2.68933e-06
26 *147:62 *301:8 5.52807e-07
27 *147:66 *301:23 2.12481e-06
28 *147:73 *301:23 4.49469e-06
29 *213:302 *668:A 0
30 *232:52 *301:29 3.47607e-06
31 *285:8 *301:33 2.6409e-06
32 *285:8 *301:39 3.0511e-05
*RES
1 *536:Y *301:8 43.4107 
2 *301:8 *668:A 49.9703 
3 *301:8 *301:23 33.7796 
4 *301:23 *301:29 37.2158 
5 *301:29 *301:33 48.7547 
6 *301:33 *301:39 37.6651 
7 *301:39 *660:B2 17.2 
8 *301:29 *633:A1 17.2 
*END

*D_NET *302 0.000315382
*CONN
*I *560:A1 I *D AO221x1_ASAP7_75t_SL
*I *640:C2 I *D OA222x2_ASAP7_75t_SL
*I *677:B I *D HAxp5_ASAP7_75t_SL
*I *411:Y O *D INVx1_ASAP7_75t_SL
*CAP
1 *560:A1 0
2 *640:C2 0
3 *677:B 2.03491e-05
4 *411:Y 2.11715e-05
5 *302:38 4.12153e-05
6 *302:30 3.12681e-05
7 *302:26 5.81279e-05
8 *302:20 6.08347e-05
9 *302:14 2.00644e-05
10 *302:10 2.81273e-05
11 *677:B *304:12 2.11853e-06
12 *677:B *339:6 4.10256e-06
13 *677:B *339:12 4.92332e-06
14 *302:20 *560:B2 5.38904e-07
15 *302:38 *304:12 0
16 *302:38 *339:12 0
17 *560:A2 *302:14 3.65467e-06
18 *640:B1 *302:20 5.24059e-07
19 *697:D *302:26 0
20 *5:14 *302:10 1.04475e-06
21 *70:6 *302:26 1.63292e-06
22 *210:169 *302:10 4.19247e-06
23 *210:169 *302:20 0
24 *216:24 *302:10 9.34096e-06
25 *216:24 *302:20 1.86407e-06
26 *217:8 *302:14 2.86376e-07
27 *279:250 *302:20 0
*RES
1 *411:Y *302:10 45.8581 
2 *302:10 *302:14 20.9438 
3 *302:14 *302:20 42.2843 
4 *302:20 *302:26 39.7513 
5 *302:26 *302:30 22.5483 
6 *302:30 *302:38 46.6196 
7 *302:38 *677:B 29.501 
8 *302:30 *640:C2 17.2 
9 *302:14 *560:A1 17.2 
*END

*D_NET *303 0.000377322
*CONN
*I *598:A1 I *D AO221x2_ASAP7_75t_SL
*I *661:CI I *D FAx1_ASAP7_75t_SL
*I *649:C2 I *D OA222x2_ASAP7_75t_SL
*I *410:Y O *D INVx1_ASAP7_75t_SL
*CAP
1 *598:A1 0
2 *661:CI 0
3 *649:C2 0
4 *410:Y 6.4177e-06
5 *303:36 1.98162e-05
6 *303:25 6.69403e-05
7 *303:14 1.31682e-05
8 *303:6 6.671e-05
9 *303:6 *400:63 1.04475e-06
10 *303:25 *346:10 9.67723e-06
11 *303:25 *346:25 6.85075e-06
12 *303:36 *346:25 4.0915e-05
13 *598:B1 *303:36 5.9771e-06
14 *598:C *303:36 7.9549e-06
15 *649:B1 *303:14 0
16 *22:22 *303:36 1.9425e-05
17 *22:24 *303:36 6.44983e-06
18 *24:6 *303:25 5.23062e-06
19 *24:6 *303:36 2.52629e-05
20 *213:34 *303:36 5.62196e-06
21 *279:170 *303:14 1.49667e-05
22 *293:14 *303:6 2.03526e-06
23 *293:14 *303:25 3.35031e-05
24 *293:24 *303:14 1.12901e-05
25 *293:37 *303:14 8.06436e-06
*RES
1 *410:Y *303:6 19.8741 
2 *303:6 *303:14 45.6066 
3 *303:14 *649:C2 17.2 
4 *303:6 *303:25 46.8988 
5 *303:25 *661:CI 17.2 
6 *303:25 *303:36 42.7902 
7 *303:36 *598:A1 17.2 
*END

*D_NET *304 0.000153951
*CONN
*I *640:A2 I *D OA222x2_ASAP7_75t_SL
*I *639:Y O *D BUFx2_ASAP7_75t_SL
*CAP
1 *640:A2 0
2 *639:Y 0
3 *304:20 7.51776e-06
4 *304:12 3.74475e-05
5 *304:6 2.99298e-05
6 *304:12 *339:12 7.88701e-06
7 *304:12 *339:31 4.86436e-05
8 *304:20 *339:12 1.31716e-05
9 *304:20 *402:482 6.7842e-07
10 *677:B *304:12 2.11853e-06
11 *71:8 *304:20 5.97901e-06
12 *208:29 *304:20 1.40419e-08
13 *280:13 *304:12 5.63702e-07
14 *302:38 *304:12 0
*RES
1 *639:Y *304:6 34.4 
2 *304:6 *304:12 42.9072 
3 *304:12 *304:20 41.0446 
4 *304:20 *640:A2 17.2 
*END

*D_NET *305 0.000312727
*CONN
*I *641:A2 I *D OA222x2_ASAP7_75t_SL
*I *636:Y O *D BUFx2_ASAP7_75t_SL
*CAP
1 *641:A2 0
2 *636:Y 0
3 *305:20 1.72991e-05
4 *305:12 0.000108301
5 *305:10 0.000122173
6 *305:6 3.11713e-05
7 *210:188 *305:20 9.82791e-06
8 *213:163 *305:20 3.91501e-06
9 *213:232 *305:20 4.59343e-06
10 *276:292 *305:20 8.37418e-06
11 *276:301 *305:20 3.17005e-06
12 *287:50 *305:20 3.90258e-06
*RES
1 *636:Y *305:6 34.4 
2 *305:6 *305:10 39.7266 
3 *305:10 *305:12 50.8084 
4 *305:12 *305:20 49.2937 
5 *305:20 *641:A2 17.2 
*END

*D_NET *306 0.00034529
*CONN
*I *643:A2 I *D OA222x2_ASAP7_75t_SL
*I *634:Y O *D BUFx2_ASAP7_75t_SL
*CAP
1 *643:A2 0
2 *634:Y 1.55314e-05
3 *306:20 2.09156e-05
4 *306:12 0.000106507
5 *306:10 8.55912e-05
6 *306:8 1.55314e-05
7 *306:12 *307:6 0
8 *306:20 *341:18 1.3687e-06
9 *643:B1 *306:20 8.96003e-06
10 *643:B2 *306:20 8.13589e-06
11 *643:C1 *306:20 6.45414e-06
12 *37:20 *306:20 5.44668e-07
13 *149:156 *306:8 0
14 *215:13 *306:12 1.06856e-05
15 *276:284 *306:20 1.24803e-05
16 *279:275 *306:12 5.25839e-05
*RES
1 *634:Y *306:8 46.2265 
2 *306:8 *306:10 17.2 
3 *306:10 *306:12 41.1815 
4 *306:12 *306:20 49.237 
5 *306:20 *643:A2 17.2 
*END

*D_NET *307 0.000519936
*CONN
*I *644:A2 I *D OA222x2_ASAP7_75t_SL
*I *558:Y O *D BUFx2_ASAP7_75t_SL
*CAP
1 *644:A2 0
2 *558:Y 0
3 *307:22 5.51222e-06
4 *307:14 0.000112147
5 *307:12 0.000108567
6 *307:6 7.55724e-05
7 *307:4 7.36403e-05
8 *307:6 *402:359 5.00816e-06
9 *307:12 *341:18 9.67723e-06
10 *307:12 *402:359 9.94583e-06
11 *307:14 *644:A1 1.95129e-06
12 *307:14 *402:340 2.52755e-07
13 *307:22 *644:A1 6.7842e-07
14 *307:22 *401:112 4.10378e-06
15 *568:C *307:14 1.21307e-05
16 *37:34 *307:14 3.90258e-06
17 *147:136 *307:14 0
18 *147:136 *307:22 7.79797e-06
19 *147:157 *307:14 0
20 *213:175 *307:6 2.27303e-05
21 *215:13 *307:6 4.17901e-06
22 *223:8 *307:14 2.80323e-06
23 *225:29 *307:14 3.89037e-06
24 *279:275 *307:6 2.03608e-06
25 *288:8 *307:14 4.75553e-05
26 *289:12 *307:14 5.85387e-06
27 *306:12 *307:6 0
*RES
1 *558:Y *307:4 17.2 
2 *307:4 *307:6 35.8333 
3 *307:6 *307:12 37.779 
4 *307:12 *307:14 44.3905 
5 *307:14 *307:22 40.4815 
6 *307:22 *644:A2 17.2 
*END

*D_NET *308 0.000925711
*CONN
*I *646:A2 I *D OA222x2_ASAP7_75t_SL
*I *557:Y O *D BUFx2_ASAP7_75t_SL
*CAP
1 *646:A2 7.79317e-06
2 *557:Y 4.0605e-05
3 *308:34 2.06487e-05
4 *308:26 0.000148608
5 *308:24 0.000188236
6 *308:20 6.00548e-05
7 *308:14 0.000139769
8 *308:12 0.000136283
9 *308:6 4.46908e-05
10 *308:12 *309:10 5.52807e-07
11 *308:12 *362:19 6.33206e-07
12 *308:14 *820:A 2.16348e-05
13 *308:14 *397:21 6.45454e-06
14 *503:B *308:20 7.93104e-06
15 *530:A1 *308:26 0
16 *557:A *308:6 9.9223e-06
17 *646:B2 *646:A2 3.89037e-06
18 *664:B *308:26 0
19 *664:B *308:34 2.89387e-06
20 *31:26 *308:26 0
21 *31:34 *308:26 1.15587e-05
22 *32:8 *308:26 1.62854e-06
23 *35:10 *308:26 0
24 *35:21 *308:26 0
25 *35:32 *308:26 0
26 *35:43 *308:26 0
27 *38:44 *308:26 1.00384e-05
28 *38:56 *308:26 1.22513e-05
29 *132:10 *308:20 9.05845e-06
30 *149:182 *308:12 0
31 *179:6 *308:24 2.52088e-05
32 *188:16 *308:26 8.52021e-06
33 *191:25 *308:26 0
34 *276:337 *646:A2 2.20493e-06
35 *276:337 *308:34 4.60945e-06
36 *279:322 *308:34 0
37 *290:10 *308:34 3.05118e-08
*RES
1 *557:Y *308:6 42.3368 
2 *308:6 *308:12 37.2158 
3 *308:12 *308:14 77.5496 
4 *308:14 *308:20 42.2843 
5 *308:20 *308:24 47.685 
6 *308:24 *308:26 107.002 
7 *308:26 *308:34 42.1426 
8 *308:34 *646:A2 39.2134 
*END

*D_NET *309 0.000280323
*CONN
*I *647:A2 I *D OA222x2_ASAP7_75t_SL
*I *554:Y O *D BUFx2_ASAP7_75t_SL
*CAP
1 *647:A2 3.85773e-06
2 *554:Y 0
3 *309:24 2.8441e-05
4 *309:16 7.65567e-05
5 *309:10 9.02236e-05
6 *309:6 3.82501e-05
7 *309:10 *362:19 0
8 *309:24 *397:59 1.50458e-05
9 *309:24 *402:399 3.05118e-08
10 *636:A *309:10 1.30911e-06
11 *647:B2 *647:A2 5.85387e-06
12 *647:C2 *309:16 6.53938e-06
13 *647:C2 *309:24 2.52755e-07
14 *28:8 *309:10 0
15 *93:8 *309:16 6.33206e-07
16 *149:182 *309:10 0
17 *211:13 *309:10 9.51745e-07
18 *213:240 *309:16 1.12894e-06
19 *276:301 *309:24 0
20 *276:363 *309:24 1.44639e-06
21 *279:292 *309:16 3.6269e-06
22 *279:301 *309:16 7.84037e-07
23 *291:25 *309:24 4.83862e-06
24 *308:12 *309:10 5.52807e-07
*RES
1 *554:Y *309:6 34.4 
2 *309:6 *309:10 45.3583 
3 *309:10 *309:16 49.4312 
4 *309:16 *309:24 48.5605 
5 *309:24 *647:A2 36.5393 
*END

*D_NET *310 0.000307058
*CONN
*I *648:A2 I *D OA222x2_ASAP7_75t_SL
*I *461:Y O *D BUFx2_ASAP7_75t_SL
*CAP
1 *648:A2 8.46957e-06
2 *461:Y 4.2058e-05
3 *310:26 4.6155e-05
4 *310:20 4.64729e-05
5 *310:14 4.69229e-05
6 *310:6 8.01934e-05
7 *310:26 *397:70 9.52255e-07
8 *595:A2 *310:26 5.51397e-07
9 *595:B *310:26 1.44167e-06
10 *648:B1 *648:A2 3.90258e-06
11 *78:12 *310:20 6.33206e-07
12 *94:8 *648:A2 1.56713e-06
13 *150:13 *310:6 6.86929e-06
14 *210:218 *310:20 0
15 *213:251 *310:20 1.73917e-06
16 *245:10 *310:20 0
17 *276:325 *648:A2 3.56648e-06
18 *276:325 *310:26 8.52654e-07
19 *279:301 *310:20 0
20 *279:301 *310:26 5.22486e-06
21 *279:312 *310:26 2.35211e-06
22 *292:27 *648:A2 7.13384e-06
*RES
1 *461:Y *310:6 38.0582 
2 *310:6 *310:14 47.8269 
3 *310:14 *310:20 40.6887 
4 *310:20 *310:26 35.1893 
5 *310:26 *648:A2 40.8179 
*END

*D_NET *311 4.41898e-05
*CONN
*I *559:A2 I *D AO21x1_ASAP7_75t_SL
*I *452:Y O *D BUFx2_ASAP7_75t_SL
*CAP
1 *559:A2 1.27501e-05
2 *452:Y 7.81832e-06
3 *311:8 2.05684e-05
4 *311:8 *401:49 0
5 *559:B *559:A2 3.05302e-06
*RES
1 *452:Y *311:8 38.9053 
2 *311:8 *559:A2 42.4224 
*END

*D_NET *312 6.61832e-05
*CONN
*I *597:A2 I *D AO21x1_ASAP7_75t_SL
*I *438:Y O *D BUFx2_ASAP7_75t_SL
*CAP
1 *597:A2 0
2 *438:Y 1.35831e-05
3 *312:8 1.35831e-05
4 *312:8 *347:10 2.95901e-05
5 *312:8 *388:8 4.7643e-07
6 *312:8 *401:20 7.92402e-06
7 *312:8 *401:127 1.02642e-06
*RES
1 *438:Y *312:8 48.4791 
2 *312:8 *597:A2 34.4 
*END

*D_NET *313 0.000189392
*CONN
*I *602:A2 I *D AO221x2_ASAP7_75t_SL
*I *429:Y O *D BUFx2_ASAP7_75t_SL
*CAP
1 *602:A2 5.62103e-06
2 *429:Y 0
3 *313:8 8.60489e-05
4 *313:6 8.04279e-05
5 *313:8 *401:127 0
6 *313:8 *401:232 0
7 *313:8 *401:239 0
8 *602:C *602:A2 3.68287e-06
9 *23:12 *313:8 3.79923e-06
10 *79:8 *313:8 1.12894e-06
11 *247:12 *313:8 6.78309e-06
12 *250:12 *313:8 1.89962e-06
*RES
1 *429:Y *313:6 34.4 
2 *313:6 *313:8 57.4429 
3 *313:8 *602:A2 37.609 
*END

*D_NET *314 0.000121827
*CONN
*I *605:A2 I *D AO21x1_ASAP7_75t_SL
*I *428:Y O *D BUFx2_ASAP7_75t_SL
*CAP
1 *605:A2 0
2 *428:Y 8.06722e-06
3 *314:12 4.49969e-05
4 *314:8 5.30641e-05
5 *149:46 *314:12 1.56984e-05
*RES
1 *428:Y *314:8 38.9053 
2 *314:8 *314:12 45.5457 
3 *314:12 *605:A2 17.2 
*END

*D_NET *315 0.000101901
*CONN
*I *649:A2 I *D OA222x2_ASAP7_75t_SL
*I *424:Y O *D BUFx2_ASAP7_75t_SL
*CAP
1 *649:A2 0
2 *424:Y 4.47746e-06
3 *315:14 3.07294e-05
4 *315:8 3.52069e-05
5 *315:14 *649:A1 5.85387e-06
6 *315:14 *402:45 2.28856e-05
7 *67:8 *315:14 2.90209e-08
8 *279:182 *315:14 2.71839e-06
*RES
1 *424:Y *315:8 36.0045 
2 *315:8 *315:14 41.8659 
3 *315:14 *649:A2 17.2 
*END

*D_NET *316 2.72338e-05
*CONN
*I *609:A2 I *D AO21x1_ASAP7_75t_SL
*I *416:Y O *D BUFx2_ASAP7_75t_SL
*CAP
1 *609:A2 5.18756e-06
2 *416:Y 5.18756e-06
3 *609:A2 *349:12 1.36155e-06
4 *609:A2 *349:16 6.6195e-06
5 *609:A2 *401:167 8.87763e-06
*RES
1 *416:Y *609:A2 39.7482 
*END

*D_NET *317 9.34002e-05
*CONN
*I *614:A2 I *D AO21x1_ASAP7_75t_SL
*I *414:Y O *D BUFx2_ASAP7_75t_SL
*CAP
1 *614:A2 0
2 *414:Y 6.89432e-06
3 *317:12 3.35291e-05
4 *317:8 4.04234e-05
5 *317:8 *371:21 2.25039e-06
6 *317:12 *614:A1 2.0895e-06
7 *317:12 *371:21 2.96155e-06
8 *614:B *317:12 1.36155e-06
9 *259:8 *317:12 3.89037e-06
*RES
1 *414:Y *317:8 39.4685 
2 *317:8 *317:12 34.3144 
3 *317:12 *614:A2 17.2 
*END

*D_NET *318 0.000151713
*CONN
*I *618:A2 I *D AO21x1_ASAP7_75t_SL
*I *412:Y O *D BUFx2_ASAP7_75t_SL
*CAP
1 *618:A2 1.85473e-05
2 *412:Y 4.60149e-05
3 *318:12 2.49266e-05
4 *318:6 5.23943e-05
5 *318:6 *817:A 7.62902e-06
6 *318:12 *319:8 2.20128e-06
7 *318:12 *401:188 0
*RES
1 *412:Y *318:6 36.9885 
2 *318:6 *318:12 39.4685 
3 *318:12 *618:A2 27.8965 
*END

*D_NET *319 0.000130386
*CONN
*I *621:A2 I *D AO21x1_ASAP7_75t_SL
*I *817:Y O *D BUFx2_ASAP7_75t_SL
*CAP
1 *621:A2 1.85344e-05
2 *817:Y 0
3 *319:8 6.38166e-05
4 *319:6 4.52822e-05
5 *621:A2 *401:201 5.51397e-07
6 *319:8 *375:9 0
7 *319:8 *401:188 0
8 *319:8 *401:201 0
9 *318:12 *319:8 2.20128e-06
*RES
1 *817:Y *319:6 34.4 
2 *319:6 *319:8 33.2268 
3 *319:8 *621:A2 44.5617 
*END

*D_NET *320 0.000619905
*CONN
*I *627:A2 I *D AO221x2_ASAP7_75t_SL
*I *818:Y O *D BUFx2_ASAP7_75t_SL
*CAP
1 *627:A2 0
2 *818:Y 0
3 *320:22 6.83359e-06
4 *320:14 9.53688e-05
5 *320:12 9.15444e-05
6 *320:6 0.000106242
7 *320:4 0.000103232
8 *320:14 *353:28 2.7707e-05
9 *620:A *320:14 4.69725e-05
10 *656:C2 *320:14 2.66207e-05
11 *146:125 *320:12 1.31716e-05
12 *210:110 *320:12 5.66897e-06
13 *264:8 *320:14 3.03035e-05
14 *265:14 *320:6 2.38044e-05
15 *269:12 *320:22 5.41446e-06
16 *276:93 *320:14 1.24131e-05
17 *299:46 *320:22 4.45472e-06
18 *300:20 *320:22 2.0153e-05
*RES
1 *818:Y *320:4 17.2 
2 *320:4 *320:6 47.5994 
3 *320:6 *320:12 38.9053 
4 *320:12 *320:14 70.0621 
5 *320:14 *320:22 42.7625 
6 *320:22 *627:A2 17.2 
*END

*D_NET *321 6.66697e-05
*CONN
*I *632:A2 I *D AO221x2_ASAP7_75t_SL
*I *819:Y O *D BUFx2_ASAP7_75t_SL
*CAP
1 *632:A2 1.1834e-05
2 *819:Y 2.15009e-05
3 *321:8 3.33348e-05
4 *321:8 *354:23 0
*RES
1 *819:Y *321:8 48.4791 
2 *321:8 *632:A2 40.8179 
*END

*D_NET *322 3.76877e-05
*CONN
*I *563:A2 I *D AO21x1_ASAP7_75t_SL
*I *820:Y O *D BUFx2_ASAP7_75t_SL
*CAP
1 *563:A2 5.99216e-06
2 *820:Y 4.96719e-06
3 *322:8 1.09594e-05
4 *149:180 *563:A2 2.30405e-06
5 *210:203 *322:8 1.28682e-05
6 *213:240 *322:8 0
7 *219:10 *563:A2 5.96787e-07
*RES
1 *820:Y *322:8 38.9053 
2 *322:8 *563:A2 37.609 
*END

*D_NET *323 0.000150573
*CONN
*I *567:B I *D NOR2x1_ASAP7_75t_SL
*I *821:Y O *D BUFx2_ASAP7_75t_SL
*CAP
1 *567:B 0
2 *821:Y 5.37582e-05
3 *323:12 3.25973e-06
4 *323:6 5.70179e-05
5 *323:6 *363:13 4.17901e-06
6 *323:12 *341:18 1.54378e-05
7 *569:C *323:12 8.58704e-06
8 *213:175 *323:12 0
9 *213:181 *323:6 6.29754e-06
10 *223:8 *323:6 2.03526e-06
*RES
1 *821:Y *323:6 41.2671 
2 *323:6 *323:12 39.4685 
3 *323:12 *567:B 17.2 
*END

*D_NET *324 0.000112417
*CONN
*I *577:A2 I *D AO21x1_ASAP7_75t_SL
*I *822:Y O *D BUFx2_ASAP7_75t_SL
*CAP
1 *577:A2 0
2 *822:Y 6.60438e-06
3 *324:12 3.46936e-05
4 *324:8 4.1298e-05
5 *324:8 *341:35 5.06565e-06
6 *324:12 *840:A 3.65131e-06
7 *149:167 *324:12 5.09299e-06
8 *231:6 *324:12 1.60115e-05
*RES
1 *822:Y *324:8 38.9053 
2 *324:8 *324:12 39.6627 
3 *324:12 *577:A2 17.2 
*END

*D_NET *325 1.80788e-05
*CONN
*I *580:A I *D INVx1_ASAP7_75t_SL
*I *823:Y O *D BUFx2_ASAP7_75t_SL
*CAP
1 *580:A 3.73918e-06
2 *823:Y 4.7549e-06
3 *325:8 8.49408e-06
4 *149:212 *325:8 1.09067e-06
*RES
1 *823:Y *325:8 37.779 
2 *325:8 *580:A 36.0045 
*END

*D_NET *326 0.000193098
*CONN
*I *651:A2 I *D OA222x2_ASAP7_75t_SL
*I *824:Y O *D BUFx2_ASAP7_75t_SL
*CAP
1 *651:A2 2.14792e-06
2 *824:Y 6.06513e-06
3 *326:10 5.51872e-05
4 *326:8 5.91044e-05
5 *326:8 *402:14 4.7125e-06
6 *326:10 *402:18 1.33702e-06
7 *326:10 *402:255 8.97937e-06
8 *210:16 *326:10 1.57186e-05
9 *276:158 *326:10 1.00079e-05
10 *279:160 *326:10 2.98375e-05
*RES
1 *824:Y *326:8 37.0741 
2 *326:8 *326:10 46.7428 
3 *326:10 *651:A2 35.4697 
*END

*D_NET *327 9.12848e-05
*CONN
*I *588:A2 I *D AO21x1_ASAP7_75t_SL
*I *825:Y O *D BUFx2_ASAP7_75t_SL
*CAP
1 *588:A2 0
2 *825:Y 8.06722e-06
3 *327:12 3.53546e-05
4 *327:8 4.34218e-05
5 *588:B *327:12 3.68287e-06
6 *28:12 *327:12 7.58265e-07
*RES
1 *825:Y *327:8 38.9053 
2 *327:8 *327:12 38.0582 
3 *327:12 *588:A2 17.2 
*END

*D_NET *328 9.46084e-05
*CONN
*I *593:A2 I *D AO21x1_ASAP7_75t_SL
*I *826:Y O *D BUFx2_ASAP7_75t_SL
*CAP
1 *593:A2 0
2 *826:Y 9.3768e-06
3 *328:12 3.42372e-05
4 *328:8 4.3614e-05
5 *328:8 *385:8 0
6 *149:208 *328:12 5.85387e-06
7 *244:10 *328:12 1.52651e-06
*RES
1 *826:Y *328:8 41.158 
2 *328:8 *328:12 37.5233 
3 *328:12 *593:A2 17.2 
*END

*D_NET *329 0.000205048
*CONN
*I *652:A2 I *D OA222x2_ASAP7_75t_SL
*I *827:Y O *D BUFx2_ASAP7_75t_SL
*CAP
1 *652:A2 0
2 *827:Y 1.73709e-05
3 *329:22 1.02636e-05
4 *329:14 7.73559e-05
5 *329:8 8.44632e-05
6 *329:14 *704:CLK 6.33206e-07
7 *329:14 *348:18 0
8 *652:B2 *329:22 6.7842e-07
9 *20:24 *329:8 5.80001e-06
10 *95:12 *329:8 8.4825e-06
11 *95:18 *329:14 0
12 *276:203 *329:22 0
*RES
1 *827:Y *329:8 45.6313 
2 *329:8 *329:14 49.3215 
3 *329:14 *329:22 40.5098 
4 *329:22 *652:A2 17.2 
*END

*D_NET *330 0.000104386
*CONN
*I *653:A2 I *D OA222x2_ASAP7_75t_SL
*I *828:Y O *D BUFx2_ASAP7_75t_SL
*CAP
1 *653:A2 8.70085e-06
2 *828:Y 3.34141e-05
3 *330:8 4.21149e-05
4 *653:A2 *402:113 6.7842e-07
5 *653:A2 *402:115 1.34257e-05
6 *20:37 *653:A2 1.12894e-06
7 *149:27 *330:8 4.92332e-06
*RES
1 *828:Y *330:8 49.9099 
2 *330:8 *653:A2 41.0446 
*END

*D_NET *331 0.000106223
*CONN
*I *654:A2 I *D OA222x2_ASAP7_75t_SL
*I *829:Y O *D BUFx2_ASAP7_75t_SL
*CAP
1 *654:A2 0
2 *829:Y 6.94602e-06
3 *331:12 3.60145e-05
4 *331:8 4.29605e-05
5 *331:8 *401:169 0
6 *331:12 *654:A1 2.03526e-06
7 *331:12 *402:123 2.03526e-06
8 *331:12 *402:131 1.62312e-05
*RES
1 *829:Y *331:8 38.9053 
2 *331:8 *331:12 38.593 
3 *331:12 *654:A2 17.2 
*END

*D_NET *332 4.11534e-05
*CONN
*I *655:A2 I *D OA222x2_ASAP7_75t_SL
*I *830:Y O *D BUFx2_ASAP7_75t_SL
*CAP
1 *655:A2 4.45954e-06
2 *830:Y 2.03494e-06
3 *332:8 6.49448e-06
4 *655:A2 *655:A1 7.63254e-07
5 *213:113 *332:8 1.36943e-05
6 *263:8 *655:A2 2.66797e-07
7 *276:74 *332:8 1.34402e-05
*RES
1 *830:Y *332:8 38.9053 
2 *332:8 *655:A2 36.5393 
*END

*D_NET *333 0.000138653
*CONN
*I *656:A2 I *D OA222x2_ASAP7_75t_SL
*I *831:Y O *D BUFx2_ASAP7_75t_SL
*CAP
1 *656:A2 0
2 *831:Y 4.66216e-05
3 *333:14 8.65754e-06
4 *333:6 5.52791e-05
5 *333:14 *392:10 1.98844e-05
6 *656:B1 *333:14 2.98532e-06
7 *276:89 *333:14 5.22486e-06
*RES
1 *831:Y *333:6 41.2671 
2 *333:6 *333:14 42.7625 
3 *333:14 *656:A2 17.2 
*END

*D_NET *334 0.000451663
*CONN
*I *658:A2 I *D OA222x2_ASAP7_75t_SL
*I *832:Y O *D BUFx2_ASAP7_75t_SL
*CAP
1 *658:A2 0
2 *832:Y 0
3 *334:14 8.00159e-06
4 *334:6 0.000225831
5 *334:4 0.00021783
6 *334:6 *402:182 0
7 *334:6 *402:197 0
*RES
1 *832:Y *334:4 17.2 
2 *334:4 *334:6 95.7337 
3 *334:6 *334:14 39.3551 
4 *334:14 *658:A2 17.2 
*END

*D_NET *335 0.00032949
*CONN
*I *660:A2 I *D OA222x2_ASAP7_75t_SL
*I *833:Y O *D BUFx2_ASAP7_75t_SL
*CAP
1 *660:A2 0
2 *833:Y 0
3 *335:14 6.19361e-05
4 *335:12 6.62833e-05
5 *335:6 9.56405e-05
6 *335:4 9.12933e-05
7 *335:14 *660:A1 1.43369e-05
*RES
1 *833:Y *335:4 17.2 
2 *335:4 *335:6 44.3905 
3 *335:6 *335:12 37.2158 
4 *335:12 *335:14 41.7164 
5 *335:14 *660:A2 17.2 
*END

*D_NET *336 0.000110036
*CONN
*I *859:A I *D BUFx3_ASAP7_75t_SL
*I *837:A I *D BUFx2_ASAP7_75t_SL
*I *413:Y O *D INVx1_ASAP7_75t_SL
*CAP
1 *859:A 1.90764e-05
2 *837:A 0
3 *413:Y 0
4 *336:12 2.95028e-05
5 *336:6 4.85792e-05
6 *859:A *413:A 1.21136e-05
7 *336:12 *413:A 7.64042e-07
*RES
1 *413:Y *336:6 34.4 
2 *336:6 *336:12 32.9367 
3 *336:12 *837:A 17.2 
4 *336:6 *859:A 49.3504 
*END

*D_NET *337 3.37453e-05
*CONN
*I *415:A I *D INVx1_ASAP7_75t_SL
*I *834:Y O *D BUFx2_ASAP7_75t_SL
*CAP
1 *415:A 0
2 *834:Y 1.48956e-05
3 *337:10 1.48956e-05
4 *337:10 *338:10 3.70913e-06
5 *337:10 *378:13 2.45021e-07
*RES
1 *834:Y *337:10 41.5228 
2 *337:10 *415:A 34.4 
*END

*D_NET *338 0.000520601
*CONN
*I *465:C I *D AO221x1_ASAP7_75t_SL
*I *463:A I *D INVx1_ASAP7_75t_SL
*I *455:A I *D NOR2x1_ASAP7_75t_SL
*I *835:Y O *D BUFx2_ASAP7_75t_SL
*CAP
1 *465:C 8.03114e-06
2 *463:A 4.61638e-06
3 *455:A 0
4 *835:Y 3.1627e-06
5 *338:31 3.99047e-05
6 *338:29 3.52883e-05
7 *338:20 1.98786e-05
8 *338:14 2.85212e-05
9 *338:10 3.3755e-05
10 *338:8 2.0244e-05
11 *465:C *355:18 8.06923e-06
12 *465:C *356:20 7.21451e-07
13 *465:C *401:28 4.7643e-07
14 *338:8 *854:A 5.19475e-06
15 *338:10 *356:20 4.49906e-06
16 *338:10 *376:15 5.6418e-06
17 *338:14 *401:22 4.63247e-05
18 *338:20 *401:22 5.7592e-05
19 *338:31 *402:12 4.10683e-05
20 *20:14 *338:20 1.36141e-05
21 *106:12 *338:14 2.03466e-05
22 *106:12 *338:20 8.20846e-06
23 *106:12 *338:31 4.90042e-07
24 *106:27 *465:C 1.59336e-05
25 *144:10 *338:31 9.53097e-05
26 *337:10 *338:10 3.70913e-06
*RES
1 *835:Y *338:8 36.0045 
2 *338:8 *338:10 15.2055 
3 *338:10 *338:14 29.501 
4 *338:14 *338:20 38.3983 
5 *338:20 *455:A 34.4 
6 *338:14 *338:29 17.2 
7 *338:29 *338:31 39.4216 
8 *338:31 *463:A 36.0045 
9 *338:10 *465:C 42.2843 
*END

*D_NET *339 0.000314721
*CONN
*I *838:A I *D BUFx2_ASAP7_75t_SL
*I *560:B2 I *D AO221x1_ASAP7_75t_SL
*I *677:SN O *D HAxp5_ASAP7_75t_SL
*CAP
1 *838:A 1.02297e-05
2 *560:B2 1.31501e-05
3 *677:SN 4.96372e-06
4 *339:31 3.54498e-05
5 *339:18 1.83609e-05
6 *339:12 3.56805e-05
7 *339:6 6.06535e-05
8 *640:B1 *560:B2 1.85329e-05
9 *640:B1 *339:12 5.79724e-07
10 *677:B *339:6 4.10256e-06
11 *677:B *339:12 4.92332e-06
12 *70:6 *339:18 9.30483e-06
13 *72:8 *560:B2 0
14 *208:29 *339:12 8.45637e-06
15 *213:208 *560:B2 1.70708e-06
16 *216:24 *560:B2 8.52381e-06
17 *276:257 *560:B2 8.86354e-06
18 *280:13 *339:31 9.97906e-07
19 *302:20 *560:B2 5.38904e-07
20 *302:38 *339:12 0
21 *304:12 *339:12 7.88701e-06
22 *304:12 *339:31 4.86436e-05
23 *304:20 *339:12 1.31716e-05
*RES
1 *677:SN *339:6 19.8741 
2 *339:6 *339:12 38.4019 
3 *339:12 *339:18 37.0741 
4 *339:18 *560:B2 47.916 
5 *339:6 *339:31 38.6003 
6 *339:31 *838:A 39.2134 
*END

*D_NET *340 0.000556823
*CONN
*I *839:A I *D BUFx2_ASAP7_75t_SL
*I *564:B2 I *D AO221x1_ASAP7_75t_SL
*I *503:Y O *D XOR2x2_ASAP7_75t_SL
*CAP
1 *839:A 0
2 *564:B2 0
3 *503:Y 6.98196e-05
4 *340:35 6.44855e-06
5 *340:29 0.000135395
6 *340:27 0.000128947
7 *340:25 3.54702e-05
8 *340:14 6.45939e-06
9 *340:6 0.000111749
10 *340:14 *341:10 1.63064e-05
11 *210:201 *340:29 1.47201e-06
12 *213:236 *340:25 1.65766e-05
13 *219:14 *340:29 1.12047e-05
14 *220:6 *340:14 1.36155e-06
15 *276:301 *340:14 6.17498e-06
16 *279:292 *340:25 9.43723e-06
*RES
1 *503:Y *340:6 44.4761 
2 *340:6 *340:14 41.1013 
3 *340:14 *564:B2 17.2 
4 *340:6 *340:25 35.0193 
5 *340:25 *340:27 17.2 
6 *340:27 *340:29 46.5298 
7 *340:29 *340:35 38.9053 
8 *340:35 *839:A 17.2 
*END

*D_NET *341 0.000955747
*CONN
*I *840:A I *D BUFx2_ASAP7_75t_SL
*I *566:A I *D NAND2x1_ASAP7_75t_SL
*I *510:Y O *D XNOR2x2_ASAP7_75t_SL
*CAP
1 *840:A 2.20156e-05
2 *566:A 6.09547e-06
3 *510:Y 1.2717e-05
4 *341:35 3.3179e-05
5 *341:29 0.000104272
6 *341:18 4.92122e-05
7 *341:16 5.29003e-05
8 *341:12 0.000102892
9 *341:10 4.80854e-05
10 *341:8 6.08024e-05
11 *341:8 *402:395 2.03526e-06
12 *341:10 *402:380 8.06911e-05
13 *341:10 *402:391 0.000122676
14 *341:18 *402:359 5.47466e-06
15 *341:18 *402:361 9.17732e-06
16 *341:18 *402:380 1.76183e-05
17 *569:C *341:18 8.02946e-06
18 *643:C1 *341:18 1.91777e-05
19 *18:20 *341:18 4.21657e-05
20 *90:10 *341:18 9.94583e-06
21 *213:167 *341:10 3.23664e-05
22 *213:187 *341:18 2.83874e-07
23 *213:198 *341:18 1.12894e-06
24 *275:13 *341:29 1.88316e-05
25 *276:301 *341:10 1.83062e-05
26 *279:269 *341:18 7.5755e-06
27 *287:50 *341:10 1.65859e-05
28 *306:20 *341:18 1.3687e-06
29 *307:12 *341:18 9.67723e-06
30 *323:12 *341:18 1.54378e-05
31 *324:8 *341:35 5.06565e-06
32 *324:12 *840:A 3.65131e-06
33 *340:14 *341:10 1.63064e-05
*RES
1 *510:Y *341:8 40.2831 
2 *341:8 *341:10 68.1431 
3 *341:10 *341:12 17.2 
4 *341:12 *341:16 20.9438 
5 *341:16 *341:18 45.6164 
6 *341:18 *566:A 36.5393 
7 *341:12 *341:29 44.3905 
8 *341:29 *341:35 41.158 
9 *341:35 *840:A 31.6403 
*END

*D_NET *342 0.000614015
*CONN
*I *841:A I *D BUFx2_ASAP7_75t_SL
*I *512:Y O *D XNOR2x2_ASAP7_75t_SL
*CAP
1 *841:A 0
2 *512:Y 1.81948e-05
3 *342:18 1.59485e-05
4 *342:12 0.00017274
5 *342:10 0.000156792
6 *342:8 1.81948e-05
7 *512:B *342:8 0
8 *40:6 *342:12 8.78747e-05
9 *40:8 *342:12 0.000105564
10 *40:14 *342:12 3.0511e-05
11 *146:24 *342:12 5.19552e-07
12 *149:169 *342:18 7.67516e-06
*RES
1 *512:Y *342:8 46.2265 
2 *342:8 *342:10 17.2 
3 *342:10 *342:12 76.48 
4 *342:12 *342:18 47.3528 
5 *342:18 *841:A 17.2 
*END

*D_NET *343 0.000303567
*CONN
*I *842:A I *D BUFx2_ASAP7_75t_SL
*I *584:A I *D NAND2x1_ASAP7_75t_SL
*I *524:Y O *D AO211x2_ASAP7_75t_SL
*CAP
1 *842:A 0
2 *584:A 1.23676e-06
3 *524:Y 4.24919e-06
4 *343:25 5.02646e-05
5 *343:23 5.33984e-05
6 *343:12 4.37056e-06
7 *343:10 6.67818e-05
8 *343:8 7.1031e-05
9 *343:25 *384:10 0
10 *149:105 *343:10 0
11 *213:325 *584:A 2.96818e-06
12 *213:325 *343:23 6.78917e-06
13 *232:64 *584:A 7.14604e-06
14 *232:64 *343:23 1.96943e-05
15 *232:70 *343:10 0
16 *236:14 *343:10 2.19685e-06
17 *237:8 *343:10 1.34402e-05
*RES
1 *524:Y *343:8 36.0045 
2 *343:8 *343:10 50.1218 
3 *343:10 *343:12 17.2 
4 *343:12 *584:A 19.3393 
5 *343:12 *343:23 23.0831 
6 *343:23 *343:25 39.4216 
7 *343:25 *842:A 34.4 
*END

*D_NET *344 0.000227452
*CONN
*I *843:A I *D BUFx2_ASAP7_75t_SL
*I *590:A1 I *D AO21x2_ASAP7_75t_SL
*I *529:Y O *D XOR2x2_ASAP7_75t_SL
*CAP
1 *843:A 3.39477e-05
2 *590:A1 0
3 *529:Y 1.60712e-05
4 *344:21 5.04145e-05
5 *344:10 3.25379e-05
6 *843:A *345:6 6.7842e-07
7 *843:A *345:19 3.43697e-05
8 *77:8 *344:10 1.1199e-05
9 *213:240 *344:10 6.33206e-07
10 *213:251 *344:10 1.42562e-06
11 *213:251 *344:21 2.95766e-05
12 *279:301 *344:10 5.79724e-07
13 *279:301 *344:21 1.60187e-05
*RES
1 *529:Y *344:10 46.2512 
2 *344:10 *590:A1 34.4 
3 *344:10 *344:21 39.7266 
4 *344:21 *843:A 42.3368 
*END

*D_NET *345 0.000278367
*CONN
*I *844:A I *D BUFx2_ASAP7_75t_SL
*I *595:A1 I *D AO21x2_ASAP7_75t_SL
*I *535:Y O *D XNOR2x2_ASAP7_75t_SL
*CAP
1 *844:A 0
2 *595:A1 0
3 *535:Y 3.61548e-05
4 *345:19 5.83864e-05
5 *345:12 1.22111e-05
6 *345:6 0.000106752
7 *843:A *345:6 6.7842e-07
8 *843:A *345:19 3.43697e-05
9 *213:251 *345:12 1.98367e-05
10 *279:301 *345:12 9.97736e-06
*RES
1 *535:Y *345:6 36.9885 
2 *345:6 *345:12 49.6055 
3 *345:12 *595:A1 17.2 
4 *345:6 *345:19 42.2512 
5 *345:19 *844:A 17.2 
*END

*D_NET *346 0.000307946
*CONN
*I *598:B2 I *D AO221x2_ASAP7_75t_SL
*I *845:A I *D BUFx2_ASAP7_75t_SL
*I *661:SN O *D FAx1_ASAP7_75t_SL
*CAP
1 *598:B2 0
2 *845:A 1.15811e-05
3 *661:SN 6.81677e-06
4 *346:25 3.18932e-05
5 *346:10 7.54074e-05
6 *346:8 0.000102536
7 *346:10 *379:8 3.08767e-06
8 *598:B1 *346:25 8.13589e-06
9 *661:A *346:25 2.19685e-06
10 *23:18 *346:10 0
11 *23:18 *346:25 0
12 *24:6 *346:25 2.99383e-06
13 *213:34 *346:25 5.85387e-06
14 *293:50 *346:10 0
15 *303:25 *346:10 9.67723e-06
16 *303:25 *346:25 6.85075e-06
17 *303:36 *346:25 4.0915e-05
*RES
1 *661:SN *346:8 37.0741 
2 *346:8 *346:10 46.7428 
3 *346:10 *845:A 40.2831 
4 *346:8 *346:25 43.017 
5 *346:25 *598:B2 17.2 
*END

*D_NET *347 0.00036638
*CONN
*I *602:B1 I *D AO221x2_ASAP7_75t_SL
*I *846:A I *D BUFx2_ASAP7_75t_SL
*I *466:Y O *D XNOR2x2_ASAP7_75t_SL
*CAP
1 *602:B1 1.56254e-05
2 *846:A 0
3 *466:Y 1.49605e-05
4 *347:10 6.71538e-05
5 *347:8 9.77397e-05
6 *602:B1 *400:76 2.98302e-05
7 *347:8 *401:135 2.19163e-06
8 *347:10 *400:67 2.32481e-05
9 *347:10 *400:76 7.15894e-05
10 *347:10 *401:127 2.64748e-06
11 *661:A *347:10 0
12 *23:18 *347:10 0
13 *213:26 *347:10 0
14 *213:142 *602:B1 4.2449e-06
15 *246:8 *347:10 2.12135e-06
16 *293:8 *347:10 5.43755e-06
17 *293:50 *347:10 0
18 *312:8 *347:10 2.95901e-05
*RES
1 *466:Y *347:8 40.2831 
2 *347:8 *347:10 58.5693 
3 *347:10 *846:A 34.4 
4 *347:8 *602:B1 47.7459 
*END

*D_NET *348 0.000451459
*CONN
*I *606:B2 I *D AO221x2_ASAP7_75t_SL
*I *847:A I *D BUFx2_ASAP7_75t_SL
*I *470:Y O *D XOR2x2_ASAP7_75t_SL
*CAP
1 *606:B2 0
2 *847:A 0
3 *470:Y 5.42126e-06
4 *348:29 3.45965e-05
5 *348:18 7.68433e-05
6 *348:16 0.000115787
7 *348:12 8.62987e-05
8 *348:10 8.19516e-05
9 *348:8 5.42126e-06
10 *348:18 *400:50 0
11 *348:18 *402:74 1.63973e-05
12 *606:A1 *348:29 1.35684e-06
13 *606:C *348:29 6.92634e-06
14 *97:8 *348:18 9.94583e-06
15 *252:25 *348:18 6.68208e-06
16 *254:8 *348:29 3.81627e-06
17 *276:203 *348:18 1.49407e-08
18 *329:14 *348:18 0
*RES
1 *470:Y *348:8 37.779 
2 *348:8 *348:10 17.2 
3 *348:10 *348:12 34.7636 
4 *348:12 *348:16 20.0158 
5 *348:16 *348:18 58.5693 
6 *348:18 *847:A 34.4 
7 *348:16 *348:29 38.593 
8 *348:29 *606:B2 17.2 
*END

*D_NET *349 0.000626975
*CONN
*I *610:B2 I *D AO221x2_ASAP7_75t_SL
*I *848:A I *D BUFx2_ASAP7_75t_SL
*I *472:Y O *D XOR2x2_ASAP7_75t_SL
*CAP
1 *610:B2 0
2 *848:A 0
3 *472:Y 0
4 *349:29 3.02879e-06
5 *349:16 4.44315e-05
6 *349:12 7.49128e-05
7 *349:6 0.000190187
8 *349:4 0.000156677
9 *349:12 *401:163 4.74248e-06
10 *349:12 *401:169 2.83874e-07
11 *472:B *349:6 2.0895e-06
12 *609:A2 *349:12 1.36155e-06
13 *609:A2 *349:16 6.6195e-06
14 *609:B *349:12 1.26378e-06
15 *610:A1 *349:6 1.40419e-08
16 *610:A2 *349:6 6.44983e-06
17 *610:C *349:6 5.22376e-07
18 *610:C *349:12 4.20803e-06
19 *610:C *349:29 3.46317e-06
20 *611:B *349:6 3.05302e-06
21 *20:37 *349:29 8.33296e-06
22 *107:13 *349:16 1.75582e-05
23 *149:23 *349:12 0
24 *149:23 *349:29 0
25 *210:75 *349:6 1.02506e-06
26 *296:6 *349:6 9.67506e-05
*RES
1 *472:Y *349:4 17.2 
2 *349:4 *349:6 74.3407 
3 *349:6 *349:12 33.4998 
4 *349:12 *349:16 44.4761 
5 *349:16 *848:A 17.2 
6 *349:6 *349:29 38.2855 
7 *349:29 *610:B2 17.2 
*END

*D_NET *350 0.000609233
*CONN
*I *615:B2 I *D AO221x2_ASAP7_75t_SL
*I *849:A I *D BUFx2_ASAP7_75t_SL
*I *477:Y O *D XOR2x2_ASAP7_75t_SL
*CAP
1 *615:B2 0
2 *849:A 4.51063e-05
3 *477:Y 0
4 *350:27 6.49574e-06
5 *350:14 0.000146397
6 *350:12 9.99517e-05
7 *350:6 0.00013334
8 *350:4 0.000128184
9 *849:A *391:6 5.58147e-06
10 *849:A *401:184 1.5225e-05
11 *159:20 *350:6 0
12 *159:28 *350:6 8.81946e-06
13 *213:102 *350:27 1.9619e-05
14 *258:14 *350:27 5.13209e-07
*RES
1 *477:Y *350:4 17.2 
2 *350:4 *350:6 45.4601 
3 *350:6 *350:12 38.3422 
4 *350:12 *350:14 49.7387 
5 *350:14 *849:A 43.4064 
6 *350:14 *350:27 41.158 
7 *350:27 *615:B2 17.2 
*END

*D_NET *351 0.00066111
*CONN
*I *619:B2 I *D AO221x2_ASAP7_75t_SL
*I *850:A I *D BUFx2_ASAP7_75t_SL
*I *479:Y O *D XNOR2x2_ASAP7_75t_SL
*CAP
1 *619:B2 0
2 *850:A 0
3 *479:Y 7.59682e-06
4 *351:38 1.38328e-05
5 *351:34 3.01699e-05
6 *351:26 1.63371e-05
7 *351:24 2.848e-05
8 *351:18 3.15381e-05
9 *351:12 7.69425e-05
10 *351:10 7.38845e-05
11 *351:8 7.59682e-06
12 *351:12 *857:A 5.09299e-06
13 *351:12 *399:10 1.25606e-05
14 *351:12 *399:14 4.81457e-05
15 *351:18 *399:22 3.47607e-06
16 *351:38 *402:167 1.97537e-05
17 *351:38 *402:182 6.17367e-05
18 *617:B *351:34 1.04475e-06
19 *619:B1 *351:34 6.45454e-06
20 *619:C *351:24 8.45637e-06
21 *655:B2 *351:24 1.12901e-05
22 *50:12 *351:8 0
23 *67:30 *351:8 4.45472e-06
24 *146:117 *351:18 5.52807e-07
25 *149:29 *351:38 9.40944e-05
26 *213:113 *351:38 5.19498e-06
27 *279:71 *351:24 1.91241e-06
28 *298:25 *351:12 5.39412e-05
29 *298:25 *351:24 5.19552e-07
30 *298:31 *351:18 6.33206e-07
31 *298:37 *351:24 3.54169e-05
*RES
1 *479:Y *351:8 41.158 
2 *351:8 *351:10 17.2 
3 *351:10 *351:12 72.2014 
4 *351:12 *351:18 37.2158 
5 *351:18 *351:24 41.7206 
6 *351:24 *351:26 17.2 
7 *351:26 *351:34 25.7572 
8 *351:34 *351:38 48.1741 
9 *351:38 *850:A 17.2 
10 *351:26 *619:B2 17.2 
*END

*D_NET *352 0.001008
*CONN
*I *851:A I *D BUFx2_ASAP7_75t_SL
*I *622:B2 I *D AO221x2_ASAP7_75t_SL
*I *483:Y O *D XNOR2x2_ASAP7_75t_SL
*CAP
1 *851:A 0
2 *622:B2 1.69119e-06
3 *483:Y 6.20458e-06
4 *352:41 4.13443e-05
5 *352:37 8.41506e-05
6 *352:26 4.65947e-05
7 *352:22 0.000160973
8 *352:20 0.000164152
9 *352:14 5.76316e-05
10 *352:12 7.56313e-05
11 *352:8 2.94799e-05
12 *352:8 *401:259 3.56648e-06
13 *352:12 *401:265 5.37569e-06
14 *352:26 *375:9 0
15 *352:26 *392:10 8.33296e-06
16 *352:37 *375:9 0
17 *352:37 *392:10 7.49254e-06
18 *352:41 *833:A 8.23084e-06
19 *352:41 *393:6 6.86929e-06
20 *622:A2 *352:22 1.27802e-05
21 *622:C *352:22 5.85387e-06
22 *628:B1 *352:22 5.41446e-06
23 *141:44 *352:12 0
24 *141:50 *352:12 0
25 *146:129 *352:22 0.000100514
26 *146:136 *352:14 0.000156195
27 *146:136 *352:22 3.48165e-06
28 *146:140 *352:12 4.83862e-06
29 *213:113 *352:26 1.09842e-06
30 *232:52 *352:12 0
31 *264:25 *352:22 3.1923e-06
32 *270:8 *352:20 3.94604e-06
33 *299:20 *352:37 0
34 *300:12 *352:20 2.96334e-06
*RES
1 *483:Y *352:8 37.0741 
2 *352:8 *352:12 32.4055 
3 *352:12 *352:14 45.4601 
4 *352:14 *352:20 38.3422 
5 *352:20 *352:22 86.1068 
6 *352:22 *352:26 20.0158 
7 *352:26 *622:B2 35.4697 
8 *352:26 *352:37 35.4795 
9 *352:37 *352:41 45.5457 
10 *352:41 *851:A 17.2 
*END

*D_NET *353 0.000999614
*CONN
*I *852:A I *D BUFx2_ASAP7_75t_SL
*I *627:B1 I *D AO221x2_ASAP7_75t_SL
*I *492:Y O *D OR3x1_ASAP7_75t_SL
*CAP
1 *852:A 0
2 *627:B1 0
3 *492:Y 1.58246e-05
4 *353:41 0.000190459
5 *353:34 7.33752e-06
6 *353:28 4.94437e-05
7 *353:26 4.21062e-05
8 *353:24 0.000206465
9 *353:16 7.63936e-05
10 *353:14 6.73862e-05
11 *353:8 2.2823e-05
12 *353:8 *405:14 5.13422e-06
13 *353:8 *407:26 9.97906e-07
14 *353:16 *425:A 2.98814e-07
15 *353:16 *405:14 7.21451e-07
16 *353:16 *407:10 2.22736e-06
17 *353:16 *407:18 7.71949e-06
18 *353:16 *407:20 0
19 *353:28 *401:277 5.25794e-06
20 *353:41 *401:271 0
21 *353:41 *401:281 1.12894e-06
22 *490:C *353:14 2.47522e-06
23 *495:A1 *353:16 5.23062e-06
24 *868:A *353:16 1.16894e-05
25 *43:12 *353:41 4.34775e-06
26 *43:23 *353:41 2.83874e-07
27 *46:57 *353:16 1.64764e-06
28 *46:68 *353:16 1.09067e-06
29 *46:68 *353:24 0
30 *46:68 *353:41 0
31 *116:10 *353:16 2.97139e-06
32 *116:14 *353:8 0
33 *125:8 *353:16 3.28313e-06
34 *162:10 *353:16 0.000121304
35 *166:10 *353:8 7.58876e-06
36 *170:10 *353:8 2.29416e-05
37 *213:285 *353:28 5.26122e-05
38 *213:293 *353:34 2.36401e-05
39 *269:8 *353:41 8.06436e-06
40 *279:28 *353:24 1.01102e-06
41 *300:50 *353:16 0
42 *300:50 *353:24 0
43 *300:50 *353:41 0
44 *301:39 *353:41 0
45 *320:14 *353:28 2.7707e-05
*RES
1 *492:Y *353:8 47.916 
2 *353:8 *353:14 37.0741 
3 *353:14 *353:16 59.6956 
4 *353:16 *353:24 43.8321 
5 *353:24 *353:26 17.2 
6 *353:26 *353:28 39.0422 
7 *353:28 *353:34 42.2843 
8 *353:34 *627:B1 17.2 
9 *353:24 *353:41 150.365 
10 *353:41 *852:A 34.4 
*END

*D_NET *354 0.000357686
*CONN
*I *853:A I *D BUFx2_ASAP7_75t_SL
*I *632:B1 I *D AO221x2_ASAP7_75t_SL
*I *499:Y O *D XNOR2x2_ASAP7_75t_SL
*CAP
1 *853:A 5.23223e-06
2 *632:B1 2.10642e-06
3 *499:Y 0
4 *354:23 9.50462e-05
5 *354:21 8.98139e-05
6 *354:10 4.59179e-05
7 *354:4 4.38115e-05
8 *354:23 *632:A1 2.39567e-06
9 *354:23 *361:13 2.03413e-06
10 *354:23 *401:307 1.48586e-06
11 *631:B *354:10 0
12 *632:C *632:B1 1.35684e-06
13 *668:A *354:10 2.68933e-07
14 *668:B *354:23 0
15 *45:12 *354:10 0
16 *45:16 *354:10 0
17 *213:302 *354:10 6.34089e-05
18 *213:302 *354:23 0
19 *213:323 *354:23 1.64348e-06
20 *273:10 *354:10 2.05883e-06
21 *274:8 *354:23 0
22 *301:8 *354:10 1.10561e-06
23 *321:8 *354:23 0
*RES
1 *499:Y *354:4 17.2 
2 *354:4 *354:10 46.6227 
3 *354:10 *632:B1 35.4697 
4 *354:4 *354:21 17.2 
5 *354:21 *354:23 63.6378 
6 *354:23 *853:A 37.0741 
*END

*D_NET *355 0.000284098
*CONN
*I *462:A1 I *D AOI21x1_ASAP7_75t_SL
*I *465:B2 I *D AO221x1_ASAP7_75t_SL
*I *836:Y O *D BUFx2_ASAP7_75t_SL
*CAP
1 *462:A1 0
2 *465:B2 2.12526e-06
3 *836:Y 1.86634e-05
4 *355:29 6.864e-05
5 *355:18 2.82106e-05
6 *355:10 0.000113389
7 *355:10 *401:28 3.38221e-06
8 *355:18 *465:A2 1.23489e-06
9 *355:18 *356:16 1.02642e-06
10 *355:18 *356:20 1.51111e-06
11 *355:18 *401:37 1.26391e-06
12 *355:29 *356:8 2.29867e-05
13 *355:29 *356:16 0
14 *355:29 *401:28 3.70913e-06
15 *457:A *355:29 0
16 *465:C *355:18 8.06923e-06
17 *1:8 *355:29 3.69908e-06
18 *20:90 *355:29 0
19 *20:98 *355:29 2.77657e-06
20 *20:113 *355:29 0
21 *106:27 *355:18 2.62708e-06
22 *146:10 *355:29 0
23 *146:42 *355:29 0
24 *146:57 *355:29 0
25 *149:135 *355:29 7.84037e-07
*RES
1 *836:Y *355:10 42.5924 
2 *355:10 *355:18 47.4909 
3 *355:18 *465:B2 35.4697 
4 *355:10 *355:29 53.5008 
5 *355:29 *462:A1 34.4 
*END

*D_NET *356 0.000330586
*CONN
*I *465:B1 I *D AO221x1_ASAP7_75t_SL
*I *854:A I *D BUFx2_ASAP7_75t_SL
*I *457:Y O *D NOR2x1_ASAP7_75t_SL
*CAP
1 *465:B1 3.52218e-06
2 *854:A 1.76098e-05
3 *457:Y 9.48342e-06
4 *356:20 4.86657e-05
5 *356:16 6.86196e-05
6 *356:14 4.89141e-05
7 *356:8 2.4356e-05
8 *356:20 *376:15 0
9 *465:C *356:20 7.21451e-07
10 *4:18 *356:16 1.66587e-05
11 *20:90 *356:16 1.57573e-05
12 *20:113 *356:16 3.76935e-06
13 *20:115 *356:16 2.04143e-05
14 *144:10 *356:16 0
15 *146:10 *356:16 5.67735e-06
16 *146:14 *356:14 1.1199e-05
17 *146:42 *356:8 0
18 *338:8 *854:A 5.19475e-06
19 *338:10 *356:20 4.49906e-06
20 *355:18 *356:16 1.02642e-06
21 *355:18 *356:20 1.51111e-06
22 *355:29 *356:8 2.29867e-05
23 *355:29 *356:16 0
*RES
1 *457:Y *356:8 42.2843 
2 *356:8 *356:14 44.5617 
3 *356:14 *356:16 33.2268 
4 *356:16 *356:20 40.853 
5 *356:20 *854:A 27.3617 
6 *356:16 *465:B1 36.0045 
*END

*D_NET *359 0.000215128
*CONN
*P req_msg[23] I
*I *817:A I *D BUFx2_ASAP7_75t_SL
*CAP
1 req_msg[23] 3.15619e-05
2 *817:A 4.78527e-05
3 *359:11 7.21879e-05
4 *359:7 5.58971e-05
5 *359:7 resp_msg[5] 0
6 *318:6 *817:A 7.62902e-06
*RES
1 req_msg[23] *359:7 34.0281 
2 *359:7 *359:11 39.0696 
3 *359:11 *817:A 45.5457 
*END

*D_NET *360 0.000115955
*CONN
*P req_msg[24] I
*I *818:A I *D BUFx2_ASAP7_75t_SL
*CAP
1 req_msg[24] 5.12604e-05
2 *818:A 6.7171e-06
3 *360:9 5.79775e-05
4 *360:9 *373:9 0
*RES
1 req_msg[24] *360:9 47.3178 
2 *360:9 *818:A 38.1438 
*END

*D_NET *361 0.000424036
*CONN
*P req_msg[25] I
*I *819:A I *D BUFx2_ASAP7_75t_SL
*CAP
1 req_msg[25] 0.000141709
2 *819:A 0
3 *361:13 1.01514e-05
4 *361:5 0.00015186
5 *361:5 resp_msg[9] 0.000118281
6 *354:23 *361:13 2.03413e-06
*RES
1 req_msg[25] *361:5 79.6203 
2 *361:5 *361:13 33.1741 
3 *361:13 *819:A 34.4 
*END

*D_NET *362 0.000417115
*CONN
*P req_msg[26] I
*I *820:A I *D BUFx2_ASAP7_75t_SL
*CAP
1 req_msg[26] 1.7195e-05
2 *820:A 1.9839e-05
3 *362:19 2.58039e-05
4 *362:13 8.25819e-05
5 *362:11 9.91194e-05
6 *362:7 3.96974e-05
7 *362:7 resp_msg[10] 1.43687e-05
8 *362:7 *367:11 3.08122e-05
9 *362:11 *367:11 2.48464e-06
10 *362:11 *368:9 1.98791e-05
11 *557:A *362:13 0
12 *149:182 *362:19 2.25787e-06
13 *150:9 *362:11 4.0808e-05
14 *308:12 *362:19 6.33206e-07
15 *308:14 *820:A 2.16348e-05
16 *309:10 *362:19 0
*RES
1 req_msg[26] *362:7 29.8075 
2 *362:7 *362:11 48.0803 
3 *362:11 *362:13 41.1815 
4 *362:13 *362:19 38.9053 
5 *362:19 *820:A 32.7099 
*END

*D_NET *363 0.000264553
*CONN
*P req_msg[27] I
*I *821:A I *D BUFx2_ASAP7_75t_SL
*CAP
1 req_msg[27] 3.6464e-05
2 *821:A 0
3 *363:13 9.3723e-05
4 *363:11 9.3723e-05
5 *363:9 3.6464e-05
6 *215:13 *363:13 0
7 *323:6 *363:13 4.17901e-06
*RES
1 req_msg[27] *363:9 38.5212 
2 *363:9 *363:11 17.2 
3 *363:11 *363:13 62.0397 
4 *363:13 *821:A 17.2 
*END

*D_NET *364 0.000226534
*CONN
*P req_msg[28] I
*I *822:A I *D BUFx2_ASAP7_75t_SL
*CAP
1 req_msg[28] 2.5515e-05
2 *822:A 0
3 *364:13 4.28788e-05
4 *364:11 4.28788e-05
5 *364:9 2.5515e-05
6 *275:9 *364:9 3.55479e-05
7 *275:13 *364:13 5.41981e-05
*RES
1 req_msg[28] *364:9 36.5732 
2 *364:9 *364:11 17.2 
3 *364:11 *364:13 41.1815 
4 *364:13 *822:A 17.2 
*END

*D_NET *365 0.000389521
*CONN
*P req_msg[29] I
*I *823:A I *D BUFx2_ASAP7_75t_SL
*CAP
1 req_msg[29] 1.27742e-05
2 *823:A 0
3 *365:21 2.55719e-05
4 *365:13 7.76562e-05
5 *365:11 5.20843e-05
6 *365:9 7.44687e-05
7 *365:7 8.72429e-05
8 *365:7 resp_msg[12] 0
9 *365:7 *368:7 2.35027e-05
10 *365:9 *381:10 1.40927e-05
11 *150:9 *365:9 2.21272e-05
12 *150:13 *365:13 0
*RES
1 req_msg[29] *365:7 25.9116 
2 *365:7 *365:9 73.3054 
3 *365:9 *365:11 17.2 
4 *365:11 *365:13 37.9726 
5 *365:13 *365:21 49.5168 
6 *365:21 *823:A 17.2 
*END

*D_NET *366 0.00016645
*CONN
*P req_msg[2] I
*I *824:A I *D BUFx2_ASAP7_75t_SL
*CAP
1 req_msg[2] 6.35813e-05
2 *824:A 0
3 *366:15 1.96435e-05
4 *366:9 8.32248e-05
*RES
1 req_msg[2] *366:9 43.1279 
2 *366:9 *366:15 48.1976 
3 *366:15 *824:A 17.2 
*END

*D_NET *367 0.000186934
*CONN
*P req_msg[30] I
*I *825:A I *D BUFx2_ASAP7_75t_SL
*CAP
1 req_msg[30] 1.24608e-05
2 *825:A 4.7575e-05
3 *367:11 6.00358e-05
4 *367:11 *368:7 3.13653e-05
5 *150:9 *367:11 2.20028e-06
6 *362:7 *367:11 3.08122e-05
7 *362:11 *367:11 2.48464e-06
*RES
1 req_msg[30] *367:11 47.2029 
2 *367:11 *825:A 48.7547 
*END

*D_NET *368 0.000328501
*CONN
*P req_msg[31] I
*I *826:A I *D BUFx2_ASAP7_75t_SL
*CAP
1 req_msg[31] 1.81592e-05
2 *826:A 0
3 *368:19 6.57385e-06
4 *368:13 5.9447e-05
5 *368:9 8.56215e-05
6 *368:7 5.09075e-05
7 *150:9 *368:9 3.30443e-05
8 *362:11 *368:9 1.98791e-05
9 *365:7 *368:7 2.35027e-05
10 *367:11 *368:7 3.13653e-05
*RES
1 req_msg[31] *368:7 30.4568 
2 *368:7 *368:9 41.0173 
3 *368:9 *368:13 44.4761 
4 *368:13 *368:19 38.9053 
5 *368:19 *826:A 17.2 
*END

*D_NET *369 0.000176699
*CONN
*P req_msg[3] I
*I *827:A I *D BUFx2_ASAP7_75t_SL
*CAP
1 req_msg[3] 2.81766e-05
2 *827:A 0
3 *369:13 5.36328e-05
4 *369:11 8.18094e-05
5 *369:11 resp_msg[3] 0
6 *369:13 *389:8 0
7 *20:22 *369:13 1.30801e-05
*RES
1 req_msg[3] *369:11 43.5633 
2 *369:11 *369:13 45.3349 
3 *369:13 *827:A 34.4 
*END

*D_NET *370 0.00019184
*CONN
*P req_msg[4] I
*I *828:A I *D BUFx2_ASAP7_75t_SL
*CAP
1 req_msg[4] 3.56868e-05
2 *828:A 0
3 *370:13 6.0233e-05
4 *370:11 6.0233e-05
5 *370:9 3.56868e-05
*RES
1 req_msg[4] *370:9 42.0988 
2 *370:9 *370:11 17.2 
3 *370:11 *370:13 36.9029 
4 *370:13 *828:A 17.2 
*END

*D_NET *371 0.000250434
*CONN
*P req_msg[5] I
*I *829:A I *D BUFx2_ASAP7_75t_SL
*CAP
1 req_msg[5] 2.04003e-05
2 *829:A 0
3 *371:21 1.40534e-05
4 *371:13 6.2594e-05
5 *371:9 6.89409e-05
6 *371:9 resp_msg[5] 2.28166e-05
7 *414:A *371:13 1.36488e-05
8 *105:11 *371:9 4.2768e-05
9 *317:8 *371:21 2.25039e-06
10 *317:12 *371:21 2.96155e-06
*RES
1 req_msg[5] *371:9 39.0091 
2 *371:9 *371:13 46.6154 
3 *371:13 *371:21 42.6491 
4 *371:21 *829:A 17.2 
*END

*D_NET *372 0.000318515
*CONN
*P req_msg[6] I
*I *830:A I *D BUFx2_ASAP7_75t_SL
*CAP
1 req_msg[6] 2.44783e-05
2 *830:A 0
3 *372:17 6.6785e-05
4 *372:11 9.12633e-05
5 *372:11 *373:9 5.47901e-05
6 *372:11 *374:9 5.7901e-05
7 *372:17 *375:9 1.16487e-05
8 *149:29 *372:17 1.16487e-05
*RES
1 req_msg[6] *372:11 47.7854 
2 *372:11 *372:17 49.1928 
3 *372:17 *830:A 34.4 
*END

*D_NET *373 0.000205837
*CONN
*P req_msg[7] I
*I *831:A I *D BUFx2_ASAP7_75t_SL
*CAP
1 req_msg[7] 3.76971e-05
2 *831:A 0
3 *373:13 3.78261e-05
4 *373:9 7.55232e-05
5 *360:9 *373:9 0
6 *372:11 *373:9 5.47901e-05
*RES
1 req_msg[7] *373:9 45.4405 
2 *373:9 *373:13 36.9885 
3 *373:13 *831:A 17.2 
*END

*D_NET *374 0.000146754
*CONN
*P req_msg[8] I
*I *832:A I *D BUFx2_ASAP7_75t_SL
*CAP
1 req_msg[8] 2.9441e-05
2 *832:A 0
3 *374:9 2.9441e-05
4 *104:9 *374:9 2.99713e-05
5 *372:11 *374:9 5.7901e-05
*RES
1 req_msg[8] *374:9 44.2988 
2 *374:9 *832:A 34.4 
*END

*D_NET *375 0.000496427
*CONN
*P req_msg[9] I
*I *833:A I *D BUFx2_ASAP7_75t_SL
*CAP
1 req_msg[9] 9.19676e-05
2 *833:A 7.81205e-06
3 *375:9 0.000104509
4 *375:7 9.66972e-05
5 *375:5 9.19676e-05
6 *375:9 *401:188 4.2627e-06
7 *375:9 *401:201 3.84225e-05
8 *104:9 *375:5 3.18996e-05
9 *149:29 *375:9 7.14167e-06
10 *213:113 *375:9 0
11 *262:8 *375:9 1.86782e-06
12 *265:8 *375:9 0
13 *319:8 *375:9 0
14 *352:26 *375:9 0
15 *352:37 *375:9 0
16 *352:41 *833:A 8.23084e-06
17 *372:17 *375:9 1.16487e-05
*RES
1 req_msg[9] *375:5 42.1513 
2 *375:5 *375:7 17.2 
3 *375:7 *375:9 85.3196 
4 *375:9 *833:A 40.2831 
*END

*D_NET *376 0.000153163
*CONN
*P req_val I
*I *834:A I *D BUFx2_ASAP7_75t_SL
*CAP
1 req_val 3.02647e-05
2 *834:A 0
3 *376:15 1.16929e-05
4 *376:9 4.19576e-05
5 *376:9 *377:9 6.18104e-05
6 *376:15 *377:15 0
7 *376:15 *378:13 1.7952e-06
8 *338:10 *376:15 5.6418e-06
9 *356:20 *376:15 0
*RES
1 req_val *376:9 34.5358 
2 *376:9 *376:15 43.3168 
3 *376:15 *834:A 17.2 
*END

*D_NET *377 0.000193297
*CONN
*P reset I
*I *835:A I *D BUFx2_ASAP7_75t_SL
*CAP
1 reset 3.49157e-05
2 *835:A 0
3 *377:15 1.6029e-06
4 *377:9 3.65186e-05
5 *377:9 *378:9 5.84496e-05
6 *376:9 *377:9 6.18104e-05
7 *376:15 *377:15 0
*RES
1 reset *377:9 40.4255 
2 *377:9 *377:15 35.4325 
3 *377:15 *835:A 17.2 
*END

*D_NET *378 0.000190586
*CONN
*P resp_rdy I
*I *836:A I *D BUFx2_ASAP7_75t_SL
*CAP
1 resp_rdy 2.68324e-05
2 *836:A 0
3 *378:13 2.34501e-05
4 *378:9 5.02825e-05
5 *378:9 resp_val 2.95314e-05
6 *337:10 *378:13 2.45021e-07
7 *376:15 *378:13 1.7952e-06
8 *377:9 *378:9 5.84496e-05
*RES
1 resp_rdy *378:9 35.4015 
2 *378:9 *378:13 34.5643 
3 *378:13 *836:A 34.4 
*END

*D_NET *379 0.000111668
*CONN
*P req_rdy O
*I *837:Y O *D BUFx2_ASAP7_75t_SL
*CAP
1 req_rdy 4.40859e-05
2 *837:Y 5.83044e-06
3 *379:14 4.84598e-05
4 *379:8 1.02044e-05
5 req_rdy resp_msg[1] 0
6 *346:10 *379:8 3.08767e-06
*RES
1 *837:Y *379:8 39.1869 
2 *379:8 *379:14 30.3527 
3 *379:14 req_rdy 23.8557 
*END

*D_NET *380 0.000114833
*CONN
*P resp_msg[0] O
*I *838:Y O *D BUFx2_ASAP7_75t_SL
*CAP
1 resp_msg[0] 3.4222e-05
2 *838:Y 1.73513e-05
3 *380:8 5.15733e-05
4 *280:11 resp_msg[0] 0
5 *280:13 *380:8 1.1686e-05
*RES
1 *838:Y *380:8 49.6993 
2 *380:8 resp_msg[0] 46.9609 
*END

*D_NET *381 0.000335522
*CONN
*P resp_msg[10] O
*I *839:Y O *D BUFx2_ASAP7_75t_SL
*CAP
1 resp_msg[10] 1.79504e-05
2 *839:Y 2.30121e-05
3 *381:10 5.59149e-05
4 *381:8 3.79645e-05
5 *381:6 2.30121e-05
6 *557:A *381:6 0
7 *150:9 *381:10 0.000149206
8 *362:7 resp_msg[10] 1.43687e-05
9 *365:9 *381:10 1.40927e-05
*RES
1 *839:Y *381:6 34.8492 
2 *381:6 *381:8 17.2 
3 *381:8 *381:10 51.5297 
4 *381:10 resp_msg[10] 27.8596 
*END

*D_NET *382 0.000106133
*CONN
*P resp_msg[11] O
*I *840:Y O *D BUFx2_ASAP7_75t_SL
*CAP
1 resp_msg[11] 4.29772e-05
2 *840:Y 1.37916e-06
3 *382:8 4.43563e-05
4 *215:7 resp_msg[11] 1.74199e-05
5 *275:9 resp_msg[11] 0
*RES
1 *840:Y *382:8 35.2447 
2 *382:8 resp_msg[11] 40.1965 
*END

*D_NET *383 0.000278541
*CONN
*P resp_msg[12] O
*I *841:Y O *D BUFx2_ASAP7_75t_SL
*CAP
1 resp_msg[12] 2.53128e-06
2 *841:Y 0
3 *383:18 1.03503e-05
4 *383:10 5.13706e-05
5 *383:8 4.35516e-05
6 *383:6 8.53684e-05
7 *383:4 8.53684e-05
8 *214:11 *383:18 0
9 *365:7 resp_msg[12] 0
*RES
1 *841:Y *383:4 17.2 
2 *383:4 *383:6 63.6442 
3 *383:6 *383:8 17.2 
4 *383:8 *383:10 36.5119 
5 *383:10 *383:18 39.6982 
6 *383:18 resp_msg[12] 18.7692 
*END

*D_NET *384 0.00027024
*CONN
*P resp_msg[13] O
*I *842:Y O *D BUFx2_ASAP7_75t_SL
*CAP
1 resp_msg[13] 3.04951e-05
2 *842:Y 1.24682e-05
3 *384:10 0.000122652
4 *384:8 0.000104625
5 *343:25 *384:10 0
*RES
1 *842:Y *384:8 40.2831 
2 *384:8 *384:10 77.623 
3 *384:10 resp_msg[13] 44.5024 
*END

*D_NET *385 0.000172195
*CONN
*P resp_msg[14] O
*I *843:Y O *D BUFx2_ASAP7_75t_SL
*CAP
1 resp_msg[14] 7.33542e-05
2 *843:Y 1.27436e-05
3 *385:8 8.60977e-05
4 resp_msg[14] resp_msg[15] 0
5 *149:212 *385:8 0
6 *328:8 *385:8 0
*RES
1 *843:Y *385:8 43.1291 
2 *385:8 resp_msg[14] 49.2869 
*END

*D_NET *386 8.76586e-05
*CONN
*P resp_msg[15] O
*I *844:Y O *D BUFx2_ASAP7_75t_SL
*CAP
1 resp_msg[15] 4.24501e-05
2 *844:Y 1.37916e-06
3 *386:8 4.38293e-05
4 resp_msg[14] resp_msg[15] 0
*RES
1 *844:Y *386:8 35.2447 
2 *386:8 resp_msg[15] 38.2486 
*END

*D_NET *387 0.000105291
*CONN
*P resp_msg[1] O
*I *845:Y O *D BUFx2_ASAP7_75t_SL
*CAP
1 resp_msg[1] 1.39379e-05
2 *845:Y 0
3 *387:14 3.8041e-05
4 *387:6 2.41031e-05
5 req_rdy resp_msg[1] 0
6 *120:13 *387:14 0
7 *129:9 resp_msg[1] 2.92092e-05
*RES
1 *845:Y *387:6 34.4 
2 *387:6 *387:14 47.2841 
3 *387:14 resp_msg[1] 11.0921 
*END

*D_NET *388 0.000154976
*CONN
*P resp_msg[2] O
*I *846:Y O *D BUFx2_ASAP7_75t_SL
*CAP
1 resp_msg[2] 3.66087e-05
2 *846:Y 1.06693e-05
3 *388:14 4.18376e-05
4 *388:8 1.58982e-05
5 *120:11 resp_msg[2] 0
6 *120:13 *388:8 1.20157e-05
7 *129:9 resp_msg[2] 3.69025e-05
8 *129:17 *388:8 5.67747e-07
9 *312:8 *388:8 4.7643e-07
*RES
1 *846:Y *388:8 44.6308 
2 *388:8 *388:14 30.5692 
3 *388:14 resp_msg[2] 25.6791 
*END

*D_NET *389 0.000104104
*CONN
*P resp_msg[3] O
*I *847:Y O *D BUFx2_ASAP7_75t_SL
*CAP
1 resp_msg[3] 3.97058e-05
2 *847:Y 1.00184e-05
3 *389:14 4.20338e-05
4 *389:8 1.23464e-05
5 *369:11 resp_msg[3] 0
6 *369:13 *389:8 0
*RES
1 *847:Y *389:8 42.1905 
2 *389:8 *389:14 29.5952 
3 *389:14 resp_msg[3] 22.0323 
*END

*D_NET *390 0.000229934
*CONN
*P resp_msg[4] O
*I *848:Y O *D BUFx2_ASAP7_75t_SL
*CAP
1 resp_msg[4] 1.16993e-05
2 *848:Y 3.52521e-05
3 *390:12 2.53608e-05
4 *390:6 4.89137e-05
5 *107:9 resp_msg[4] 1.13174e-05
6 *107:9 *390:12 9.37724e-06
7 *107:13 *390:6 8.8013e-05
*RES
1 *848:Y *390:6 45.5457 
2 *390:6 *390:12 47.4467 
3 *390:12 resp_msg[4] 7.73766 
*END

*D_NET *391 0.000241661
*CONN
*P resp_msg[5] O
*I *849:Y O *D BUFx2_ASAP7_75t_SL
*CAP
1 resp_msg[5] 3.39411e-05
2 *849:Y 6.9782e-05
3 *391:12 3.68493e-05
4 *391:6 7.26902e-05
5 *849:A *391:6 5.58147e-06
6 *359:7 resp_msg[5] 0
7 *371:9 resp_msg[5] 2.28166e-05
*RES
1 *849:Y *391:6 41.2671 
2 *391:6 *391:12 35.9956 
3 *391:12 resp_msg[5] 20.0746 
*END

*D_NET *392 0.000375461
*CONN
*P resp_msg[6] O
*I *850:Y O *D BUFx2_ASAP7_75t_SL
*CAP
1 resp_msg[6] 5.39906e-05
2 *850:Y 0
3 *392:16 0.000115584
4 *392:10 8.59794e-05
5 *392:6 2.4386e-05
6 *392:10 *402:186 3.0215e-05
7 *622:C *392:10 2.65972e-05
8 *210:110 *392:10 0
9 *213:113 *392:10 2.45028e-06
10 *276:89 *392:10 5.49212e-07
11 *299:20 *392:10 0
12 *333:14 *392:10 1.98844e-05
13 *352:26 *392:10 8.33296e-06
14 *352:37 *392:10 7.49254e-06
*RES
1 *850:Y *392:6 34.4 
2 *392:6 *392:10 43.9504 
3 *392:10 *392:16 45.2242 
4 *392:16 resp_msg[6] 42.4691 
*END

*D_NET *393 0.000267594
*CONN
*P resp_msg[7] O
*I *851:Y O *D BUFx2_ASAP7_75t_SL
*CAP
1 resp_msg[7] 1.74742e-05
2 *851:Y 0
3 *393:10 4.4986e-05
4 *393:6 0.000112888
5 *393:4 8.53762e-05
6 *352:41 *393:6 6.86929e-06
*RES
1 *851:Y *393:4 17.2 
2 *393:4 *393:6 42.2512 
3 *393:6 *393:10 42.6363 
4 *393:10 resp_msg[7] 26.2363 
*END

*D_NET *394 0.000149039
*CONN
*P resp_msg[8] O
*I *852:Y O *D BUFx2_ASAP7_75t_SL
*CAP
1 resp_msg[8] 3.09712e-05
2 *852:Y 0
3 *394:8 7.45196e-05
4 *394:6 4.35484e-05
*RES
1 *852:Y *394:6 34.4 
2 *394:6 *394:8 36.3242 
3 *394:8 resp_msg[8] 44.9189 
*END

*D_NET *395 0.000307225
*CONN
*P resp_msg[9] O
*I *853:Y O *D BUFx2_ASAP7_75t_SL
*CAP
1 resp_msg[9] 5.78426e-05
2 *853:Y 0
3 *395:14 5.78426e-05
4 *395:12 3.66291e-05
5 *395:6 3.66291e-05
6 *361:5 resp_msg[9] 0.000118281
*RES
1 *853:Y *395:6 34.4 
2 *395:6 *395:12 45.5637 
3 *395:12 *395:14 11.8 
4 *395:14 resp_msg[9] 44.9764 
*END

*D_NET *396 0.000107935
*CONN
*P resp_val O
*I *854:Y O *D BUFx2_ASAP7_75t_SL
*CAP
1 resp_val 1.39613e-05
2 *854:Y 0
3 *396:14 3.92018e-05
4 *396:6 2.52405e-05
5 *378:9 resp_val 2.95314e-05
*RES
1 *854:Y *396:6 34.4 
2 *396:6 *396:14 47.717 
3 *396:14 resp_val 11.0921 
*END

*D_NET *397 0.00182118
*CONN
*I *702:CLK I *D DFFHQNx1_ASAP7_75t_SL
*I *687:CLK I *D DFFHQNx1_ASAP7_75t_SL
*I *703:CLK I *D DFFHQNx1_ASAP7_75t_SL
*I *701:CLK I *D DFFHQNx1_ASAP7_75t_SL
*I *685:CLK I *D DFFHQNx1_ASAP7_75t_SL
*I *686:CLK I *D DFFHQNx1_ASAP7_75t_SL
*I *698:CLK I *D DFFHQNx1_ASAP7_75t_SL
*I *682:CLK I *D DFFHQNx1_ASAP7_75t_SL
*I *864:A I *D BUFx4f_ASAP7_75t_SL
*I *855:Y O *D BUFx4_ASAP7_75t_SL
*CAP
1 *702:CLK 0
2 *687:CLK 0
3 *703:CLK 0
4 *701:CLK 0
5 *685:CLK 0
6 *686:CLK 9.95219e-06
7 *698:CLK 0
8 *682:CLK 2.39559e-06
9 *864:A 0
10 *855:Y 5.33721e-06
11 *397:109 2.02965e-05
12 *397:96 7.79594e-06
13 *397:80 5.3539e-05
14 *397:78 9.3305e-05
15 *397:76 8.57911e-05
16 *397:74 6.11783e-05
17 *397:70 5.58613e-05
18 *397:59 0.000114625
19 *397:57 5.14638e-05
20 *397:55 7.32526e-06
21 *397:51 5.46827e-05
22 *397:44 1.76877e-05
23 *397:38 6.50452e-05
24 *397:36 6.98136e-05
25 *397:23 9.43709e-05
26 *397:21 4.81777e-05
27 *397:12 2.95589e-05
28 *397:8 8.88014e-06
29 *397:23 *409:12 4.90042e-07
30 *397:23 *409:73 9.81412e-07
31 *503:A *397:23 5.95881e-06
32 *503:B *397:8 0
33 *564:A1 *397:51 2.0794e-05
34 *648:B1 *397:70 8.29207e-07
35 *685:D *397:80 4.76072e-05
36 *686:D *397:59 1.02072e-05
37 *870:A *397:23 6.7122e-06
38 *25:10 *397:70 1.12901e-05
39 *25:10 *397:109 1.37373e-05
40 *25:16 *397:76 2.92897e-06
41 *25:16 *397:78 6.15528e-07
42 *28:36 *397:78 0.00016038
43 *28:36 *397:80 4.11203e-05
44 *31:53 *397:80 1.02506e-06
45 *40:6 *397:44 7.58545e-06
46 *40:8 *397:44 1.25483e-05
47 *40:14 *682:CLK 1.68387e-05
48 *40:14 *397:23 2.47157e-05
49 *41:10 *397:8 1.09493e-06
50 *89:12 *397:44 5.22376e-07
51 *94:12 *397:70 4.43925e-06
52 *94:12 *397:109 5.06565e-06
53 *132:10 *397:23 1.91163e-05
54 *146:28 *682:CLK 1.67394e-05
55 *146:28 *397:23 1.93482e-06
56 *147:83 *397:78 6.42883e-05
57 *147:83 *397:80 3.72177e-05
58 *180:8 *397:12 2.12481e-06
59 *180:8 *397:21 9.83747e-06
60 *210:188 *397:44 4.45689e-05
61 *210:188 *397:51 2.49763e-05
62 *213:153 *397:36 0
63 *213:232 *397:51 1.60763e-06
64 *218:8 *397:44 1.33043e-05
65 *218:8 *397:51 1.13541e-05
66 *242:10 *397:70 0
67 *276:301 *397:51 0
68 *276:301 *397:59 0
69 *276:317 *397:59 2.42308e-05
70 *276:317 *397:70 4.91032e-05
71 *276:325 *397:70 3.88115e-06
72 *276:363 *397:59 2.03998e-05
73 *279:277 *397:44 1.19115e-05
74 *279:292 *397:51 0
75 *279:292 *397:59 0
76 *279:301 *397:59 0
77 *279:301 *397:70 0
78 *286:14 *397:36 1.65323e-05
79 *287:24 *397:23 1.91585e-06
80 *291:25 *397:59 2.96149e-05
81 *292:6 *397:74 1.44167e-06
82 *292:6 *397:76 6.53938e-06
83 *292:12 *397:76 3.15143e-05
84 *308:14 *397:21 6.45454e-06
85 *309:24 *397:59 1.50458e-05
86 *310:26 *397:70 9.52255e-07
*RES
1 *855:Y *397:8 37.779 
2 *397:8 *397:12 18.8045 
3 *397:12 *864:A 17.2 
4 *397:12 *397:21 30.5706 
5 *397:21 *397:23 24.8732 
6 *397:23 *682:CLK 39.9378 
7 *397:23 *397:36 41.0082 
8 *397:36 *397:38 17.2 
9 *397:38 *397:44 38.1947 
10 *397:44 *698:CLK 17.2 
11 *397:38 *397:51 38.9523 
12 *397:51 *397:55 19.8741 
13 *397:55 *397:57 17.2 
14 *397:57 *397:59 51.2481 
15 *397:59 *686:CLK 38.1438 
16 *397:59 *397:70 50.1218 
17 *397:70 *397:74 18.8045 
18 *397:74 *397:76 28.3457 
19 *397:76 *397:78 50.8084 
20 *397:78 *397:80 45.4601 
21 *397:80 *685:CLK 17.2 
22 *397:78 *701:CLK 17.2 
23 *397:76 *397:96 38.9053 
24 *397:96 *703:CLK 17.2 
25 *397:74 *397:109 49.1237 
26 *397:109 *687:CLK 17.2 
27 *397:55 *702:CLK 17.2 
*END

*D_NET *398 0.00187571
*CONN
*I *699:CLK I *D DFFHQNx1_ASAP7_75t_SL
*I *700:CLK I *D DFFHQNx1_ASAP7_75t_SL
*I *684:CLK I *D DFFHQNx1_ASAP7_75t_SL
*I *683:CLK I *D DFFHQNx1_ASAP7_75t_SL
*I *697:CLK I *D DFFHQNx1_ASAP7_75t_SL
*I *681:CLK I *D DFFHQNx1_ASAP7_75t_SL
*I *679:CLK I *D DFFHQNx1_ASAP7_75t_SL
*I *678:CLK I *D DFFHQNx1_ASAP7_75t_SL
*I *680:CLK I *D DFFHQNx1_ASAP7_75t_SL
*I *705:CLK I *D DFFHQNx1_ASAP7_75t_SL
*I *856:Y O *D BUFx4_ASAP7_75t_SL
*CAP
1 *699:CLK 7.18773e-05
2 *700:CLK 1.06325e-05
3 *684:CLK 0
4 *683:CLK 0
5 *697:CLK 7.02723e-06
6 *681:CLK 1.23722e-05
7 *679:CLK 0
8 *678:CLK 3.98644e-05
9 *680:CLK 0
10 *705:CLK 0
11 *856:Y 9.76782e-06
12 *398:119 8.46987e-05
13 *398:103 7.55986e-05
14 *398:101 8.62311e-05
15 *398:85 3.12464e-05
16 *398:81 8.50266e-05
17 *398:68 4.28319e-05
18 *398:59 5.92477e-06
19 *398:41 3.98644e-05
20 *398:39 6.19445e-05
21 *398:37 6.19445e-05
22 *398:28 4.04992e-05
23 *398:22 7.82676e-05
24 *398:20 0.000140881
25 *398:18 0.000152385
26 *398:12 0.000121379
27 *398:10 5.48333e-05
28 *398:8 4.15884e-05
29 *398:12 *401:112 0
30 *398:18 *401:45 9.75735e-06
31 *398:18 *401:112 0
32 *398:68 *401:41 3.65372e-05
33 *398:68 *401:112 2.83449e-06
34 *398:68 *402:311 0
35 *464:A1 *398:20 0
36 *548:A *398:103 0
37 *578:B2 *398:119 1.50848e-05
38 *644:C1 *398:10 4.25954e-06
39 *651:C2 *398:28 2.16456e-05
40 *680:D *678:CLK 1.5804e-05
41 *684:D *398:103 5.95208e-05
42 *20:10 *678:CLK 5.60592e-05
43 *37:26 *699:CLK 3.36187e-05
44 *71:26 *398:39 0
45 *96:8 *398:39 0
46 *135:14 *398:119 5.4219e-06
47 *146:18 *398:10 0
48 *146:18 *398:12 0
49 *146:18 *398:18 0
50 *146:18 *398:119 0
51 *147:140 *398:10 2.13376e-07
52 *147:157 *398:10 1.02359e-06
53 *149:93 *398:39 1.06079e-06
54 *149:97 *398:59 5.52652e-06
55 *149:137 *398:18 1.07377e-06
56 *149:137 *398:20 2.3536e-05
57 *151:6 *398:20 6.62168e-05
58 *210:16 *398:28 1.29126e-05
59 *210:142 *398:8 1.47193e-05
60 *210:155 *398:10 1.44082e-05
61 *210:161 *398:85 5.25968e-05
62 *213:8 *398:59 2.83874e-07
63 *213:12 *398:22 0
64 *213:12 *398:28 0
65 *213:18 *398:39 0
66 *225:14 *398:8 6.7842e-07
67 *225:29 *398:10 2.42073e-06
68 *226:8 *398:119 0
69 *231:6 *699:CLK 0
70 *231:12 *398:119 5.19498e-06
71 *276:247 *398:10 6.22763e-06
72 *276:253 *700:CLK 7.55242e-06
73 *276:253 *398:10 4.67442e-06
74 *276:253 *398:12 3.16603e-06
75 *276:253 *398:103 3.56648e-06
76 *279:142 *398:28 1.52167e-06
77 *279:230 *398:10 1.88897e-05
78 *279:250 *398:85 9.40283e-06
79 *289:8 *398:12 1.6136e-06
*RES
1 *856:Y *398:8 39.2134 
2 *398:8 *398:10 17.4581 
3 *398:10 *398:12 30.411 
4 *398:12 *398:18 30.7974 
5 *398:18 *398:20 49.7387 
6 *398:20 *398:22 16.5796 
7 *398:22 *398:28 38.2849 
8 *398:28 *705:CLK 34.4 
9 *398:22 *398:37 17.2 
10 *398:37 *398:39 47.3059 
11 *398:39 *398:41 17.2 
12 *398:41 *680:CLK 17.2 
13 *398:41 *678:CLK 49.8243 
14 *398:20 *398:59 38.9053 
15 *398:59 *679:CLK 17.2 
16 *398:18 *398:68 47.611 
17 *398:68 *681:CLK 41.3527 
18 *398:12 *398:81 49.8243 
19 *398:81 *398:85 39.7266 
20 *398:85 *697:CLK 38.1438 
21 *398:81 *683:CLK 17.2 
22 *398:10 *398:101 17.2 
23 *398:101 *398:103 36.9029 
24 *398:103 *684:CLK 17.2 
25 *398:101 *700:CLK 23.0831 
26 *398:8 *398:119 29.0265 
27 *398:119 *699:CLK 48.7547 
*END

*D_NET *399 0.00139314
*CONN
*I *711:CLK I *D DFFHQNx1_ASAP7_75t_SL
*I *696:CLK I *D DFFHQNx1_ASAP7_75t_SL
*I *712:CLK I *D DFFHQNx1_ASAP7_75t_SL
*I *695:CLK I *D DFFHQNx1_ASAP7_75t_SL
*I *863:A I *D BUFx2_ASAP7_75t_SL
*I *694:CLK I *D DFFHQNx1_ASAP7_75t_SL
*I *710:CLK I *D DFFHQNx1_ASAP7_75t_SL
*I *709:CLK I *D DFFHQNx1_ASAP7_75t_SL
*I *693:CLK I *D DFFHQNx1_ASAP7_75t_SL
*I *692:CLK I *D DFFHQNx1_ASAP7_75t_SL
*I *857:Y O *D BUFx4_ASAP7_75t_SL
*CAP
1 *711:CLK 0
2 *696:CLK 5.5383e-05
3 *712:CLK 0
4 *695:CLK 2.69347e-05
5 *863:A 7.95026e-06
6 *694:CLK 0
7 *710:CLK 1.97743e-05
8 *709:CLK 0
9 *693:CLK 0
10 *692:CLK 0
11 *857:Y 2.58284e-05
12 *399:103 5.5383e-05
13 *399:101 3.70661e-05
14 *399:99 4.56572e-05
15 *399:88 3.55257e-05
16 *399:86 4.97781e-05
17 *399:84 4.97781e-05
18 *399:82 2.44102e-05
19 *399:80 5.20359e-05
20 *399:67 4.17348e-05
21 *399:60 2.76578e-05
22 *399:47 0.000106779
23 *399:38 7.1072e-05
24 *399:29 1.74306e-05
25 *399:22 4.13886e-05
26 *399:16 4.70943e-05
27 *399:14 0.000103359
28 *399:12 0.000103359
29 *399:10 3.19872e-05
30 *399:86 *402:218 0
31 *445:B *399:80 1.66659e-05
32 *445:D *399:80 3.32579e-06
33 *623:A2 *399:60 0
34 *628:A1 *399:86 2.05897e-06
35 *656:C2 *399:47 8.06436e-06
36 *658:C1 *399:80 0
37 *658:C2 *399:82 1.85975e-05
38 *660:C2 *399:101 0
39 *692:D *399:22 1.76928e-06
40 *695:D *695:CLK 1.01102e-06
41 *710:D *710:CLK 2.66797e-07
42 *711:D *399:82 0
43 *712:D *696:CLK 3.53857e-06
44 *46:12 *399:86 0
45 *46:22 *399:80 7.09459e-06
46 *46:28 *399:80 4.50139e-05
47 *46:46 *399:86 0
48 *49:18 *399:80 4.83862e-06
49 *52:25 *399:10 0
50 *52:25 *399:67 0
51 *52:25 *399:80 0
52 *85:10 *399:60 5.52807e-07
53 *102:10 *399:82 1.04475e-06
54 *136:8 *399:10 0
55 *136:8 *399:67 0
56 *136:8 *399:80 0
57 *146:117 *399:22 0
58 *146:117 *399:29 0
59 *146:117 *399:38 0
60 *146:117 *399:47 0
61 *146:125 *399:47 0
62 *264:25 *399:47 2.36328e-05
63 *264:25 *399:60 2.12359e-05
64 *266:10 *399:60 5.79724e-07
65 *270:8 *399:86 2.28585e-05
66 *276:116 *399:86 0
67 *276:116 *399:101 2.78577e-05
68 *276:124 *399:101 8.06799e-07
69 *279:119 *399:101 0
70 *298:31 *399:22 5.52807e-07
71 *299:14 *399:60 6.31056e-06
72 *300:20 *399:86 3.39128e-05
73 *351:12 *399:10 1.25606e-05
74 *351:12 *399:14 4.81457e-05
75 *351:18 *399:22 3.47607e-06
*RES
1 *857:Y *399:10 49.6869 
2 *399:10 *399:12 17.2 
3 *399:12 *399:14 52.9477 
4 *399:14 *399:16 17.2 
5 *399:16 *399:22 47.9757 
6 *399:22 *692:CLK 17.2 
7 *399:16 *399:29 4.50533 
8 *399:29 *693:CLK 34.4 
9 *399:29 *399:38 9.01066 
10 *399:38 *709:CLK 34.4 
11 *399:38 *399:47 46.1796 
12 *399:47 *710:CLK 44.5617 
13 *399:47 *399:60 39.7266 
14 *399:60 *694:CLK 17.2 
15 *399:10 *399:67 4.50533 
16 *399:67 *863:A 39.2134 
17 *399:67 *399:80 47.611 
18 *399:80 *399:82 11.2313 
19 *399:82 *399:84 17.2 
20 *399:84 *399:86 41.6743 
21 *399:86 *399:88 17.2 
22 *399:88 *695:CLK 32.7099 
23 *399:88 *399:99 22.0134 
24 *399:99 *399:101 34.3531 
25 *399:101 *399:103 17.2 
26 *399:103 *712:CLK 17.2 
27 *399:103 *696:CLK 49.8243 
28 *399:82 *711:CLK 17.2 
*END

*D_NET *400 0.00192005
*CONN
*I *862:A I *D BUFx4f_ASAP7_75t_SL
*I *708:CLK I *D DFFHQNx1_ASAP7_75t_SL
*I *707:CLK I *D DFFHQNx1_ASAP7_75t_SL
*I *690:CLK I *D DFFHQNx1_ASAP7_75t_SL
*I *689:CLK I *D DFFHQNx1_ASAP7_75t_SL
*I *688:CLK I *D DFFHQNx1_ASAP7_75t_SL
*I *704:CLK I *D DFFHQNx1_ASAP7_75t_SL
*I *706:CLK I *D DFFHQNx1_ASAP7_75t_SL
*I *691:CLK I *D DFFHQNx1_ASAP7_75t_SL
*I *858:Y O *D BUFx4_ASAP7_75t_SL
*CAP
1 *862:A 0
2 *708:CLK 1.36201e-05
3 *707:CLK 0
4 *690:CLK 0
5 *689:CLK 1.15616e-05
6 *688:CLK 0
7 *704:CLK 1.00273e-05
8 *706:CLK 0
9 *691:CLK 0
10 *858:Y 8.2717e-06
11 *400:112 3.05648e-06
12 *400:76 5.23871e-05
13 *400:67 4.82293e-05
14 *400:63 5.30479e-05
15 *400:61 4.56442e-05
16 *400:50 4.6583e-05
17 *400:39 5.33979e-05
18 *400:37 4.59695e-05
19 *400:33 6.17429e-05
20 *400:31 5.37859e-05
21 *400:22 2.11703e-05
22 *400:20 1.92793e-05
23 *400:16 5.01615e-05
24 *400:14 6.81133e-05
25 *400:10 5.08512e-05
26 *400:8 0.000122247
27 *400:6 0.000133575
28 *400:6 *858:A 6.7842e-07
29 *400:8 *858:A 1.44167e-06
30 *400:39 *402:80 1.71401e-05
31 *400:50 *402:80 2.88806e-06
32 *400:63 *402:68 9.5884e-05
33 *400:67 *401:127 2.80709e-06
34 *400:76 *401:127 1.32421e-05
35 *400:76 *401:239 8.90945e-06
36 *410:A *400:63 1.04475e-06
37 *602:B1 *400:76 2.98302e-05
38 *706:D *400:50 2.12481e-06
39 *707:D *400:16 3.90258e-06
40 *23:18 *400:63 1.75596e-06
41 *57:8 *400:112 4.1009e-06
42 *58:6 *400:16 0
43 *82:10 *400:20 2.83874e-07
44 *82:10 *400:33 0
45 *97:8 *400:50 0
46 *98:10 *400:20 5.49212e-07
47 *136:8 *400:112 4.1009e-06
48 *146:117 *708:CLK 0
49 *146:117 *400:14 0
50 *146:117 *400:20 1.89747e-06
51 *149:61 *400:37 3.73518e-07
52 *210:28 *400:76 1.31716e-05
53 *210:50 *400:37 2.32553e-05
54 *210:59 *400:33 0.000100592
55 *210:59 *400:37 3.25624e-05
56 *210:65 *400:31 1.57785e-05
57 *210:75 *400:20 1.33022e-05
58 *210:86 *400:20 0
59 *213:50 *400:37 0
60 *213:56 *400:33 0
61 *213:56 *400:37 0
62 *213:142 *400:76 0
63 *252:12 *400:37 1.31716e-05
64 *253:10 *400:37 0
65 *276:168 *400:63 0.000159866
66 *276:191 *400:63 1.96943e-05
67 *276:195 *400:63 8.82914e-06
68 *279:186 *400:63 8.20313e-05
69 *293:12 *400:63 1.25529e-05
70 *293:14 *400:63 0.000117174
71 *293:24 *400:63 2.88806e-06
72 *295:39 *400:37 0
73 *296:10 *400:20 3.00843e-05
74 *297:14 *400:8 1.29045e-05
75 *303:6 *400:63 1.04475e-06
76 *329:14 *704:CLK 6.33206e-07
77 *347:10 *400:67 2.32481e-05
78 *347:10 *400:76 7.15894e-05
79 *348:18 *400:50 0
*RES
1 *858:Y *400:6 20.9438 
2 *400:6 *400:8 59.3656 
3 *400:8 *400:10 17.2 
4 *400:10 *400:14 45.9215 
5 *400:14 *400:16 13.3706 
6 *400:16 *400:20 34.6581 
7 *400:20 *400:22 17.2 
8 *400:22 *691:CLK 17.2 
9 *400:22 *400:31 28.4313 
10 *400:31 *400:33 35.4795 
11 *400:33 *400:37 45.3583 
12 *400:37 *400:39 14.4403 
13 *400:39 *706:CLK 17.2 
14 *400:39 *400:50 40.6509 
15 *400:50 *704:CLK 40.0317 
16 *400:50 *400:61 17.2 
17 *400:61 *400:63 82.8979 
18 *400:63 *400:67 25.0843 
19 *400:67 *688:CLK 34.4 
20 *400:67 *400:76 46.1796 
21 *400:76 *689:CLK 40.2831 
22 *400:33 *690:CLK 34.4 
23 *400:16 *707:CLK 17.2 
24 *400:10 *708:CLK 43.4107 
25 *400:6 *400:112 37.779 
26 *400:112 *862:A 17.2 
*END

*D_NET *401 0.00584129
*CONN
*I *597:A1 I *D AO21x1_ASAP7_75t_SL
*I *601:A I *D NOR2x1_ASAP7_75t_SL
*I *631:A I *D NOR2x1_ASAP7_75t_SL
*I *632:A1 I *D AO221x2_ASAP7_75t_SL
*I *582:A1 I *D AO21x1_ASAP7_75t_SL
*I *626:A I *D NOR2x1_ASAP7_75t_SL
*I *627:A1 I *D AO221x2_ASAP7_75t_SL
*I *602:A1 I *D AO221x2_ASAP7_75t_SL
*I *605:A1 I *D AO21x1_ASAP7_75t_SL
*I *609:A1 I *D AO21x1_ASAP7_75t_SL
*I *621:A1 I *D AO21x1_ASAP7_75t_SL
*I *618:A1 I *D AO21x1_ASAP7_75t_SL
*I *614:A1 I *D AO21x1_ASAP7_75t_SL
*I *578:A1 I *D OA33x2_ASAP7_75t_SL
*I *559:A1 I *D AO21x1_ASAP7_75t_SL
*I *593:A1 I *D AO21x1_ASAP7_75t_SL
*I *588:A1 I *D AO21x1_ASAP7_75t_SL
*I *563:A1 I *D AO21x1_ASAP7_75t_SL
*I *577:A1 I *D AO21x1_ASAP7_75t_SL
*I *465:A2 I *D AO221x1_ASAP7_75t_SL
*I *859:Y O *D BUFx3_ASAP7_75t_SL
*CAP
1 *597:A1 4.37991e-06
2 *601:A 0
3 *631:A 5.08507e-06
4 *632:A1 3.94382e-06
5 *582:A1 0
6 *626:A 0
7 *627:A1 3.62653e-05
8 *602:A1 0
9 *605:A1 0
10 *609:A1 0
11 *621:A1 0
12 *618:A1 0
13 *614:A1 6.26346e-06
14 *578:A1 2.05281e-06
15 *559:A1 0
16 *593:A1 5.33313e-06
17 *588:A1 0
18 *563:A1 0
19 *577:A1 0
20 *465:A2 2.96905e-06
21 *859:Y 3.2396e-05
22 *401:317 3.57409e-06
23 *401:311 0.000189606
24 *401:309 0.000186032
25 *401:307 7.39299e-06
26 *401:303 3.45048e-05
27 *401:299 9.39458e-05
28 *401:297 7.37799e-05
29 *401:281 4.85165e-05
30 *401:277 3.08811e-05
31 *401:271 4.9502e-05
32 *401:265 5.29793e-05
33 *401:259 3.30448e-05
34 *401:253 3.21232e-05
35 *401:247 0.000139244
36 *401:245 0.000134033
37 *401:243 1.08067e-05
38 *401:239 5.88888e-05
39 *401:232 1.14137e-05
40 *401:217 7.07845e-06
41 *401:201 3.56008e-05
42 *401:188 7.39393e-05
43 *401:186 3.83385e-05
44 *401:184 2.99769e-05
45 *401:169 0.000107798
46 *401:167 7.51835e-05
47 *401:163 1.92567e-05
48 *401:157 5.23315e-05
49 *401:153 7.38553e-05
50 *401:147 0.000129176
51 *401:145 8.73021e-05
52 *401:139 7.84688e-05
53 *401:135 0.00011594
54 *401:129 5.12448e-05
55 *401:127 0.000113756
56 *401:125 6.935e-05
57 *401:112 7.57063e-05
58 *401:96 6.25485e-05
59 *401:87 9.17201e-05
60 *401:85 5.39404e-05
61 *401:70 8.70606e-05
62 *401:68 7.66556e-05
63 *401:59 5.35632e-06
64 *401:53 2.91302e-05
65 *401:49 9.80387e-05
66 *401:47 8.32953e-05
67 *401:45 6.81272e-05
68 *401:43 6.81272e-05
69 *401:41 0.000134723
70 *401:39 6.10697e-05
71 *401:37 6.63974e-05
72 *401:28 8.32233e-05
73 *401:22 0.000140368
74 *401:20 0.000134243
75 *401:14 3.7205e-05
76 *401:6 6.25728e-05
77 *401:41 *402:480 0
78 *401:112 *403:63 0
79 *401:153 *402:99 0
80 *401:169 *402:131 0
81 *401:188 *617:A 2.01457e-05
82 *401:188 *402:144 1.24441e-05
83 *401:247 *407:48 2.98814e-08
84 *401:311 *402:434 0
85 *465:C *401:28 4.7643e-07
86 *466:A *401:135 1.51653e-06
87 *466:B *401:135 6.70433e-06
88 *489:C *401:247 4.64191e-07
89 *493:B *401:247 9.00919e-07
90 *559:B *401:45 1.60115e-05
91 *570:A1 *401:49 0
92 *597:B *401:14 2.90269e-07
93 *602:C *401:232 5.62196e-06
94 *609:A2 *401:167 8.87763e-06
95 *614:B *614:A1 8.87763e-06
96 *614:B *401:184 3.94592e-06
97 *621:A2 *401:201 5.51397e-07
98 *625:A1 *401:271 2.03509e-05
99 *625:A2 *401:271 3.18889e-06
100 *625:B *401:271 2.0455e-05
101 *625:B *401:297 9.30483e-06
102 *631:B *631:A 5.79724e-07
103 *631:B *401:299 5.52264e-06
104 *665:A *401:112 6.8435e-06
105 *849:A *401:184 1.5225e-05
106 *20:14 *401:22 5.77223e-05
107 *20:16 *401:22 3.12984e-06
108 *20:60 *401:188 7.35063e-07
109 *20:64 *401:188 2.38501e-05
110 *20:79 *401:127 1.22836e-05
111 *22:18 *401:127 3.47607e-06
112 *25:32 *401:311 0
113 *43:39 *401:299 5.37569e-06
114 *46:68 *401:271 9.94583e-06
115 *47:6 *401:253 9.30483e-06
116 *57:57 *401:247 3.7862e-06
117 *61:23 *401:147 2.12481e-06
118 *61:32 *401:147 8.39579e-06
119 *64:37 *401:243 6.7842e-07
120 *64:37 *401:247 1.6136e-06
121 *66:14 *401:135 1.94229e-07
122 *74:14 *401:49 0
123 *75:12 *401:112 0
124 *81:10 *401:147 2.30288e-06
125 *106:6 *401:22 3.09538e-06
126 *106:12 *401:22 6.49184e-07
127 *106:27 *401:28 2.02432e-06
128 *113:18 *401:247 0
129 *113:48 *401:247 0
130 *116:20 *401:247 2.37879e-05
131 *118:14 *401:247 5.55315e-06
132 *118:14 *401:259 1.80102e-05
133 *118:18 *401:247 0
134 *118:39 *401:247 1.49407e-08
135 *118:65 *401:259 5.80403e-05
136 *120:13 *401:20 9.66472e-07
137 *125:18 *401:247 2.82333e-06
138 *141:50 *401:265 0
139 *141:54 *401:247 4.05623e-06
140 *141:62 *401:247 5.05435e-05
141 *141:72 *401:247 3.17441e-06
142 *146:73 *401:135 8.65045e-05
143 *146:73 *401:232 9.30483e-06
144 *146:79 *401:135 3.79923e-06
145 *146:91 *401:139 3.39771e-05
146 *147:47 *401:259 5.52807e-07
147 *147:47 *401:265 8.21855e-06
148 *147:60 *401:297 3.50589e-05
149 *147:62 *401:299 5.6168e-05
150 *147:136 *401:112 3.73518e-07
151 *149:10 *401:163 0
152 *149:23 *401:169 0
153 *149:29 *401:188 0
154 *149:44 *401:217 0
155 *149:137 *401:45 0.000199402
156 *149:141 *401:49 4.34775e-06
157 *149:156 *401:49 0
158 *149:156 *401:70 1.692e-05
159 *149:169 *401:70 1.19628e-05
160 *149:169 *401:85 4.09697e-07
161 *149:182 *401:87 0
162 *149:182 *401:96 0
163 *149:193 *401:96 0
164 *149:204 *401:96 0
165 *149:212 *401:96 0
166 *159:53 *401:259 2.66045e-05
167 *159:66 *401:259 8.06436e-06
168 *163:12 *401:259 1.12254e-05
169 *163:12 *401:265 5.37866e-07
170 *168:8 *401:247 1.63536e-05
171 *210:28 *401:127 5.06565e-06
172 *210:203 *401:87 0.000106177
173 *210:203 *401:96 1.85329e-05
174 *210:218 *401:96 7.03655e-05
175 *213:56 *401:153 7.03708e-06
176 *213:56 *401:217 2.36328e-05
177 *213:62 *401:157 8.146e-06
178 *213:72 *401:157 6.29754e-06
179 *213:175 *401:49 0
180 *213:285 *401:259 3.65131e-06
181 *213:285 *401:277 2.28884e-06
182 *213:302 *632:A1 5.52807e-07
183 *219:10 *401:70 7.93359e-06
184 *230:8 *578:A1 2.52755e-07
185 *232:39 *401:271 6.33206e-07
186 *232:52 *401:299 0
187 *234:8 *401:317 0
188 *239:8 *401:96 3.73343e-05
189 *246:8 *401:127 1.28148e-05
190 *247:12 *401:127 1.21742e-05
191 *249:8 *401:247 5.97901e-06
192 *250:12 *401:239 0
193 *262:8 *401:188 0
194 *268:6 *401:271 9.15304e-06
195 *269:12 *627:A1 0.000102995
196 *271:8 *631:A 2.83874e-07
197 *271:8 *401:299 1.09067e-06
198 *274:12 *401:303 5.54001e-05
199 *274:18 *401:299 0
200 *276:28 *401:247 1.52999e-05
201 *276:243 *401:112 3.6736e-06
202 *279:277 *401:49 0
203 *279:277 *401:59 0
204 *279:292 *401:70 0
205 *289:8 *401:112 1.4124e-05
206 *289:16 *401:112 4.37438e-05
207 *295:16 *401:147 7.09118e-06
208 *297:20 *401:169 0
209 *297:20 *401:184 0
210 *300:50 *401:281 2.22736e-06
211 *301:8 *401:299 0
212 *307:22 *401:112 4.10378e-06
213 *311:8 *401:49 0
214 *312:8 *401:20 7.92402e-06
215 *312:8 *401:127 1.02642e-06
216 *313:8 *401:127 0
217 *313:8 *401:232 0
218 *313:8 *401:239 0
219 *317:12 *614:A1 2.0895e-06
220 *318:12 *401:188 0
221 *319:8 *401:188 0
222 *319:8 *401:201 0
223 *331:8 *401:169 0
224 *338:14 *401:22 4.63247e-05
225 *338:20 *401:22 5.7592e-05
226 *347:8 *401:135 2.19163e-06
227 *347:10 *401:127 2.64748e-06
228 *349:12 *401:163 4.74248e-06
229 *349:12 *401:169 2.83874e-07
230 *352:8 *401:259 3.56648e-06
231 *352:12 *401:265 5.37569e-06
232 *353:28 *401:277 5.25794e-06
233 *353:41 *401:271 0
234 *353:41 *401:281 1.12894e-06
235 *354:23 *632:A1 2.39567e-06
236 *354:23 *401:307 1.48586e-06
237 *355:10 *401:28 3.38221e-06
238 *355:18 *465:A2 1.23489e-06
239 *355:18 *401:37 1.26391e-06
240 *355:29 *401:28 3.70913e-06
241 *375:9 *401:188 4.2627e-06
242 *375:9 *401:201 3.84225e-05
243 *398:12 *401:112 0
244 *398:18 *401:45 9.75735e-06
245 *398:18 *401:112 0
246 *398:68 *401:41 3.65372e-05
247 *398:68 *401:112 2.83449e-06
248 *400:67 *401:127 2.80709e-06
249 *400:76 *401:127 1.32421e-05
250 *400:76 *401:239 8.90945e-06
*RES
1 *859:Y *401:6 33.7796 
2 *401:6 *401:14 46.3079 
3 *401:14 *401:20 41.158 
4 *401:20 *401:22 86.1068 
5 *401:22 *401:28 44.537 
6 *401:28 *465:A2 18.8045 
7 *401:28 *401:37 33.694 
8 *401:37 *401:39 17.2 
9 *401:39 *401:41 51.2481 
10 *401:41 *401:43 17.2 
11 *401:43 *401:45 62.5745 
12 *401:45 *401:47 17.2 
13 *401:47 *401:49 61.9483 
14 *401:49 *401:53 23.0831 
15 *401:53 *401:59 38.9053 
16 *401:59 *577:A1 17.2 
17 *401:53 *401:68 20.9438 
18 *401:68 *401:70 55.1903 
19 *401:70 *563:A1 34.4 
20 *401:70 *401:85 40.9737 
21 *401:85 *401:87 35.5733 
22 *401:87 *588:A1 34.4 
23 *401:87 *401:96 60.8219 
24 *401:96 *593:A1 37.0741 
25 *401:45 *559:A1 17.2 
26 *401:41 *401:112 60.8219 
27 *401:112 *578:A1 35.4697 
28 *401:14 *401:125 18.8045 
29 *401:125 *401:127 55.7534 
30 *401:127 *401:129 17.2 
31 *401:129 *401:135 49.6208 
32 *401:135 *401:139 46.852 
33 *401:139 *401:145 35.6202 
34 *401:145 *401:147 54.0173 
35 *401:147 *401:153 44.5967 
36 *401:153 *401:157 41.2671 
37 *401:157 *401:163 45.6633 
38 *401:163 *401:167 19.8741 
39 *401:167 *401:169 56.3166 
40 *401:169 *614:A1 39.2134 
41 *401:169 *401:184 34.1763 
42 *401:184 *401:186 17.2 
43 *401:186 *401:188 38.8585 
44 *401:188 *618:A1 34.4 
45 *401:188 *401:201 48.6523 
46 *401:201 *621:A1 17.2 
47 *401:163 *609:A1 17.2 
48 *401:147 *401:217 42.2843 
49 *401:217 *605:A1 17.2 
50 *401:129 *401:232 44.3103 
51 *401:232 *602:A1 17.2 
52 *401:127 *401:239 38.2953 
53 *401:239 *401:243 22.0134 
54 *401:243 *401:245 17.2 
55 *401:245 *401:247 110.381 
56 *401:247 *401:253 37.0741 
57 *401:253 *401:259 49.1588 
58 *401:259 *401:265 41.158 
59 *401:265 *401:271 39.3546 
60 *401:271 *401:277 43.492 
61 *401:277 *401:281 25.0843 
62 *401:281 *627:A1 48.2198 
63 *401:281 *626:A 17.2 
64 *401:265 *401:297 30.5706 
65 *401:297 *401:299 55.7534 
66 *401:299 *401:303 33.7796 
67 *401:303 *401:307 19.1711 
68 *401:307 *401:309 17.2 
69 *401:309 *401:311 54.9753 
70 *401:311 *401:317 36.3711 
71 *401:317 *582:A1 17.2 
72 *401:307 *632:A1 37.4974 
73 *401:299 *631:A 37.779 
74 *401:243 *601:A 17.2 
75 *401:6 *597:A1 20.9438 
*END

*D_NET *402 0.0061858
*CONN
*I *640:A1 I *D OA222x2_ASAP7_75t_SL
*I *644:A1 I *D OA222x2_ASAP7_75t_SL
*I *647:A1 I *D OA222x2_ASAP7_75t_SL
*I *581:C I *D OA211x2_ASAP7_75t_SL
*I *646:A1 I *D OA222x2_ASAP7_75t_SL
*I *648:A1 I *D OA222x2_ASAP7_75t_SL
*I *641:A1 I *D OA222x2_ASAP7_75t_SL
*I *643:A1 I *D OA222x2_ASAP7_75t_SL
*I *567:A I *D NOR2x1_ASAP7_75t_SL
*I *568:A I *D AND3x1_ASAP7_75t_SL
*I *454:A2 I *D OA21x2_ASAP7_75t_SL
*I *552:A I *D NAND2x1_ASAP7_75t_SL
*I *638:A I *D NAND2x2_ASAP7_75t_SL
*I *651:A1 I *D OA222x2_ASAP7_75t_SL
*I *596:A I *D AND3x1_ASAP7_75t_SL
*I *652:A1 I *D OA222x2_ASAP7_75t_SL
*I *653:A1 I *D OA222x2_ASAP7_75t_SL
*I *654:A1 I *D OA222x2_ASAP7_75t_SL
*I *660:A1 I *D OA222x2_ASAP7_75t_SL
*I *658:A1 I *D OA222x2_ASAP7_75t_SL
*I *656:A1 I *D OA222x2_ASAP7_75t_SL
*I *655:A1 I *D OA222x2_ASAP7_75t_SL
*I *617:A I *D AND3x1_ASAP7_75t_SL
*I *613:A I *D AND3x1_ASAP7_75t_SL
*I *460:A I *D AND2x2_ASAP7_75t_SL
*I *649:A1 I *D OA222x2_ASAP7_75t_SL
*I *413:A I *D INVx1_ASAP7_75t_SL
*I *860:Y O *D BUFx3_ASAP7_75t_SL
*CAP
1 *640:A1 0
2 *644:A1 1.05111e-05
3 *647:A1 0
4 *581:C 0
5 *646:A1 2.39915e-06
6 *648:A1 0
7 *641:A1 2.05786e-06
8 *643:A1 4.4268e-06
9 *567:A 4.37682e-06
10 *568:A 0
11 *454:A2 0
12 *552:A 2.86153e-06
13 *638:A 1.56248e-05
14 *651:A1 5.21695e-06
15 *596:A 0
16 *652:A1 1.99249e-06
17 *653:A1 0
18 *654:A1 2.46886e-06
19 *660:A1 1.17634e-05
20 *658:A1 1.91664e-06
21 *656:A1 2.22261e-06
22 *655:A1 4.39882e-06
23 *617:A 9.15183e-06
24 *613:A 0
25 *460:A 0
26 *649:A1 1.10908e-06
27 *413:A 1.26008e-05
28 *860:Y 0
29 *402:482 2.99585e-05
30 *402:480 4.02979e-05
31 *402:463 2.02184e-05
32 *402:434 3.71595e-05
33 *402:428 4.24948e-05
34 *402:420 1.7257e-05
35 *402:418 1.91604e-05
36 *402:412 8.97734e-05
37 *402:410 8.54466e-05
38 *402:399 7.89007e-05
39 *402:397 7.35896e-05
40 *402:395 1.41887e-05
41 *402:391 5.9989e-05
42 *402:380 8.6833e-05
43 *402:369 3.24889e-05
44 *402:361 8.16131e-05
45 *402:359 2.79551e-05
46 *402:340 3.40753e-05
47 *402:331 2.64887e-05
48 *402:323 6.1753e-05
49 *402:319 5.75543e-05
50 *402:311 0.000104327
51 *402:309 8.86493e-05
52 *402:307 3.38439e-05
53 *402:272 4.01946e-05
54 *402:266 8.65124e-05
55 *402:255 0.000123339
56 *402:218 7.73684e-05
57 *402:216 6.5605e-05
58 *402:214 2.53704e-05
59 *402:199 2.7287e-05
60 *402:197 0.000124657
61 *402:186 1.71243e-05
62 *402:182 0.000160934
63 *402:167 3.43553e-05
64 *402:154 3.72072e-05
65 *402:148 4.39506e-05
66 *402:144 3.88585e-05
67 *402:131 1.51653e-05
68 *402:123 5.25753e-05
69 *402:117 8.33409e-06
70 *402:115 3.30854e-05
71 *402:113 3.63842e-05
72 *402:109 3.29875e-06
73 *402:107 2.07e-05
74 *402:99 5.87591e-05
75 *402:90 8.12442e-05
76 *402:88 4.3185e-05
77 *402:86 4.33796e-05
78 *402:80 8.22311e-05
79 *402:74 4.14892e-05
80 *402:68 4.64582e-05
81 *402:66 4.1828e-05
82 *402:64 1.60784e-05
83 *402:45 2.79257e-05
84 *402:43 3.05199e-05
85 *402:28 4.26338e-05
86 *402:24 6.81868e-05
87 *402:22 0.000111385
88 *402:20 5.34492e-05
89 *402:18 7.02959e-05
90 *402:14 8.45651e-05
91 *402:12 8.8752e-05
92 *402:6 9.18651e-05
93 *402:4 9.99282e-05
94 *455:B *402:14 1.47272e-05
95 *549:A *567:A 1.35684e-06
96 *549:A *402:340 1.82258e-05
97 *568:C *402:331 1.99018e-05
98 *568:C *402:340 1.25483e-05
99 *579:A *638:A 2.05883e-06
100 *596:C *402:22 1.96943e-05
101 *628:A1 *402:218 0
102 *638:B *638:A 3.65131e-06
103 *643:B1 *402:369 1.49407e-08
104 *643:B2 *643:A1 1.22004e-05
105 *649:B2 *402:64 6.33206e-07
106 *653:A2 *402:113 6.7842e-07
107 *653:A2 *402:115 1.34257e-05
108 *655:A2 *655:A1 7.63254e-07
109 *658:B1 *402:214 0
110 *664:B *402:434 2.05883e-06
111 *859:A *413:A 1.21136e-05
112 *4:12 *402:307 2.22736e-06
113 *4:18 *402:6 6.83843e-06
114 *18:20 *567:A 4.83862e-06
115 *18:20 *402:359 4.83862e-06
116 *20:10 *402:12 0
117 *20:28 *402:90 2.981e-05
118 *20:37 *402:90 1.64764e-06
119 *20:37 *402:99 2.16024e-05
120 *20:37 *402:107 1.15945e-06
121 *20:37 *402:115 5.52807e-07
122 *20:45 *402:115 3.0215e-05
123 *20:45 *402:123 4.10928e-06
124 *20:45 *402:144 3.32524e-06
125 *20:60 *402:144 1.96989e-05
126 *20:98 *402:6 4.73041e-06
127 *22:12 *402:255 0
128 *25:16 *402:412 0.000101234
129 *25:28 *402:420 3.33273e-05
130 *25:32 *402:434 6.4347e-06
131 *26:14 *402:418 6.72662e-07
132 *27:10 *402:418 0
133 *28:36 *402:412 1.04765e-05
134 *30:60 *402:399 1.67815e-06
135 *31:16 *402:428 1.30795e-06
136 *31:53 *402:434 1.01707e-05
137 *34:10 *402:331 1.45047e-06
138 *34:14 *402:323 0
139 *37:20 *643:A1 2.27522e-06
140 *37:20 *402:369 2.84411e-06
141 *64:18 *402:266 3.63248e-06
142 *64:27 *402:266 0.000109663
143 *67:8 *402:64 1.2768e-05
144 *71:12 *402:482 0.000106701
145 *71:18 *402:307 1.34466e-06
146 *71:18 *402:480 8.33296e-06
147 *71:20 *402:6 0
148 *75:12 *402:319 1.70708e-06
149 *75:12 *402:463 8.33296e-06
150 *86:8 *402:218 9.93857e-06
151 *94:12 *402:399 8.57583e-06
152 *94:12 *402:410 1.96289e-05
153 *95:8 *402:28 9.66909e-06
154 *95:12 *402:43 2.3039e-05
155 *133:60 *402:266 0
156 *137:14 *552:A 1.36155e-06
157 *137:14 *402:272 2.0895e-06
158 *141:93 *552:A 1.56807e-06
159 *141:93 *402:266 6.12107e-06
160 *145:8 *402:14 2.67862e-05
161 *146:18 *402:331 0
162 *146:69 *402:255 2.18135e-06
163 *146:69 *402:266 5.37866e-07
164 *146:166 *402:266 5.40854e-06
165 *147:14 *402:266 3.05118e-08
166 *147:98 *402:272 5.60645e-06
167 *147:109 *638:A 8.33296e-06
168 *147:109 *402:272 3.56177e-06
169 *147:128 *644:A1 2.01337e-05
170 *147:128 *402:463 1.07377e-06
171 *147:136 *644:A1 5.19552e-07
172 *149:23 *402:107 4.97342e-06
173 *149:23 *402:115 1.13379e-05
174 *149:29 *402:115 1.05266e-05
175 *149:29 *402:148 4.55339e-06
176 *149:29 *402:167 8.36938e-06
177 *149:44 *402:90 9.77825e-06
178 *149:44 *402:99 5.33743e-06
179 *208:10 *402:482 1.12839e-05
180 *208:29 *402:482 4.57952e-06
181 *210:16 *402:255 0
182 *210:16 *402:266 0
183 *210:161 *567:A 5.09995e-06
184 *210:161 *402:359 2.09673e-05
185 *210:186 *402:359 8.21945e-06
186 *210:186 *402:369 9.22573e-07
187 *213:56 *402:90 0
188 *213:64 *402:99 1.84022e-05
189 *213:83 *402:99 4.37858e-05
190 *213:102 *402:148 4.00499e-05
191 *213:102 *402:167 1.64046e-05
192 *213:113 *402:167 2.4723e-05
193 *213:113 *402:182 6.30954e-05
194 *213:113 *402:186 9.39763e-06
195 *213:157 *402:391 3.05118e-08
196 *213:163 *641:A1 2.52755e-07
197 *213:163 *402:391 1.02842e-06
198 *213:167 *402:361 9.55553e-07
199 *213:167 *402:380 6.96246e-06
200 *213:293 *402:218 1.57656e-05
201 *220:12 *402:391 0
202 *223:8 *402:340 1.04899e-05
203 *232:14 *402:266 0
204 *234:8 *402:418 0
205 *252:25 *402:74 5.51814e-06
206 *255:10 *402:99 1.44908e-05
207 *255:10 *402:107 3.56648e-06
208 *260:10 *402:144 1.45409e-05
209 *263:8 *655:A1 3.48165e-06
210 *276:62 *402:148 2.98428e-05
211 *276:89 *402:186 1.89747e-06
212 *276:112 *402:214 4.73997e-05
213 *276:166 *402:255 8.06436e-06
214 *276:191 *402:64 4.43244e-06
215 *276:280 *402:340 5.5264e-05
216 *276:301 *402:391 5.52807e-07
217 *276:301 *402:399 3.32579e-06
218 *276:309 *402:399 6.57985e-05
219 *276:317 *402:399 7.17445e-05
220 *276:329 *402:434 1.01765e-05
221 *279:42 *402:214 3.33273e-05
222 *279:55 *402:214 1.34087e-05
223 *279:134 *638:A 8.84338e-06
224 *279:134 *402:266 0
225 *279:160 *402:255 3.93602e-06
226 *279:170 *402:28 6.33206e-07
227 *279:176 *402:28 0
228 *279:176 *402:45 0
229 *279:182 *402:45 0
230 *279:182 *402:64 2.08675e-06
231 *279:186 *402:68 1.66266e-05
232 *279:207 *644:A1 5.22376e-07
233 *279:207 *402:319 9.30483e-06
234 *279:207 *402:463 9.08513e-06
235 *279:215 *402:323 2.30654e-05
236 *279:269 *402:359 1.70708e-06
237 *279:269 *402:369 0
238 *279:275 *402:359 4.92332e-06
239 *279:314 *402:434 5.83659e-05
240 *283:10 *402:266 5.52807e-07
241 *287:14 *402:380 3.00603e-06
242 *288:8 *402:340 2.34603e-06
243 *290:10 *402:434 2.0915e-06
244 *291:25 *402:399 3.21095e-05
245 *292:27 *402:410 1.30874e-05
246 *293:50 *402:22 3.64631e-06
247 *293:50 *402:24 6.09485e-06
248 *295:39 *402:80 1.12894e-06
249 *296:26 *402:107 3.76935e-06
250 *297:20 *402:115 2.22736e-06
251 *297:20 *402:123 5.03576e-06
252 *297:20 *402:131 5.67735e-06
253 *297:20 *402:144 7.66607e-06
254 *299:46 *402:218 7.31006e-05
255 *300:26 *658:A1 1.09842e-06
256 *300:26 *402:214 1.12894e-06
257 *304:20 *402:482 6.7842e-07
258 *307:6 *402:359 5.00816e-06
259 *307:12 *402:359 9.94583e-06
260 *307:14 *644:A1 1.95129e-06
261 *307:14 *402:340 2.52755e-07
262 *307:22 *644:A1 6.7842e-07
263 *309:24 *402:399 3.05118e-08
264 *315:14 *649:A1 5.85387e-06
265 *315:14 *402:45 2.28856e-05
266 *326:8 *402:14 4.7125e-06
267 *326:10 *402:18 1.33702e-06
268 *326:10 *402:255 8.97937e-06
269 *331:12 *654:A1 2.03526e-06
270 *331:12 *402:123 2.03526e-06
271 *331:12 *402:131 1.62312e-05
272 *334:6 *402:182 0
273 *334:6 *402:197 0
274 *335:14 *660:A1 1.43369e-05
275 *336:12 *413:A 7.64042e-07
276 *338:31 *402:12 4.10683e-05
277 *341:8 *402:395 2.03526e-06
278 *341:10 *402:380 8.06911e-05
279 *341:10 *402:391 0.000122676
280 *341:18 *402:359 5.47466e-06
281 *341:18 *402:361 9.17732e-06
282 *341:18 *402:380 1.76183e-05
283 *348:18 *402:74 1.63973e-05
284 *351:38 *402:167 1.97537e-05
285 *351:38 *402:182 6.17367e-05
286 *392:10 *402:186 3.0215e-05
287 *398:68 *402:311 0
288 *399:86 *402:218 0
289 *400:39 *402:80 1.71401e-05
290 *400:50 *402:80 2.88806e-06
291 *400:63 *402:68 9.5884e-05
292 *401:41 *402:480 0
293 *401:153 *402:99 0
294 *401:169 *402:131 0
295 *401:188 *617:A 2.01457e-05
296 *401:188 *402:144 1.24441e-05
297 *401:311 *402:434 0
*RES
1 *860:Y *402:4 17.2 
2 *402:4 *402:6 34.7636 
3 *402:6 *402:12 48.4791 
4 *402:12 *402:14 41.1815 
5 *402:14 *402:18 25.0843 
6 *402:18 *402:20 17.2 
7 *402:20 *402:22 33.694 
8 *402:22 *402:24 33.694 
9 *402:24 *402:28 25.0843 
10 *402:28 *413:A 46.7897 
11 *402:28 *402:43 48.8403 
12 *402:43 *402:45 9.01066 
13 *402:45 *649:A1 36.0045 
14 *402:45 *402:64 47.7176 
15 *402:64 *402:66 17.2 
16 *402:66 *402:68 41.1815 
17 *402:68 *402:74 40.0317 
18 *402:74 *402:80 37.2719 
19 *402:80 *402:86 44.083 
20 *402:86 *402:88 17.2 
21 *402:88 *402:90 42.8006 
22 *402:90 *460:A 34.4 
23 *402:90 *402:99 45.0533 
24 *402:99 *402:107 49.237 
25 *402:107 *402:109 17.2 
26 *402:109 *402:113 18.8045 
27 *402:113 *402:115 34.3531 
28 *402:115 *402:117 17.2 
29 *402:117 *402:123 22.7466 
30 *402:123 *402:131 43.7188 
31 *402:131 *613:A 34.4 
32 *402:123 *402:144 45.553 
33 *402:144 *402:148 30.716 
34 *402:148 *402:154 44.5617 
35 *402:154 *617:A 42.2276 
36 *402:148 *402:167 14.0792 
37 *402:167 *655:A1 37.0741 
38 *402:167 *402:182 42.8506 
39 *402:182 *402:186 33.5318 
40 *402:186 *656:A1 35.4697 
41 *402:182 *402:197 56.1566 
42 *402:197 *402:199 17.2 
43 *402:199 *658:A1 36.0895 
44 *402:199 *402:214 44.8728 
45 *402:214 *402:216 17.2 
46 *402:216 *402:218 59.6956 
47 *402:218 *660:A1 44.5617 
48 *402:117 *654:A1 18.8045 
49 *402:109 *653:A1 17.2 
50 *402:80 *652:A1 35.4697 
51 *402:22 *596:A 17.2 
52 *402:18 *402:255 43.9269 
53 *402:255 *651:A1 37.0741 
54 *402:255 *402:266 56.3166 
55 *402:266 *402:272 45.6313 
56 *402:272 *638:A 47.2111 
57 *402:266 *552:A 37.1591 
58 *402:12 *454:A2 17.2 
59 *402:4 *402:307 48.2241 
60 *402:307 *402:309 17.2 
61 *402:309 *402:311 68.1431 
62 *402:311 *402:319 37.7312 
63 *402:319 *402:323 34.515 
64 *402:323 *402:331 41.8787 
65 *402:331 *568:A 17.2 
66 *402:331 *402:340 34.8492 
67 *402:340 *567:A 37.694 
68 *402:340 *402:359 49.3504 
69 *402:359 *402:361 9.47996 
70 *402:361 *402:369 42.3585 
71 *402:369 *643:A1 37.609 
72 *402:361 *402:380 41.205 
73 *402:380 *641:A1 35.4697 
74 *402:380 *402:391 43.9269 
75 *402:391 *402:395 25.2224 
76 *402:395 *402:397 17.2 
77 *402:397 *402:399 85.0381 
78 *402:399 *648:A1 34.4 
79 *402:399 *402:410 23.958 
80 *402:410 *402:412 40.1119 
81 *402:412 *402:418 41.158 
82 *402:418 *402:420 10.6965 
83 *402:420 *402:428 38.7548 
84 *402:428 *402:434 37.8002 
85 *402:434 *646:A1 35.4697 
86 *402:420 *581:C 17.2 
87 *402:395 *647:A1 17.2 
88 *402:311 *402:463 42.7058 
89 *402:463 *644:A1 42.4224 
90 *402:307 *402:480 41.6361 
91 *402:480 *402:482 34.7636 
92 *402:482 *640:A1 17.2 
*END

*D_NET *403 0.000945386
*CONN
*I *855:A I *D BUFx4_ASAP7_75t_SL
*I *856:A I *D BUFx4_ASAP7_75t_SL
*I *857:A I *D BUFx4_ASAP7_75t_SL
*I *858:A I *D BUFx4_ASAP7_75t_SL
*I *861:Y O *D BUFx4_ASAP7_75t_SL
*CAP
1 *855:A 0
2 *856:A 0
3 *857:A 5.57419e-06
4 *858:A 1.91999e-06
5 *861:Y 0
6 *403:83 3.73072e-05
7 *403:63 1.40095e-05
8 *403:59 5.96698e-05
9 *403:53 8.29675e-05
10 *403:51 6.83947e-05
11 *403:49 6.83947e-05
12 *403:33 4.46509e-05
13 *403:19 3.3357e-06
14 *403:17 4.04924e-05
15 *403:15 0.000157606
16 *403:13 0.000180427
17 *403:6 2.28214e-05
18 *665:A *403:63 0
19 *34:33 *403:63 3.84449e-06
20 *36:47 *403:83 1.16989e-06
21 *56:10 *403:33 4.5947e-06
22 *57:8 *403:19 6.41585e-07
23 *57:8 *403:33 1.42337e-05
24 *75:12 *403:63 7.27389e-06
25 *117:12 *403:33 9.31958e-06
26 *117:27 *403:15 0
27 *117:46 *403:15 0
28 *136:8 *403:19 1.69875e-06
29 *136:8 *403:33 5.45515e-05
30 *159:28 *403:33 2.59605e-06
31 *210:142 *403:63 1.45743e-06
32 *213:153 *403:51 0
33 *213:153 *403:83 1.24672e-08
34 *286:14 *403:15 0
35 *286:14 *403:51 4.92085e-05
36 *286:18 *403:13 0
37 *351:12 *857:A 5.09299e-06
38 *400:6 *858:A 6.7842e-07
39 *400:8 *858:A 1.44167e-06
40 *401:112 *403:63 0
*RES
1 *861:Y *403:6 34.4 
2 *403:6 *403:13 32.8748 
3 *403:13 *403:15 61.4684 
4 *403:15 *403:17 17.2 
5 *403:17 *403:19 1.22019 
6 *403:19 *858:A 35.4697 
7 *403:17 *403:33 44.3963 
8 *403:33 *857:A 38.1438 
9 *403:6 *403:49 17.2 
10 *403:49 *403:51 38.7965 
11 *403:51 *403:53 11.8 
12 *403:53 *403:59 34.6232 
13 *403:59 *403:63 28.9326 
14 *403:63 *856:A 34.4 
15 *403:53 *403:83 41.0038 
16 *403:83 *855:A 34.4 
*END

*D_NET *404 0.000642225
*CONN
*I *448:B I *D AO21x1_ASAP7_75t_SL
*I *532:A1 I *D OA21x2_ASAP7_75t_SL
*I *520:A1 I *D OAI22x1_ASAP7_75t_SL
*I *521:A1 I *D AO21x1_ASAP7_75t_SL
*I *522:A I *D NOR2x1_ASAP7_75t_SL
*I *519:A I *D OR2x2_ASAP7_75t_SL
*I *515:A I *D AND3x1_ASAP7_75t_SL
*I *530:B I *D AO21x1_ASAP7_75t_SL
*I *865:Y O *D BUFx3_ASAP7_75t_SL
*CAP
1 *448:B 0
2 *532:A1 6.3172e-06
3 *520:A1 0
4 *521:A1 0
5 *522:A 0
6 *519:A 0
7 *515:A 0
8 *530:B 4.53817e-06
9 *865:Y 4.02797e-06
10 *404:107 9.18449e-06
11 *404:87 8.19228e-06
12 *404:71 2.00132e-05
13 *404:61 3.3496e-05
14 *404:45 1.21895e-05
15 *404:37 2.013e-05
16 *404:33 3.32644e-05
17 *404:27 5.44317e-05
18 *404:25 8.55051e-05
19 *404:23 7.33441e-05
20 *404:10 2.73117e-05
21 *404:6 3.06469e-05
22 *521:B *404:61 0
23 *530:A2 *530:B 3.76935e-06
24 *32:26 *404:107 1.00765e-05
25 *32:28 *404:107 2.00151e-05
26 *33:10 *530:B 0
27 *33:10 *404:107 2.20128e-06
28 *33:16 *530:B 0
29 *33:16 *404:107 1.16564e-05
30 *121:35 *404:45 1.692e-05
31 *134:10 *404:87 2.19685e-06
32 *149:105 *404:61 1.64348e-06
33 *149:105 *404:71 1.20741e-05
34 *189:25 *404:25 2.35847e-05
35 *189:25 *404:27 3.0511e-05
36 *189:25 *404:33 1.06092e-05
37 *189:35 *404:33 2.72554e-05
38 *189:35 *404:45 1.09067e-06
39 *191:25 *530:B 2.19685e-06
40 *191:25 *532:A1 5.17782e-06
41 *191:25 *404:23 5.49212e-07
42 *191:25 *404:25 5.09299e-06
43 *192:16 *404:33 5.52807e-07
44 *193:10 *404:61 5.49212e-07
45 *193:10 *404:71 0
46 *196:6 *404:71 0
47 *197:8 *404:71 2.31697e-05
48 *203:6 *404:6 1.35684e-06
49 *203:6 *404:10 7.38275e-06
*RES
1 *865:Y *404:6 18.8045 
2 *404:6 *404:10 25.2224 
3 *404:10 *530:B 39.4685 
4 *404:10 *404:23 20.579 
5 *404:23 *404:25 30.485 
6 *404:25 *404:27 9.09202 
7 *404:27 *404:33 32.9367 
8 *404:33 *404:37 22.0134 
9 *404:37 *404:45 45.0151 
10 *404:45 *515:A 17.2 
11 *404:37 *519:A 17.2 
12 *404:27 *404:61 43.4107 
13 *404:61 *404:71 49.0387 
14 *404:71 *522:A 17.2 
15 *404:61 *521:A1 17.2 
16 *404:25 *404:87 40.0317 
17 *404:87 *520:A1 17.2 
18 *404:23 *532:A1 20.9438 
19 *404:6 *404:107 46.1415 
20 *404:107 *448:B 17.2 
*END

*D_NET *405 0.000152498
*CONN
*I *425:A I *D INVx1_ASAP7_75t_SL
*I *489:A I *D OR3x1_ASAP7_75t_SL
*I *866:Y O *D BUFx3_ASAP7_75t_SL
*CAP
1 *425:A 3.48499e-06
2 *489:A 0
3 *866:Y 1.22137e-05
4 *405:14 2.37969e-05
5 *405:8 3.94955e-05
6 *425:A *407:20 9.72242e-06
7 *405:14 *407:20 1.23156e-05
8 *405:14 *407:26 2.56337e-05
9 *490:C *405:14 9.75645e-06
10 *51:51 *405:8 7.28673e-06
11 *125:8 *405:14 2.63772e-06
12 *353:8 *405:14 5.13422e-06
13 *353:16 *425:A 2.98814e-07
14 *353:16 *405:14 7.21451e-07
*RES
1 *866:Y *405:8 39.2134 
2 *405:8 *405:14 36.0642 
3 *405:14 *489:A 17.2 
4 *405:8 *425:A 37.779 
*END

*D_NET *406 0.000253457
*CONN
*I *496:A I *D OR3x1_ASAP7_75t_SL
*I *504:B I *D OR4x2_ASAP7_75t_SL
*I *867:Y O *D BUFx3_ASAP7_75t_SL
*CAP
1 *496:A 7.24326e-06
2 *504:B 1.38826e-05
3 *867:Y 4.457e-05
4 *406:8 2.11259e-05
5 *406:6 4.457e-05
6 *435:A1 *504:B 1.81825e-05
7 *504:D *504:B 2.12062e-05
8 *47:18 *496:A 4.83862e-06
9 *47:33 *496:A 4.83862e-06
10 *51:24 *406:6 4.14239e-05
11 *51:83 *504:B 8.87763e-06
12 *51:83 *406:6 6.45454e-06
13 *51:91 *496:A 5.07403e-06
14 *51:91 *504:B 1.89962e-06
15 *161:8 *496:A 5.3864e-06
16 *161:8 *504:B 2.20128e-06
17 *162:28 *496:A 4.26751e-07
18 *181:8 *496:A 1.25502e-06
*RES
1 *867:Y *406:6 35.9189 
2 *406:6 *406:8 17.2 
3 *406:8 *504:B 47.8556 
4 *406:8 *496:A 42.2843 
*END

*D_NET *407 0.00058545
*CONN
*I *867:A I *D BUFx3_ASAP7_75t_SL
*I *433:A I *D OR2x2_ASAP7_75t_SL
*I *493:A I *D OR3x1_ASAP7_75t_SL
*I *866:A I *D BUFx3_ASAP7_75t_SL
*I *486:A I *D AND4x1_ASAP7_75t_SL
*I *868:Y O *D BUFx3_ASAP7_75t_SL
*CAP
1 *867:A 2.98873e-06
2 *433:A 5.39298e-05
3 *493:A 0
4 *866:A 2.75748e-06
5 *486:A 0
6 *868:Y 6.15725e-06
7 *407:63 7.55871e-05
8 *407:50 4.01212e-05
9 *407:48 3.59242e-05
10 *407:33 2.02178e-05
11 *407:26 2.12976e-05
12 *407:20 4.89391e-05
13 *407:18 4.274e-05
14 *407:10 3.473e-05
15 *407:8 2.27999e-05
16 *425:A *407:20 9.72242e-06
17 *488:A *866:A 5.85387e-06
18 *488:A *407:48 2.66891e-05
19 *488:A *407:50 4.10256e-06
20 *493:B *407:50 5.85387e-06
21 *493:B *407:63 5.85387e-06
22 *493:C *407:63 6.49184e-07
23 *495:A1 *407:10 1.89962e-06
24 *868:A *407:10 3.95845e-06
25 *45:36 *433:A 4.42485e-06
26 *50:50 *867:A 8.87763e-06
27 *50:58 *407:10 1.6136e-05
28 *51:47 *407:20 1.49407e-08
29 *118:18 *407:20 0
30 *118:18 *407:26 0
31 *118:18 *407:48 1.07486e-05
32 *160:25 *407:18 2.0895e-06
33 *161:8 *407:63 2.53753e-06
34 *162:14 *407:8 1.59615e-06
35 *166:10 *407:26 5.69663e-06
36 *169:10 *407:26 1.49407e-08
37 *169:18 *407:26 3.40789e-06
38 *232:27 *433:A 8.20846e-06
39 *353:8 *407:26 9.97906e-07
40 *353:16 *407:10 2.22736e-06
41 *353:16 *407:18 7.71949e-06
42 *353:16 *407:20 0
43 *401:247 *407:48 2.98814e-08
44 *405:14 *407:20 1.23156e-05
45 *405:14 *407:26 2.56337e-05
*RES
1 *868:Y *407:8 37.0741 
2 *407:8 *407:10 12.9528 
3 *407:10 *407:18 47.2111 
4 *407:18 *407:20 19.7108 
5 *407:20 *407:26 33.4751 
6 *407:26 *486:A 17.2 
7 *407:20 *407:33 17.2 
8 *407:33 *866:A 18.8045 
9 *407:33 *407:48 45.2949 
10 *407:48 *407:50 9.09202 
11 *407:50 *493:A 17.2 
12 *407:50 *407:63 46.3645 
13 *407:63 *433:A 46.6154 
14 *407:10 *867:A 37.0741 
*END

*D_NET *408 3.79027e-05
*CONN
*I *430:A I *D NOR2x1_ASAP7_75t_SL
*I *869:Y O *D BUFx3_ASAP7_75t_SL
*CAP
1 *430:A 0
2 *869:Y 9.86e-06
3 *408:10 9.86e-06
4 *408:10 *869:A 2.12481e-06
5 *408:10 *409:30 1.52651e-06
6 *45:30 *408:10 5.49212e-07
7 *45:36 *408:10 5.49212e-07
8 *232:29 *408:10 1.34329e-05
*RES
1 *869:Y *408:10 41.5795 
2 *408:10 *430:A 34.4 
*END

*D_NET *409 0.00106564
*CONN
*I *526:B I *D OR2x2_ASAP7_75t_SL
*I *437:B1 I *D AOI221x1_ASAP7_75t_SL
*I *506:A1 I *D OA21x2_ASAP7_75t_SL
*I *507:A I *D OR3x1_ASAP7_75t_SL
*I *504:A I *D OR4x2_ASAP7_75t_SL
*I *869:A I *D BUFx3_ASAP7_75t_SL
*I *870:Y O *D BUFx3_ASAP7_75t_SL
*CAP
1 *526:B 1.03955e-05
2 *437:B1 0
3 *506:A1 1.37416e-05
4 *507:A 6.76451e-06
5 *504:A 0
6 *869:A 6.46578e-06
7 *870:Y 1.39521e-05
8 *409:73 6.49855e-05
9 *409:52 2.76119e-05
10 *409:41 1.32602e-05
11 *409:30 0.000105598
12 *409:28 9.29782e-05
13 *409:26 3.27599e-05
14 *409:22 4.30151e-05
15 *409:14 0.000182892
16 *409:12 0.000184541
17 *409:8 8.04467e-05
18 *437:C *409:22 6.7842e-07
19 *503:A *409:12 7.64042e-07
20 *503:A *409:73 5.95881e-06
21 *565:B *409:14 6.49184e-07
22 *870:A *409:12 5.69289e-06
23 *38:18 *409:22 1.36998e-06
24 *38:18 *409:26 1.12294e-06
25 *39:30 *409:26 1.19177e-05
26 *39:34 *409:22 4.09697e-07
27 *39:34 *409:26 1.46116e-06
28 *39:81 *526:B 9.50284e-06
29 *41:22 *409:26 0
30 *45:28 *506:A1 7.35354e-06
31 *45:28 *507:A 5.85387e-06
32 *45:28 *409:52 1.099e-05
33 *45:30 *409:41 9.93746e-06
34 *45:30 *409:52 3.92018e-06
35 *45:70 *507:A 6.7842e-07
36 *45:78 *507:A 2.71368e-06
37 *127:8 *409:26 1.30282e-05
38 *128:10 *409:22 9.5466e-06
39 *132:10 *409:73 0
40 *184:10 *506:A1 7.72307e-07
41 *186:28 *409:73 2.18135e-06
42 *200:10 *526:B 1.11142e-05
43 *201:12 *409:73 0
44 *232:29 *409:41 9.93746e-06
45 *232:29 *409:52 8.51183e-06
46 *287:24 *409:14 2.21567e-05
47 *287:32 *409:14 2.28836e-05
48 *397:23 *409:12 4.90042e-07
49 *397:23 *409:73 9.81412e-07
50 *408:10 *869:A 2.12481e-06
51 *408:10 *409:30 1.52651e-06
*RES
1 *870:Y *409:8 39.2134 
2 *409:8 *409:12 26.2107 
3 *409:12 *409:14 63.6442 
4 *409:14 *409:22 41.6361 
5 *409:22 *409:26 43.1056 
6 *409:26 *409:28 17.2 
7 *409:28 *409:30 55.087 
8 *409:30 *869:A 20.9438 
9 *409:30 *409:41 25.0843 
10 *409:41 *504:A 34.4 
11 *409:41 *409:52 26.2107 
12 *409:52 *507:A 20.9438 
13 *409:52 *506:A1 25.7572 
14 *409:22 *437:B1 17.2 
15 *409:8 *409:73 40.548 
16 *409:73 *526:B 44.5617 
*END
