*SPEF "ieee 1481-1999"
*DESIGN "uart"
*DATE "02:38:11 Thursday January 15, 2026"
*VENDOR "The OpenROAD Project"
*PROGRAM "OpenROAD"
*VERSION "26Q1-54-gb42159587e"
*DESIGN_FLOW "NAME_SCOPE LOCAL" "PIN_CAP NONE"
*DIVIDER /
*DELIMITER :
*BUS_DELIMITER []
*T_UNIT 1 NS
*C_UNIT 1 PF
*R_UNIT 1 OHM
*L_UNIT 1 HENRY

*NAME_MAP
*1 _0000_
*2 _0001_
*3 _0002_
*4 _0003_
*5 _0004_
*6 _0005_
*7 _0006_
*8 _0007_
*9 _0008_
*10 _0009_
*11 _0010_
*12 _0011_
*13 _0012_
*14 _0013_
*15 _0014_
*16 _0015_
*17 _0016_
*18 _0017_
*19 _0018_
*20 _0019_
*21 _0020_
*22 _0021_
*23 _0022_
*24 _0023_
*25 _0024_
*26 _0025_
*27 _0026_
*28 _0027_
*29 _0028_
*30 _0029_
*31 _0030_
*32 _0031_
*33 _0032_
*34 _0033_
*35 _0034_
*36 _0035_
*37 _0036_
*38 _0037_
*39 _0038_
*40 _0039_
*41 _0040_
*42 _0041_
*43 _0042_
*44 _0043_
*45 _0044_
*46 _0045_
*47 _0046_
*48 _0047_
*49 _0048_
*50 _0049_
*51 _0050_
*52 _0051_
*53 _0052_
*54 _0053_
*55 _0054_
*56 _0055_
*57 _0056_
*58 _0057_
*59 _0058_
*60 _0059_
*61 _0060_
*62 _0061_
*63 _0062_
*64 _0063_
*65 _0064_
*66 _0065_
*67 _0066_
*68 _0067_
*69 _0068_
*70 _0069_
*71 _0070_
*72 _0071_
*73 _0072_
*74 _0073_
*75 _0074_
*76 _0075_
*77 _0076_
*78 _0077_
*79 _0078_
*80 _0079_
*81 _0080_
*82 _0081_
*83 _0082_
*84 _0083_
*85 _0084_
*86 _0085_
*87 _0086_
*88 _0087_
*89 _0088_
*90 _0089_
*91 _0090_
*92 _0091_
*93 _0092_
*94 _0093_
*95 _0094_
*96 _0095_
*97 _0096_
*98 _0097_
*99 _0098_
*100 _0099_
*101 _0100_
*102 _0101_
*103 _0102_
*104 _0103_
*105 _0104_
*106 _0105_
*107 _0106_
*108 _0107_
*109 _0108_
*110 _0109_
*111 _0110_
*112 _0111_
*113 _0112_
*114 _0113_
*115 _0114_
*116 _0115_
*117 _0116_
*118 _0117_
*119 _0118_
*120 _0119_
*121 _0120_
*122 _0121_
*123 _0122_
*124 _0123_
*125 _0124_
*126 _0125_
*127 _0126_
*128 _0127_
*129 _0128_
*130 _0129_
*131 _0130_
*132 _0131_
*133 _0132_
*134 _0133_
*135 _0134_
*136 _0135_
*137 _0136_
*138 _0137_
*139 _0138_
*140 _0139_
*141 _0140_
*142 _0141_
*143 _0142_
*144 _0143_
*145 _0144_
*146 _0145_
*147 _0146_
*148 _0147_
*149 _0148_
*150 _0149_
*151 _0150_
*152 _0151_
*153 _0152_
*154 _0153_
*155 _0154_
*156 _0155_
*157 _0156_
*158 _0157_
*159 _0158_
*160 _0159_
*161 _0160_
*162 _0161_
*163 _0162_
*164 _0163_
*165 _0164_
*166 _0165_
*167 _0166_
*168 _0167_
*169 _0168_
*170 _0169_
*171 _0170_
*172 _0171_
*173 _0172_
*174 _0173_
*175 tx_busy
*176 _0175_
*177 s_axis_tready
*178 rx_overrun_error
*179 _0178_
*180 _0179_
*181 rx_frame_error
*182 rx_busy
*183 _0182_
*184 m_axis_tvalid
*185 _0184_
*186 _0185_
*187 _0186_
*188 _0187_
*189 _0188_
*190 m_axis_tdata[7]
*191 _0190_
*192 _0191_
*193 _0192_
*194 _0193_
*195 _0194_
*196 _0195_
*197 m_axis_tdata[6]
*198 _0197_
*199 _0198_
*200 _0199_
*201 m_axis_tdata[5]
*202 _0201_
*203 _0202_
*204 _0203_
*205 _0204_
*206 _0205_
*207 _0206_
*208 _0207_
*209 _0208_
*210 _0209_
*211 _0210_
*212 _0211_
*213 _0212_
*214 _0213_
*215 m_axis_tdata[4]
*216 _0215_
*217 _0216_
*218 _0217_
*219 _0218_
*220 _0219_
*221 _0220_
*222 _0221_
*223 m_axis_tdata[3]
*224 _0223_
*225 _0224_
*226 _0225_
*227 _0226_
*228 _0227_
*229 _0228_
*230 _0229_
*231 _0230_
*232 _0231_
*233 _0232_
*234 m_axis_tdata[2]
*235 m_axis_tdata[1]
*236 _0235_
*237 m_axis_tdata[0]
*238 _0237_
*239 _0238_
*240 _0239_
*241 _0240_
*242 _0241_
*243 _0242_
*244 _0243_
*245 _0244_
*246 _0245_
*247 _0246_
*248 _0247_
*249 _0248_
*250 _0249_
*251 _0250_
*252 _0251_
*253 _0252_
*254 _0253_
*255 _0254_
*256 _0255_
*257 _0256_
*258 _0257_
*259 _0258_
*260 _0259_
*261 _0260_
*262 _0261_
*263 _0262_
*264 _0263_
*265 _0264_
*266 _0265_
*267 _0266_
*268 _0267_
*269 s_axis_tvalid
*270 _0269_
*271 _0270_
*272 _0271_
*273 s_axis_tdata[7]
*274 _0273_
*275 _0274_
*276 s_axis_tdata[6]
*277 _0276_
*278 _0277_
*279 _0278_
*280 s_axis_tdata[5]
*281 _0280_
*282 _0281_
*283 s_axis_tdata[4]
*284 _0283_
*285 _0284_
*286 _0285_
*287 _0286_
*288 _0287_
*289 _0288_
*290 _0289_
*291 _0290_
*292 _0291_
*293 s_axis_tdata[3]
*294 _0293_
*295 _0294_
*296 _0295_
*297 _0296_
*298 _0297_
*299 _0298_
*300 _0299_
*301 _0300_
*302 _0301_
*303 _0302_
*304 _0303_
*305 _0304_
*306 _0305_
*307 s_axis_tdata[2]
*308 s_axis_tdata[1]
*309 _0308_
*310 _0309_
*311 _0310_
*312 s_axis_tdata[0]
*313 _0312_
*314 _0313_
*315 _0314_
*316 _0315_
*317 _0316_
*318 _0317_
*319 _0318_
*320 _0319_
*321 _0320_
*322 _0321_
*323 _0322_
*324 _0323_
*325 _0324_
*326 _0325_
*327 _0326_
*328 _0327_
*329 _0328_
*330 _0329_
*331 _0330_
*332 rxd
*333 rst
*334 _0333_
*335 _0334_
*336 prescale[9]
*337 prescale[8]
*338 _0337_
*339 _0338_
*340 prescale[7]
*341 prescale[6]
*342 _0341_
*343 _0342_
*344 _0343_
*345 _0344_
*346 _0345_
*347 _0346_
*348 _0347_
*349 _0348_
*350 _0349_
*351 _0350_
*352 prescale[5]
*353 _0352_
*354 _0353_
*355 _0354_
*356 _0355_
*357 _0356_
*358 prescale[4]
*359 _0358_
*360 _0359_
*361 _0360_
*362 _0361_
*363 _0362_
*364 _0363_
*365 _0364_
*366 _0365_
*367 _0366_
*368 _0367_
*369 _0368_
*370 _0369_
*371 _0370_
*372 _0371_
*373 _0372_
*374 _0373_
*375 _0374_
*376 _0375_
*377 _0376_
*378 _0377_
*379 _0378_
*380 _0379_
*381 _0380_
*382 prescale[3]
*383 _0382_
*384 _0383_
*385 _0384_
*386 _0385_
*387 _0386_
*388 _0387_
*389 _0388_
*390 _0389_
*391 _0390_
*392 _0391_
*393 _0392_
*394 _0393_
*395 _0394_
*396 _0395_
*397 _0396_
*398 _0397_
*399 _0398_
*400 _0399_
*401 _0400_
*402 _0401_
*403 _0402_
*404 _0403_
*405 _0404_
*406 _0405_
*407 _0406_
*408 _0407_
*409 _0408_
*410 _0409_
*411 _0410_
*412 _0411_
*413 _0412_
*414 _0413_
*415 _0414_
*416 _0415_
*417 _0416_
*418 _0417_
*419 _0418_
*420 _0419_
*421 _0420_
*422 _0421_
*423 _0422_
*424 _0423_
*425 _0424_
*426 prescale[2]
*427 prescale[1]
*428 _0427_
*429 _0428_
*430 _0429_
*431 _0430_
*432 _0431_
*433 _0432_
*434 _0433_
*435 _0434_
*436 _0435_
*437 _0436_
*438 _0437_
*439 _0438_
*440 _0439_
*441 _0440_
*442 _0441_
*443 _0442_
*444 _0443_
*445 _0444_
*446 _0445_
*447 _0446_
*448 prescale[15]
*449 _0448_
*450 _0449_
*451 _0450_
*452 _0451_
*453 _0452_
*454 _0453_
*455 prescale[14]
*456 _0455_
*457 _0456_
*458 _0457_
*459 _0458_
*460 _0459_
*461 _0460_
*462 _0461_
*463 _0462_
*464 _0463_
*465 _0464_
*466 _0465_
*467 _0466_
*468 _0467_
*469 _0468_
*470 _0469_
*471 _0470_
*472 _0471_
*473 _0472_
*474 _0473_
*475 _0474_
*476 _0475_
*477 _0476_
*478 _0477_
*479 _0478_
*480 _0479_
*481 _0480_
*482 _0481_
*483 _0482_
*484 _0483_
*485 _0484_
*486 _0485_
*487 prescale[13]
*488 _0487_
*489 _0488_
*490 _0489_
*491 _0490_
*492 _0491_
*493 _0492_
*494 _0493_
*495 _0494_
*496 _0495_
*497 prescale[12]
*498 _0497_
*499 _0498_
*500 _0499_
*501 _0500_
*502 _0501_
*503 _0502_
*504 _0503_
*505 _0504_
*506 _0505_
*507 _0506_
*508 _0507_
*509 prescale[11]
*510 _0509_
*511 prescale[10]
*512 _0511_
*513 _0512_
*514 _0513_
*515 _0514_
*516 _0515_
*517 prescale[0]
*518 m_axis_tready
*519 _0518_
*520 _0519_
*521 _0520_
*522 _0521_
*523 _0522_
*524 _0523_
*525 _0524_
*526 _0525_
*527 _0526_
*528 _0527_
*529 _0528_
*530 _0529_
*531 _0530_
*532 _0531_
*533 _0532_
*534 _0533_
*535 _0534_
*536 _0535_
*537 _0536_
*538 _0537_
*539 _0538_
*540 _0539_
*541 _0540_
*542 _0541_
*543 _0542_
*544 _0543_
*545 _0544_
*546 _0545_
*547 _0546_
*548 _0547_
*549 _0548_
*550 _0549_
*551 _0550_
*552 _0551_
*553 _0552_
*554 _0553_
*555 _0554_
*556 _0555_
*557 _0556_
*558 _0557_
*559 _0558_
*560 _0559_
*561 _0560_
*562 _0561_
*563 _0562_
*564 _0563_
*565 _0564_
*566 _0565_
*567 _0566_
*568 _0567_
*569 _0568_
*570 _0569_
*571 _0570_
*572 _0571_
*573 _0572_
*574 _0573_
*575 _0574_
*576 _0575_
*577 _0576_
*578 _0577_
*579 _0578_
*580 _0579_
*581 _0580_
*582 _0581_
*583 _0582_
*584 _0583_
*585 _0584_
*586 _0585_
*587 _0586_
*588 _0587_
*589 _0588_
*590 _0589_
*591 _0590_
*592 _0591_
*593 _0592_
*594 _0593_
*595 _0594_
*596 _0595_
*597 _0596_
*598 _0597_
*599 _0598_
*600 _0599_
*601 _0600_
*602 _0601_
*603 _0602_
*604 _0603_
*605 _0604_
*606 _0605_
*607 _0606_
*608 _0607_
*609 _0608_
*610 _0609_
*611 _0610_
*612 _0611_
*613 _0612_
*614 _0613_
*615 _0614_
*616 _0615_
*617 _0616_
*618 _0617_
*619 _0618_
*620 _0619_
*621 _0620_
*622 _0621_
*623 _0622_
*624 _0623_
*625 _0624_
*626 _0625_
*627 _0626_
*628 _0627_
*629 _0628_
*630 _0629_
*631 _0630_
*632 _0631_
*633 _0632_
*634 _0633_
*635 _0634_
*636 clk
*637 net29
*638 net30
*639 net31
*640 net32
*641 net33
*642 net34
*643 net35
*644 net36
*645 net1
*646 net37
*647 net2
*648 net3
*649 net4
*650 net5
*651 net6
*652 net7
*653 net8
*654 net9
*655 net10
*656 net11
*657 net12
*658 net13
*659 net14
*660 net15
*661 net16
*662 net17
*663 net18
*664 net38
*665 net39
*666 net40
*667 net19
*668 net20
*669 net21
*670 net22
*671 net23
*672 net24
*673 net25
*674 net26
*675 net27
*676 net41
*677 net28
*678 net42
*679 net43
*680 uart_rx_inst\.bit_cnt\[0\]
*681 uart_tx_inst\.bit_cnt\[0\]
*684 txd
*685 net208
*686 net209
*687 net210
*688 net213
*689 net267
*690 net218
*691 net219
*692 net220
*693 net238
*694 net228
*695 net221
*696 net222
*697 net227
*698 net223
*699 net224
*700 net225
*701 net226
*702 net229
*703 net234
*704 net231
*705 net230
*706 net232
*707 net233
*708 net237
*709 net235
*710 net236
*711 net246
*712 net245
*713 net240
*714 net239
*715 net244
*716 net241
*717 net242
*718 net243
*719 net264
*720 net247
*721 net481
*722 net248
*723 net259
*724 net249
*725 net250
*726 net251
*727 net252
*728 net253
*729 net255
*730 net254
*731 net258
*732 net256
*733 net257
*734 net260
*735 net261
*736 net262
*737 net263
*738 net266
*739 net268
*740 net269
*741 net288
*742 net270
*743 net271
*744 net273
*745 net272
*746 net274
*747 net287
*748 net285
*749 net275
*750 net277
*751 net276
*752 net282
*753 net278
*754 net279
*755 net280
*756 net281
*757 net284
*758 net283
*759 net286
*760 net290
*761 net289
*762 net291
*763 net293
*764 net294
*765 net295
*766 net297
*767 net296
*768 net303
*769 net298
*770 net299
*771 net300
*772 net301
*773 net302
*774 net304
*775 net305
*776 net306
*777 net307
*778 net308
*779 net309
*780 net310
*781 net311
*782 net330
*783 net312
*784 net314
*785 net313
*786 net315
*787 net316
*788 net317
*789 net318
*790 net319
*791 net320
*792 net322
*793 net321
*794 net323
*795 net324
*796 net325
*797 net326
*798 net327
*799 net328
*800 net329
*801 net331
*802 net333
*803 net337
*804 net335
*805 net336
*806 net338
*807 net339
*808 net340
*809 net341
*810 net345
*811 net343
*812 net344
*813 net347
*814 net346
*815 clknet_3_3__leaf_clk
*816 net348
*817 net349
*818 clknet_3_2__leaf_clk
*819 net350
*820 net351
*821 net356
*822 net352
*823 clknet_3_1__leaf_clk
*824 net374
*825 net364
*826 net362
*827 clknet_3_0__leaf_clk
*828 net353
*829 net354
*830 net355
*831 net358
*832 net357
*833 net359
*834 net360
*835 net361
*836 net363
*837 net365
*838 net373
*839 net366
*840 net367
*841 net368
*842 net369
*843 net370
*844 net371
*845 net372
*846 clknet_0_clk
*847 net206
*848 net207
*849 net211
*850 net212
*851 net214
*852 net215
*853 net216
*854 net217
*855 net292
*856 net332
*857 net334
*858 net342
*859 clknet_3_4__leaf_clk
*860 clknet_3_5__leaf_clk
*861 clknet_3_6__leaf_clk
*862 clknet_3_7__leaf_clk
*863 net381
*864 net382
*865 net
*866 net386
*867 net387
*868 net388
*869 net414
*870 net415
*871 net455
*872 net460
*873 net461
*874 net462
*875 net472
*876 net595
*877 net474
*878 net475
*879 net482
*880 net487
*881 net488
*882 net489
*883 net490
*884 net491
*885 net492
*886 net497
*887 net502
*888 net503
*889 net504
*890 net505
*891 net506
*892 net509
*893 net510
*894 net583
*895 net585
*896 net596
*897 net603
*898 _0635_
*899 _0636_
*900 _0637_
*901 _0638_
*902 _0639_
*903 _0640_
*904 _0641_
*905 _0642_
*906 _0643_
*907 _0644_
*908 _0645_
*909 _0646_
*910 _0647_
*911 _0648_
*912 _0649_
*913 _0650_
*914 _0651_
*915 _0652_
*916 _0653_
*917 _0654_
*918 _0655_
*919 _0656_
*920 _0657_
*921 _0658_
*922 _0659_
*923 _0660_
*924 _0661_
*925 _0662_
*926 _0663_
*927 _0664_
*928 _0665_
*929 _0666_
*930 _0667_
*931 _0668_
*932 _0669_
*933 _0670_
*934 _0671_
*935 _0672_
*936 _0673_
*937 _0674_
*938 _0675_
*939 _0676_
*940 _0677_
*941 _0678_
*942 _0679_
*943 _0680_
*944 _0681_
*945 _0682_
*946 _0683_
*947 _0684_
*948 _0685_
*949 _0686_
*950 _0687_
*951 _0688_
*952 _0689_
*953 _0690_
*954 _0691_
*955 _0692_
*956 _0693_
*957 _0694_
*958 _0695_
*959 _0696_
*960 _0697_
*961 _0698_
*962 _0699_
*963 _0700_
*964 _0701_
*965 _0702_
*966 _0703_
*967 _0704_
*968 _0705_
*969 _0706_
*970 _0707_
*971 _0708_
*972 _0709_
*973 _0710_
*974 _0711_
*975 _0712_
*976 _0713_
*977 _0714_
*978 _0715_
*979 _0716_
*980 _0717_
*981 _0718_
*982 _0719_
*983 _0720_
*984 _0721_
*985 _0722_
*986 _0723_
*987 _0724_
*988 _0725_
*989 _0726_
*990 _0727_
*991 _0728_
*992 _0729_
*993 _0730_
*994 _0731_
*995 _0732_
*996 _0733_
*997 _0734_
*998 _0735_
*999 _0736_
*1000 _0737_
*1001 _0738_
*1002 _0739_
*1003 _0740_
*1004 _0741_
*1005 _0742_
*1006 _0743_
*1007 _0744_
*1008 _0745_
*1009 _0746_
*1010 _0747_
*1011 _0748_
*1012 _0749_
*1013 _0750_
*1014 _0751_
*1015 _0752_
*1016 _0753_
*1017 _0754_
*1018 _0755_
*1019 _0756_
*1020 _0757_
*1021 _0758_
*1022 _0759_
*1023 _0760_
*1024 _0761_
*1025 _0762_
*1026 _0763_
*1027 _0764_
*1028 _0765_
*1029 _0766_
*1030 _0767_
*1031 _0768_
*1032 _0769_
*1033 _0770_
*1034 _0771_
*1035 _0772_
*1036 _0773_
*1037 _0774_
*1038 _0775_
*1039 output42
*1040 _0777_
*1041 output41
*1042 output40
*1043 _0780_
*1044 _0781_
*1045 output39
*1046 output38
*1047 _0784_
*1048 output37
*1049 _0786_
*1050 _0787_
*1051 _0788_
*1052 _0789_
*1053 _0790_
*1054 output36
*1055 _0792_
*1056 _0793_
*1057 _0794_
*1058 _0795_
*1059 _0796_
*1060 _0797_
*1061 output35
*1062 _0799_
*1063 _0800_
*1064 _0801_
*1065 output34
*1066 _0803_
*1067 _0804_
*1068 _0805_
*1069 _0806_
*1070 _0807_
*1071 _0808_
*1072 _0809_
*1073 _0810_
*1074 _0811_
*1075 _0812_
*1076 _0813_
*1077 _0814_
*1078 _0815_
*1079 _0816_
*1080 _0817_
*1081 _0818_
*1082 _0819_
*1083 _0820_
*1084 _0821_
*1085 _0822_
*1086 _0823_
*1087 output33
*1088 _0825_
*1089 _0826_
*1090 _0827_
*1091 _0828_
*1092 _0829_
*1093 _0830_
*1094 _0831_
*1095 output32
*1096 _0833_
*1097 _0834_
*1098 _0835_
*1099 _0836_
*1100 _0837_
*1101 _0838_
*1102 _0839_
*1103 _0840_
*1104 _0841_
*1105 _0842_
*1106 output31
*1107 output30
*1108 _0845_
*1109 output29
*1110 _0847_
*1111 _0848_
*1112 _0849_
*1113 _0850_
*1114 _0851_
*1115 _0852_
*1116 _0853_
*1117 _0854_
*1118 _0855_
*1119 _0856_
*1120 _0857_
*1121 _0858_
*1122 _0859_
*1123 _0860_
*1124 _0861_
*1125 _0862_
*1126 _0863_
*1127 _0864_
*1128 _0865_
*1129 _0866_
*1130 _0867_
*1131 _0868_
*1132 _0869_
*1133 _0870_
*1134 _0871_
*1135 _0872_
*1136 _0873_
*1137 _0874_
*1138 _0875_
*1139 _0876_
*1140 _0877_
*1141 _0878_
*1142 _0879_
*1143 _0880_
*1144 _0881_
*1145 _0882_
*1146 _0883_
*1147 _0884_
*1148 _0885_
*1149 _0886_
*1150 input28
*1151 _0888_
*1152 _0889_
*1153 _0890_
*1154 input27
*1155 _0892_
*1156 _0893_
*1157 input26
*1158 _0895_
*1159 _0896_
*1160 _0897_
*1161 _0898_
*1162 input25
*1163 _0900_
*1164 _0901_
*1165 _0902_
*1166 input24
*1167 _0904_
*1168 _0905_
*1169 _0906_
*1170 _0907_
*1171 _0908_
*1172 _0909_
*1173 _0910_
*1174 _0911_
*1175 _0912_
*1176 _0913_
*1177 input23
*1178 _0915_
*1179 _0916_
*1180 _0917_
*1181 _0918_
*1182 _0919_
*1183 _0920_
*1184 _0921_
*1185 _0922_
*1186 _0923_
*1187 _0924_
*1188 _0925_
*1189 _0926_
*1190 _0927_
*1191 _0928_
*1192 _0929_
*1193 _0930_
*1194 input22
*1195 input21
*1196 _0933_
*1197 _0934_
*1198 _0935_
*1199 _0936_
*1200 input20
*1201 _0938_
*1202 _0939_
*1203 _0940_
*1204 _0941_
*1205 _0942_
*1206 _0943_
*1207 _0944_
*1208 _0945_
*1209 _0946_
*1210 _0947_
*1211 _0948_
*1212 _0949_
*1213 _0950_
*1214 _0951_
*1215 _0952_
*1216 _0953_
*1217 _0954_
*1218 _0955_
*1219 _0956_
*1220 _0957_
*1221 _0958_
*1222 _0959_
*1223 _0960_
*1224 _0961_
*1225 _0962_
*1226 _0963_
*1227 _0964_
*1228 _0965_
*1229 _0966_
*1230 input19
*1231 input18
*1232 _0969_
*1233 _0970_
*1234 input17
*1235 input16
*1236 _0973_
*1237 _0974_
*1238 input15
*1239 input14
*1240 _0977_
*1241 _0978_
*1242 _0979_
*1243 _0980_
*1244 _0981_
*1245 _0982_
*1246 _0983_
*1247 _0984_
*1248 _0985_
*1249 _0986_
*1250 input13
*1251 _0988_
*1252 _0989_
*1253 _0990_
*1254 _0991_
*1255 _0992_
*1256 _0993_
*1257 input12
*1258 _0995_
*1259 _0996_
*1260 _0997_
*1261 _0998_
*1262 _0999_
*1263 _1000_
*1264 _1001_
*1265 _1002_
*1266 _1003_
*1267 _1004_
*1268 _1005_
*1269 _1006_
*1270 _1007_
*1271 _1008_
*1272 _1009_
*1273 _1010_
*1274 _1011_
*1275 _1012_
*1276 _1013_
*1277 _1014_
*1278 _1015_
*1279 _1016_
*1280 _1017_
*1281 _1018_
*1282 _1019_
*1283 _1020_
*1284 input11
*1285 _1022_
*1286 _1023_
*1287 _1024_
*1288 _1025_
*1289 _1026_
*1290 _1027_
*1291 _1028_
*1292 _1029_
*1293 _1030_
*1294 _1031_
*1295 _1032_
*1296 _1033_
*1297 _1034_
*1298 _1035_
*1299 _1036_
*1300 _1037_
*1301 _1038_
*1302 _1039_
*1303 _1040_
*1304 _1041_
*1305 _1042_
*1306 _1043_
*1307 _1044_
*1308 _1045_
*1309 _1046_
*1310 _1047_
*1311 _1048_
*1312 _1049_
*1313 _1050_
*1314 _1051_
*1315 _1052_
*1316 _1053_
*1317 _1054_
*1318 _1055_
*1319 _1056_
*1320 _1057_
*1321 _1058_
*1322 _1059_
*1323 _1060_
*1324 _1061_
*1325 _1062_
*1326 _1063_
*1327 _1064_
*1328 _1065_
*1329 _1066_
*1330 _1067_
*1331 _1068_
*1332 _1069_
*1333 input10
*1334 input9
*1335 _1072_
*1336 _1073_
*1337 _1074_
*1338 _1075_
*1339 _1076_
*1340 _1077_
*1341 _1078_
*1342 _1079_
*1343 _1080_
*1344 _1081_
*1345 _1082_
*1346 _1083_
*1347 _1084_
*1348 _1085_
*1349 _1086_
*1350 _1087_
*1351 _1088_
*1352 _1089_
*1353 _1090_
*1354 _1091_
*1355 _1092_
*1356 _1093_
*1357 _1094_
*1358 _1095_
*1359 input8
*1360 _1097_
*1361 _1098_
*1362 _1099_
*1363 _1100_
*1364 _1101_
*1365 _1102_
*1366 _1103_
*1367 input7
*1368 _1105_
*1369 _1106_
*1370 _1107_
*1371 _1108_
*1372 _1109_
*1373 _1110_
*1374 _1111_
*1375 _1112_
*1376 _1113_
*1377 _1114_
*1378 _1115_
*1379 _1116_
*1380 _1117_
*1381 _1118_
*1382 _1119_
*1383 _1120_
*1384 _1121_
*1385 _1122_
*1386 _1123_
*1387 _1124_
*1388 _1125_
*1389 _1126_
*1390 _1127_
*1391 _1128_
*1392 _1129_
*1393 _1130_
*1394 _1131_
*1395 _1132_
*1396 _1133_
*1397 _1134_
*1398 _1135_
*1399 _1136_
*1400 _1137_
*1401 _1138_
*1402 _1139_
*1403 _1140_
*1404 input6
*1405 _1142_
*1406 _1143_
*1407 _1144_
*1408 _1145_
*1409 _1146_
*1410 _1147_
*1411 _1148_
*1412 _1149_
*1413 _1150_
*1414 _1151_
*1415 input5
*1416 _1153_
*1417 _1154_
*1418 _1155_
*1419 _1156_
*1420 _1157_
*1421 _1158_
*1422 _1159_
*1423 _1160_
*1424 _1161_
*1425 _1162_
*1426 _1163_
*1427 _1164_
*1428 _1165_
*1429 _1166_
*1430 input4
*1431 _1168_
*1432 _1169_
*1433 input3
*1434 _1171_
*1435 _1172_
*1436 _1173_
*1437 _1174_
*1438 _1175_
*1439 _1176_
*1440 input2
*1441 input1
*1442 _1179_
*1443 _1180_
*1444 _1181_
*1445 _1182_
*1446 _1183_
*1447 _1184_
*1448 _1185_
*1449 _1186_
*1450 _1187_
*1451 _1188_
*1452 _1189_
*1453 _1190_
*1454 _1191_
*1455 _1192_
*1456 _1193_
*1457 _1194_
*1458 _1195_
*1459 _1196_
*1460 _1197_
*1461 _1198_
*1462 _1199_
*1463 uart_rx_inst\.bit_cnt\[0\]\$_SDFFE_PP0P_
*1464 uart_rx_inst\.bit_cnt\[1\]\$_SDFFE_PP0P_
*1465 uart_rx_inst\.bit_cnt\[2\]\$_SDFFE_PP0P_
*1466 uart_rx_inst\.bit_cnt\[3\]\$_SDFFE_PP0P_
*1467 uart_rx_inst\.busy\$_SDFFE_PP0P_
*1468 uart_rx_inst\.data_reg\[0\]\$_SDFFCE_PP0P_
*1469 uart_rx_inst\.data_reg\[1\]\$_SDFFCE_PP0P_
*1470 uart_rx_inst\.data_reg\[2\]\$_SDFFCE_PP0P_
*1471 uart_rx_inst\.data_reg\[3\]\$_SDFFCE_PP0P_
*1472 uart_rx_inst\.data_reg\[4\]\$_SDFFCE_PP0P_
*1473 uart_rx_inst\.data_reg\[5\]\$_SDFFCE_PP0P_
*1474 uart_rx_inst\.data_reg\[6\]\$_SDFFCE_PP0P_
*1475 uart_rx_inst\.data_reg\[7\]\$_SDFFCE_PP0P_
*1476 uart_rx_inst\.frame_error\$_SDFF_PP0_
*1477 uart_rx_inst\.m_axis_tdata\[0\]\$_SDFFE_PP0P_
*1478 uart_rx_inst\.m_axis_tdata\[1\]\$_SDFFE_PP0P_
*1479 uart_rx_inst\.m_axis_tdata\[2\]\$_SDFFE_PP0P_
*1480 uart_rx_inst\.m_axis_tdata\[3\]\$_SDFFE_PP0P_
*1481 uart_rx_inst\.m_axis_tdata\[4\]\$_SDFFE_PP0P_
*1482 uart_rx_inst\.m_axis_tdata\[5\]\$_SDFFE_PP0P_
*1483 uart_rx_inst\.m_axis_tdata\[6\]\$_SDFFE_PP0P_
*1484 uart_rx_inst\.m_axis_tdata\[7\]\$_SDFFE_PP0P_
*1485 uart_rx_inst\.m_axis_tvalid\$_SDFF_PP0_
*1486 uart_rx_inst\.overrun_error\$_SDFF_PP0_
*1487 uart_rx_inst\.prescale_reg\[0\]\$_SDFFE_PP0P_
*1488 uart_rx_inst\.prescale_reg\[10\]\$_SDFFE_PP0P_
*1489 uart_rx_inst\.prescale_reg\[11\]\$_SDFFE_PP0P_
*1490 uart_rx_inst\.prescale_reg\[12\]\$_SDFFE_PP0P_
*1491 uart_rx_inst\.prescale_reg\[13\]\$_SDFFE_PP0P_
*1492 uart_rx_inst\.prescale_reg\[14\]\$_SDFFE_PP0P_
*1493 uart_rx_inst\.prescale_reg\[15\]\$_SDFFE_PP0P_
*1494 uart_rx_inst\.prescale_reg\[16\]\$_SDFFE_PP0P_
*1495 uart_rx_inst\.prescale_reg\[17\]\$_SDFFE_PP0P_
*1496 uart_rx_inst\.prescale_reg\[18\]\$_SDFFE_PP0P_
*1497 uart_rx_inst\.prescale_reg\[1\]\$_SDFFE_PP0P_
*1498 uart_rx_inst\.prescale_reg\[2\]\$_SDFFE_PP0P_
*1499 uart_rx_inst\.prescale_reg\[3\]\$_SDFFE_PP0P_
*1500 uart_rx_inst\.prescale_reg\[4\]\$_SDFFE_PP0P_
*1501 uart_rx_inst\.prescale_reg\[5\]\$_SDFFE_PP0P_
*1502 uart_rx_inst\.prescale_reg\[6\]\$_SDFFE_PP0P_
*1503 uart_rx_inst\.prescale_reg\[7\]\$_SDFFE_PP0P_
*1504 uart_rx_inst\.prescale_reg\[8\]\$_SDFFE_PP0P_
*1505 uart_rx_inst\.prescale_reg\[9\]\$_SDFFE_PP0P_
*1506 uart_rx_inst\.rxd_reg\$_SDFF_PP1_
*1507 uart_tx_inst\.bit_cnt\[0\]\$_SDFFE_PP0P_
*1508 uart_tx_inst\.bit_cnt\[1\]\$_SDFFE_PP0P_
*1509 uart_tx_inst\.bit_cnt\[2\]\$_SDFFE_PP0P_
*1510 uart_tx_inst\.bit_cnt\[3\]\$_SDFFE_PP0P_
*1511 uart_tx_inst\.busy\$_SDFFE_PP0P_
*1512 uart_tx_inst\.data_reg\[0\]\$_DFFE_PP_
*1513 uart_tx_inst\.data_reg\[1\]\$_DFFE_PP_
*1514 uart_tx_inst\.data_reg\[2\]\$_DFFE_PP_
*1515 uart_tx_inst\.data_reg\[3\]\$_DFFE_PP_
*1516 uart_tx_inst\.data_reg\[4\]\$_DFFE_PP_
*1517 uart_tx_inst\.data_reg\[5\]\$_DFFE_PP_
*1518 uart_tx_inst\.data_reg\[6\]\$_DFFE_PP_
*1519 uart_tx_inst\.data_reg\[7\]\$_DFFE_PP_
*1520 uart_tx_inst\.data_reg\[8\]\$_DFFE_PP_
*1521 uart_tx_inst\.prescale_reg\[0\]\$_SDFFE_PP0P_
*1522 uart_tx_inst\.prescale_reg\[10\]\$_SDFFE_PP0P_
*1523 uart_tx_inst\.prescale_reg\[11\]\$_SDFFE_PP0P_
*1524 uart_tx_inst\.prescale_reg\[12\]\$_SDFFE_PP0P_
*1525 uart_tx_inst\.prescale_reg\[13\]\$_SDFFE_PP0P_
*1526 uart_tx_inst\.prescale_reg\[14\]\$_SDFFE_PP0P_
*1527 uart_tx_inst\.prescale_reg\[15\]\$_SDFFE_PP0P_
*1528 uart_tx_inst\.prescale_reg\[16\]\$_SDFFE_PP0P_
*1529 uart_tx_inst\.prescale_reg\[17\]\$_SDFFE_PP0P_
*1530 uart_tx_inst\.prescale_reg\[18\]\$_SDFFE_PP0P_
*1531 uart_tx_inst\.prescale_reg\[1\]\$_SDFFE_PP0P_
*1532 uart_tx_inst\.prescale_reg\[2\]\$_SDFFE_PP0P_
*1533 uart_tx_inst\.prescale_reg\[3\]\$_SDFFE_PP0P_
*1534 uart_tx_inst\.prescale_reg\[4\]\$_SDFFE_PP0P_
*1535 uart_tx_inst\.prescale_reg\[5\]\$_SDFFE_PP0P_
*1536 uart_tx_inst\.prescale_reg\[6\]\$_SDFFE_PP0P_
*1537 uart_tx_inst\.prescale_reg\[7\]\$_SDFFE_PP0P_
*1538 uart_tx_inst\.prescale_reg\[8\]\$_SDFFE_PP0P_
*1539 uart_tx_inst\.prescale_reg\[9\]\$_SDFFE_PP0P_
*1540 uart_tx_inst\.s_axis_tready\$_SDFFE_PP0P_
*1541 uart_tx_inst\.txd\$_SDFFE_PP1P_
*1542 PHY_EDGE_ROW_0_Right_0
*1543 PHY_EDGE_ROW_1_Right_1
*1544 PHY_EDGE_ROW_2_Right_2
*1545 PHY_EDGE_ROW_3_Right_3
*1546 PHY_EDGE_ROW_4_Right_4
*1547 PHY_EDGE_ROW_5_Right_5
*1548 PHY_EDGE_ROW_6_Right_6
*1549 PHY_EDGE_ROW_7_Right_7
*1550 PHY_EDGE_ROW_8_Right_8
*1551 PHY_EDGE_ROW_9_Right_9
*1552 PHY_EDGE_ROW_10_Right_10
*1553 PHY_EDGE_ROW_11_Right_11
*1554 PHY_EDGE_ROW_12_Right_12
*1555 PHY_EDGE_ROW_13_Right_13
*1556 PHY_EDGE_ROW_14_Right_14
*1557 PHY_EDGE_ROW_15_Right_15
*1558 PHY_EDGE_ROW_16_Right_16
*1559 PHY_EDGE_ROW_17_Right_17
*1560 PHY_EDGE_ROW_18_Right_18
*1561 PHY_EDGE_ROW_19_Right_19
*1562 PHY_EDGE_ROW_20_Right_20
*1563 PHY_EDGE_ROW_21_Right_21
*1564 PHY_EDGE_ROW_22_Right_22
*1565 PHY_EDGE_ROW_23_Right_23
*1566 PHY_EDGE_ROW_24_Right_24
*1567 PHY_EDGE_ROW_25_Right_25
*1568 PHY_EDGE_ROW_26_Right_26
*1569 PHY_EDGE_ROW_27_Right_27
*1570 PHY_EDGE_ROW_28_Right_28
*1571 PHY_EDGE_ROW_29_Right_29
*1572 PHY_EDGE_ROW_30_Right_30
*1573 PHY_EDGE_ROW_31_Right_31
*1574 PHY_EDGE_ROW_32_Right_32
*1575 PHY_EDGE_ROW_33_Right_33
*1576 PHY_EDGE_ROW_34_Right_34
*1577 PHY_EDGE_ROW_35_Right_35
*1578 PHY_EDGE_ROW_36_Right_36
*1579 PHY_EDGE_ROW_37_Right_37
*1580 PHY_EDGE_ROW_38_Right_38
*1581 PHY_EDGE_ROW_39_Right_39
*1582 PHY_EDGE_ROW_40_Right_40
*1583 PHY_EDGE_ROW_41_Right_41
*1584 PHY_EDGE_ROW_42_Right_42
*1585 PHY_EDGE_ROW_43_Right_43
*1586 PHY_EDGE_ROW_44_Right_44
*1587 PHY_EDGE_ROW_45_Right_45
*1588 PHY_EDGE_ROW_46_Right_46
*1589 PHY_EDGE_ROW_47_Right_47
*1590 PHY_EDGE_ROW_48_Right_48
*1591 PHY_EDGE_ROW_49_Right_49
*1592 PHY_EDGE_ROW_50_Right_50
*1593 PHY_EDGE_ROW_51_Right_51
*1594 PHY_EDGE_ROW_52_Right_52
*1595 PHY_EDGE_ROW_53_Right_53
*1596 PHY_EDGE_ROW_54_Right_54
*1597 PHY_EDGE_ROW_0_Left_55
*1598 PHY_EDGE_ROW_1_Left_56
*1599 PHY_EDGE_ROW_2_Left_57
*1600 PHY_EDGE_ROW_3_Left_58
*1601 PHY_EDGE_ROW_4_Left_59
*1602 PHY_EDGE_ROW_5_Left_60
*1603 PHY_EDGE_ROW_6_Left_61
*1604 PHY_EDGE_ROW_7_Left_62
*1605 PHY_EDGE_ROW_8_Left_63
*1606 PHY_EDGE_ROW_9_Left_64
*1607 PHY_EDGE_ROW_10_Left_65
*1608 PHY_EDGE_ROW_11_Left_66
*1609 PHY_EDGE_ROW_12_Left_67
*1610 PHY_EDGE_ROW_13_Left_68
*1611 PHY_EDGE_ROW_14_Left_69
*1612 PHY_EDGE_ROW_15_Left_70
*1613 PHY_EDGE_ROW_16_Left_71
*1614 PHY_EDGE_ROW_17_Left_72
*1615 PHY_EDGE_ROW_18_Left_73
*1616 PHY_EDGE_ROW_19_Left_74
*1617 PHY_EDGE_ROW_20_Left_75
*1618 PHY_EDGE_ROW_21_Left_76
*1619 PHY_EDGE_ROW_22_Left_77
*1620 PHY_EDGE_ROW_23_Left_78
*1621 PHY_EDGE_ROW_24_Left_79
*1622 PHY_EDGE_ROW_25_Left_80
*1623 PHY_EDGE_ROW_26_Left_81
*1624 PHY_EDGE_ROW_27_Left_82
*1625 PHY_EDGE_ROW_28_Left_83
*1626 PHY_EDGE_ROW_29_Left_84
*1627 PHY_EDGE_ROW_30_Left_85
*1628 PHY_EDGE_ROW_31_Left_86
*1629 PHY_EDGE_ROW_32_Left_87
*1630 PHY_EDGE_ROW_33_Left_88
*1631 PHY_EDGE_ROW_34_Left_89
*1632 PHY_EDGE_ROW_35_Left_90
*1633 PHY_EDGE_ROW_36_Left_91
*1634 PHY_EDGE_ROW_37_Left_92
*1635 PHY_EDGE_ROW_38_Left_93
*1636 PHY_EDGE_ROW_39_Left_94
*1637 PHY_EDGE_ROW_40_Left_95
*1638 PHY_EDGE_ROW_41_Left_96
*1639 PHY_EDGE_ROW_42_Left_97
*1640 PHY_EDGE_ROW_43_Left_98
*1641 PHY_EDGE_ROW_44_Left_99
*1642 PHY_EDGE_ROW_45_Left_100
*1643 PHY_EDGE_ROW_46_Left_101
*1644 PHY_EDGE_ROW_47_Left_102
*1645 PHY_EDGE_ROW_48_Left_103
*1646 PHY_EDGE_ROW_49_Left_104
*1647 PHY_EDGE_ROW_50_Left_105
*1648 PHY_EDGE_ROW_51_Left_106
*1649 PHY_EDGE_ROW_52_Left_107
*1650 PHY_EDGE_ROW_53_Left_108
*1651 PHY_EDGE_ROW_54_Left_109
*1652 output43
*1653 place208
*1654 place209
*1655 place210
*1656 place213
*1657 place267
*1658 place218
*1659 place219
*1660 place220
*1661 place238
*1662 place228
*1663 place221
*1664 place222
*1665 place227
*1666 place223
*1667 place224
*1668 place225
*1669 place226
*1670 place229
*1671 place234
*1672 place231
*1673 place230
*1674 place232
*1675 place233
*1676 place237
*1677 place235
*1678 place236
*1679 place246
*1680 place245
*1681 place240
*1682 place239
*1683 place244
*1684 place241
*1685 place242
*1686 place243
*1687 place264
*1688 place247
*1689 rebuffer481
*1690 place248
*1691 place259
*1692 place249
*1693 place250
*1694 place251
*1695 place252
*1696 place253
*1697 place255
*1698 place254
*1699 place258
*1700 place256
*1701 place257
*1702 place260
*1703 place261
*1704 place262
*1705 place263
*1706 place266
*1707 place268
*1708 place269
*1709 place288
*1710 place270
*1711 place271
*1712 place273
*1713 place272
*1714 place274
*1715 place287
*1716 place285
*1717 place275
*1718 place277
*1719 place276
*1720 place282
*1721 place278
*1722 place279
*1723 place280
*1724 place281
*1725 place284
*1726 place283
*1727 place286
*1728 place290
*1729 place289
*1730 place291
*1731 place293
*1732 place294
*1733 place295
*1734 place297
*1735 place296
*1736 place303
*1737 place298
*1738 place299
*1739 place300
*1740 place301
*1741 place302
*1742 place304
*1743 place305
*1744 place306
*1745 place307
*1746 place308
*1747 place309
*1748 place310
*1749 place311
*1750 place330
*1751 place312
*1752 place314
*1753 place313
*1754 place315
*1755 place316
*1756 place317
*1757 place318
*1758 place319
*1759 place320
*1760 place322
*1761 place321
*1762 place323
*1763 place324
*1764 place325
*1765 place326
*1766 place327
*1767 place328
*1768 place329
*1769 place331
*1770 place333
*1771 place337
*1772 place335
*1773 place336
*1774 place338
*1775 place339
*1776 place340
*1777 place341
*1778 place345
*1779 place343
*1780 place344
*1781 place347
*1782 place346
*1783 clkbuf_3_3__f_clk
*1784 place348
*1785 place349
*1786 clkbuf_3_2__f_clk
*1787 place350
*1788 place351
*1789 place356
*1790 place352
*1791 clkbuf_3_1__f_clk
*1792 place374
*1793 place364
*1794 place362
*1795 clkbuf_3_0__f_clk
*1796 place353
*1797 place354
*1798 place355
*1799 place358
*1800 place357
*1801 place359
*1802 place360
*1803 place361
*1804 place363
*1805 place365
*1806 place373
*1807 place366
*1808 place367
*1809 place368
*1810 place369
*1811 place370
*1812 place371
*1813 place372
*1814 clkbuf_0_clk
*1815 place206
*1816 place207
*1817 place211
*1818 place212
*1819 place214
*1820 place215
*1821 place216
*1822 place217
*1823 place292
*1824 place332
*1825 place334
*1826 place342
*1827 clkbuf_3_4__f_clk
*1828 clkbuf_3_5__f_clk
*1829 clkbuf_3_6__f_clk
*1830 clkbuf_3_7__f_clk
*1831 clkload0
*1832 clkload1
*1833 clkload2
*1834 clkload3
*1835 clkload4
*1836 clkload5
*1837 clkload6
*1838 rebuffer381
*1839 rebuffer382
*1840 split
*1841 rebuffer386
*1842 rebuffer387
*1843 rebuffer388
*1844 rebuffer414
*1845 rebuffer415
*1846 split455
*1847 split460
*1848 rebuffer461
*1849 split462
*1850 rebuffer472
*1851 rebuffer595
*1852 rebuffer474
*1853 rebuffer475
*1854 rebuffer482
*1855 rebuffer487
*1856 rebuffer488
*1857 rebuffer489
*1858 rebuffer490
*1859 rebuffer491
*1860 rebuffer492
*1861 rebuffer497
*1862 rebuffer502
*1863 rebuffer503
*1864 split504
*1865 rebuffer505
*1866 rebuffer506
*1867 hold509
*1868 hold510
*1869 rebuffer583
*1870 rebuffer585
*1871 rebuffer596
*1872 rebuffer603
*1873 FILLER_0_2
*1874 FILLER_0_24
*1875 FILLER_0_46
*1876 FILLER_0_68
*1877 FILLER_0_90
*1878 FILLER_0_112
*1879 FILLER_0_120
*1880 FILLER_0_122
*1881 FILLER_0_131
*1882 FILLER_0_135
*1883 FILLER_0_146
*1884 FILLER_0_160
*1885 FILLER_0_162
*1886 FILLER_0_168
*1887 FILLER_0_190
*1888 FILLER_0_200
*1889 FILLER_0_202
*1890 FILLER_0_208
*1891 FILLER_0_212
*1892 FILLER_0_218
*1893 FILLER_0_225
*1894 FILLER_0_233
*1895 FILLER_0_255
*1896 FILLER_0_269
*1897 FILLER_0_273
*1898 FILLER_1_2
*1899 FILLER_1_24
*1900 FILLER_1_38
*1901 FILLER_1_50
*1902 FILLER_1_60
*1903 FILLER_1_81
*1904 FILLER_1_103
*1905 FILLER_1_114
*1906 FILLER_1_136
*1907 FILLER_1_145
*1908 FILLER_1_164
*1909 FILLER_1_180
*1910 FILLER_1_202
*1911 FILLER_1_231
*1912 FILLER_1_237
*1913 FILLER_1_244
*1914 FILLER_1_266
*1915 FILLER_1_272
*1916 FILLER_2_2
*1917 FILLER_2_24
*1918 FILLER_2_58
*1919 FILLER_2_69
*1920 FILLER_2_77
*1921 FILLER_2_99
*1922 FILLER_2_121
*1923 FILLER_2_125
*1924 FILLER_2_159
*1925 FILLER_2_181
*1926 FILLER_2_197
*1927 FILLER_2_225
*1928 FILLER_2_241
*1929 FILLER_2_250
*1930 FILLER_2_257
*1931 FILLER_2_271
*1932 FILLER_2_273
*1933 FILLER_3_2
*1934 FILLER_3_24
*1935 FILLER_3_38
*1936 FILLER_3_53
*1937 FILLER_3_62
*1938 FILLER_3_70
*1939 FILLER_3_101
*1940 FILLER_3_107
*1941 FILLER_3_114
*1942 FILLER_3_125
*1943 FILLER_3_135
*1944 FILLER_3_146
*1945 FILLER_3_171
*1946 FILLER_3_173
*1947 FILLER_3_253
*1948 FILLER_3_267
*1949 FILLER_3_273
*1950 FILLER_4_2
*1951 FILLER_4_24
*1952 FILLER_4_38
*1953 FILLER_4_48
*1954 FILLER_4_54
*1955 FILLER_4_66
*1956 FILLER_4_73
*1957 FILLER_4_94
*1958 FILLER_4_102
*1959 FILLER_4_116
*1960 FILLER_4_133
*1961 FILLER_4_137
*1962 FILLER_4_152
*1963 FILLER_4_156
*1964 FILLER_4_187
*1965 FILLER_4_193
*1966 FILLER_4_210
*1967 FILLER_4_243
*1968 FILLER_4_259
*1969 FILLER_4_273
*1970 FILLER_5_2
*1971 FILLER_5_24
*1972 FILLER_5_34
*1973 FILLER_5_36
*1974 FILLER_5_48
*1975 FILLER_5_53
*1976 FILLER_5_55
*1977 FILLER_5_69
*1978 FILLER_5_80
*1979 FILLER_5_90
*1980 FILLER_5_98
*1981 FILLER_5_120
*1982 FILLER_5_122
*1983 FILLER_5_139
*1984 FILLER_5_145
*1985 FILLER_5_179
*1986 FILLER_5_181
*1987 FILLER_5_189
*1988 FILLER_5_211
*1989 FILLER_5_225
*1990 FILLER_5_235
*1991 FILLER_5_262
*1992 FILLER_5_272
*1993 FILLER_6_2
*1994 FILLER_6_24
*1995 FILLER_6_34
*1996 FILLER_6_56
*1997 FILLER_6_70
*1998 FILLER_6_77
*1999 FILLER_6_83
*2000 FILLER_6_85
*2001 FILLER_6_105
*2002 FILLER_6_116
*2003 FILLER_6_118
*2004 FILLER_6_137
*2005 FILLER_6_153
*2006 FILLER_6_167
*2007 FILLER_6_178
*2008 FILLER_6_182
*2009 FILLER_6_204
*2010 FILLER_6_226
*2011 FILLER_6_262
*2012 FILLER_6_272
*2013 FILLER_7_2
*2014 FILLER_7_24
*2015 FILLER_7_30
*2016 FILLER_7_32
*2017 FILLER_7_60
*2018 FILLER_7_66
*2019 FILLER_7_74
*2020 FILLER_7_89
*2021 FILLER_7_97
*2022 FILLER_7_109
*2023 FILLER_7_119
*2024 FILLER_7_133
*2025 FILLER_7_143
*2026 FILLER_7_153
*2027 FILLER_7_175
*2028 FILLER_7_177
*2029 FILLER_7_199
*2030 FILLER_7_221
*2031 FILLER_7_243
*2032 FILLER_7_253
*2033 FILLER_7_262
*2034 FILLER_7_268
*2035 FILLER_8_2
*2036 FILLER_8_24
*2037 FILLER_8_41
*2038 FILLER_8_45
*2039 FILLER_8_60
*2040 FILLER_8_72
*2041 FILLER_8_118
*2042 FILLER_8_122
*2043 FILLER_8_133
*2044 FILLER_8_139
*2045 FILLER_8_160
*2046 FILLER_8_162
*2047 FILLER_8_184
*2048 FILLER_8_186
*2049 FILLER_8_201
*2050 FILLER_8_223
*2051 FILLER_8_228
*2052 FILLER_8_250
*2053 FILLER_8_259
*2054 FILLER_8_273
*2055 FILLER_9_2
*2056 FILLER_9_24
*2057 FILLER_9_51
*2058 FILLER_9_53
*2059 FILLER_9_61
*2060 FILLER_9_65
*2061 FILLER_9_76
*2062 FILLER_9_89
*2063 FILLER_9_95
*2064 FILLER_9_103
*2065 FILLER_9_113
*2066 FILLER_9_135
*2067 FILLER_9_141
*2068 FILLER_9_143
*2069 FILLER_9_162
*2070 FILLER_9_191
*2071 FILLER_9_205
*2072 FILLER_9_226
*2073 FILLER_9_240
*2074 FILLER_9_244
*2075 FILLER_9_265
*2076 FILLER_9_271
*2077 FILLER_9_273
*2078 FILLER_10_2
*2079 FILLER_10_16
*2080 FILLER_10_46
*2081 FILLER_10_59
*2082 FILLER_10_81
*2083 FILLER_10_94
*2084 FILLER_10_106
*2085 FILLER_10_113
*2086 FILLER_10_136
*2087 FILLER_10_150
*2088 FILLER_10_155
*2089 FILLER_10_161
*2090 FILLER_10_168
*2091 FILLER_10_182
*2092 FILLER_10_204
*2093 FILLER_10_216
*2094 FILLER_10_224
*2095 FILLER_10_246
*2096 FILLER_10_268
*2097 FILLER_11_2
*2098 FILLER_11_24
*2099 FILLER_11_41
*2100 FILLER_11_56
*2101 FILLER_11_78
*2102 FILLER_11_88
*2103 FILLER_11_90
*2104 FILLER_11_97
*2105 FILLER_11_111
*2106 FILLER_11_115
*2107 FILLER_11_140
*2108 FILLER_11_156
*2109 FILLER_11_167
*2110 FILLER_11_173
*2111 FILLER_11_198
*2112 FILLER_11_216
*2113 FILLER_11_238
*2114 FILLER_11_248
*2115 FILLER_11_264
*2116 FILLER_12_2
*2117 FILLER_12_8
*2118 FILLER_12_10
*2119 FILLER_12_40
*2120 FILLER_12_62
*2121 FILLER_12_74
*2122 FILLER_12_88
*2123 FILLER_12_98
*2124 FILLER_12_126
*2125 FILLER_12_151
*2126 FILLER_12_159
*2127 FILLER_12_165
*2128 FILLER_12_176
*2129 FILLER_12_200
*2130 FILLER_12_217
*2131 FILLER_12_219
*2132 FILLER_12_235
*2133 FILLER_12_239
*2134 FILLER_12_265
*2135 FILLER_12_271
*2136 FILLER_12_273
*2137 FILLER_13_2
*2138 FILLER_13_24
*2139 FILLER_13_42
*2140 FILLER_13_46
*2141 FILLER_13_56
*2142 FILLER_13_66
*2143 FILLER_13_79
*2144 FILLER_13_86
*2145 FILLER_13_96
*2146 FILLER_13_160
*2147 FILLER_13_192
*2148 FILLER_13_194
*2149 FILLER_13_209
*2150 FILLER_13_220
*2151 FILLER_13_227
*2152 FILLER_13_256
*2153 FILLER_14_2
*2154 FILLER_14_24
*2155 FILLER_14_46
*2156 FILLER_14_68
*2157 FILLER_14_83
*2158 FILLER_14_89
*2159 FILLER_14_91
*2160 FILLER_14_98
*2161 FILLER_14_105
*2162 FILLER_14_118
*2163 FILLER_14_142
*2164 FILLER_14_146
*2165 FILLER_14_161
*2166 FILLER_14_171
*2167 FILLER_14_217
*2168 FILLER_14_239
*2169 FILLER_14_245
*2170 FILLER_14_267
*2171 FILLER_14_273
*2172 FILLER_15_2
*2173 FILLER_15_24
*2174 FILLER_15_44
*2175 FILLER_15_66
*2176 FILLER_15_90
*2177 FILLER_15_112
*2178 FILLER_15_146
*2179 FILLER_15_156
*2180 FILLER_15_162
*2181 FILLER_15_170
*2182 FILLER_15_177
*2183 FILLER_15_183
*2184 FILLER_15_202
*2185 FILLER_15_212
*2186 FILLER_15_225
*2187 FILLER_15_247
*2188 FILLER_15_269
*2189 FILLER_15_273
*2190 FILLER_16_2
*2191 FILLER_16_24
*2192 FILLER_16_62
*2193 FILLER_16_84
*2194 FILLER_16_106
*2195 FILLER_16_116
*2196 FILLER_16_149
*2197 FILLER_16_159
*2198 FILLER_16_170
*2199 FILLER_16_184
*2200 FILLER_16_188
*2201 FILLER_16_200
*2202 FILLER_16_237
*2203 FILLER_16_247
*2204 FILLER_16_261
*2205 FILLER_16_273
*2206 FILLER_17_2
*2207 FILLER_17_24
*2208 FILLER_17_26
*2209 FILLER_17_38
*2210 FILLER_17_46
*2211 FILLER_17_58
*2212 FILLER_17_68
*2213 FILLER_17_82
*2214 FILLER_17_86
*2215 FILLER_17_102
*2216 FILLER_17_116
*2217 FILLER_17_122
*2218 FILLER_17_139
*2219 FILLER_17_149
*2220 FILLER_17_183
*2221 FILLER_17_209
*2222 FILLER_17_219
*2223 FILLER_17_241
*2224 FILLER_17_247
*2225 FILLER_17_249
*2226 FILLER_17_270
*2227 FILLER_18_2
*2228 FILLER_18_24
*2229 FILLER_18_38
*2230 FILLER_18_48
*2231 FILLER_18_55
*2232 FILLER_18_72
*2233 FILLER_18_86
*2234 FILLER_18_99
*2235 FILLER_18_124
*2236 FILLER_18_134
*2237 FILLER_18_136
*2238 FILLER_18_143
*2239 FILLER_18_165
*2240 FILLER_18_183
*2241 FILLER_18_197
*2242 FILLER_18_247
*2243 FILLER_18_269
*2244 FILLER_18_273
*2245 FILLER_19_2
*2246 FILLER_19_24
*2247 FILLER_19_34
*2248 FILLER_19_36
*2249 FILLER_19_52
*2250 FILLER_19_58
*2251 FILLER_19_73
*2252 FILLER_19_87
*2253 FILLER_19_100
*2254 FILLER_19_102
*2255 FILLER_19_109
*2256 FILLER_19_119
*2257 FILLER_19_126
*2258 FILLER_19_133
*2259 FILLER_19_148
*2260 FILLER_19_150
*2261 FILLER_19_157
*2262 FILLER_19_172
*2263 FILLER_19_185
*2264 FILLER_19_191
*2265 FILLER_19_208
*2266 FILLER_19_212
*2267 FILLER_19_231
*2268 FILLER_19_240
*2269 FILLER_19_262
*2270 FILLER_19_272
*2271 FILLER_20_7
*2272 FILLER_20_13
*2273 FILLER_20_31
*2274 FILLER_20_53
*2275 FILLER_20_57
*2276 FILLER_20_65
*2277 FILLER_20_67
*2278 FILLER_20_74
*2279 FILLER_20_80
*2280 FILLER_20_82
*2281 FILLER_20_97
*2282 FILLER_20_118
*2283 FILLER_20_145
*2284 FILLER_20_157
*2285 FILLER_20_171
*2286 FILLER_20_183
*2287 FILLER_20_185
*2288 FILLER_20_192
*2289 FILLER_20_196
*2290 FILLER_20_203
*2291 FILLER_20_227
*2292 FILLER_20_229
*2293 FILLER_20_250
*2294 FILLER_20_259
*2295 FILLER_20_273
*2296 FILLER_21_2
*2297 FILLER_21_11
*2298 FILLER_21_15
*2299 FILLER_21_23
*2300 FILLER_21_41
*2301 FILLER_21_48
*2302 FILLER_21_63
*2303 FILLER_21_69
*2304 FILLER_21_76
*2305 FILLER_21_86
*2306 FILLER_21_93
*2307 FILLER_21_106
*2308 FILLER_21_116
*2309 FILLER_21_134
*2310 FILLER_21_144
*2311 FILLER_21_180
*2312 FILLER_21_208
*2313 FILLER_21_234
*2314 FILLER_21_241
*2315 FILLER_21_263
*2316 FILLER_21_273
*2317 FILLER_22_7
*2318 FILLER_22_14
*2319 FILLER_22_28
*2320 FILLER_22_46
*2321 FILLER_22_52
*2322 FILLER_22_72
*2323 FILLER_22_94
*2324 FILLER_22_106
*2325 FILLER_22_120
*2326 FILLER_22_122
*2327 FILLER_22_139
*2328 FILLER_22_143
*2329 FILLER_22_155
*2330 FILLER_22_163
*2331 FILLER_22_185
*2332 FILLER_22_191
*2333 FILLER_22_193
*2334 FILLER_22_200
*2335 FILLER_22_221
*2336 FILLER_22_231
*2337 FILLER_22_253
*2338 FILLER_22_267
*2339 FILLER_22_273
*2340 FILLER_23_2
*2341 FILLER_23_8
*2342 FILLER_23_10
*2343 FILLER_23_22
*2344 FILLER_23_35
*2345 FILLER_23_45
*2346 FILLER_23_53
*2347 FILLER_23_73
*2348 FILLER_23_103
*2349 FILLER_23_113
*2350 FILLER_23_130
*2351 FILLER_23_152
*2352 FILLER_23_174
*2353 FILLER_23_180
*2354 FILLER_23_188
*2355 FILLER_23_210
*2356 FILLER_23_232
*2357 FILLER_23_236
*2358 FILLER_23_242
*2359 FILLER_23_264
*2360 FILLER_24_2
*2361 FILLER_24_8
*2362 FILLER_24_43
*2363 FILLER_24_57
*2364 FILLER_24_81
*2365 FILLER_24_83
*2366 FILLER_24_94
*2367 FILLER_24_103
*2368 FILLER_24_105
*2369 FILLER_24_117
*2370 FILLER_24_139
*2371 FILLER_24_161
*2372 FILLER_24_183
*2373 FILLER_24_205
*2374 FILLER_24_227
*2375 FILLER_24_249
*2376 FILLER_24_271
*2377 FILLER_24_273
*2378 FILLER_25_20
*2379 FILLER_25_28
*2380 FILLER_25_41
*2381 FILLER_25_45
*2382 FILLER_25_52
*2383 FILLER_25_62
*2384 FILLER_25_74
*2385 FILLER_25_88
*2386 FILLER_25_107
*2387 FILLER_25_129
*2388 FILLER_25_143
*2389 FILLER_25_151
*2390 FILLER_25_173
*2391 FILLER_25_181
*2392 FILLER_25_183
*2393 FILLER_25_190
*2394 FILLER_25_197
*2395 FILLER_25_211
*2396 FILLER_25_218
*2397 FILLER_25_240
*2398 FILLER_25_262
*2399 FILLER_25_272
*2400 FILLER_26_12
*2401 FILLER_26_28
*2402 FILLER_26_40
*2403 FILLER_26_61
*2404 FILLER_26_83
*2405 FILLER_26_93
*2406 FILLER_26_106
*2407 FILLER_26_110
*2408 FILLER_26_117
*2409 FILLER_26_129
*2410 FILLER_26_138
*2411 FILLER_26_153
*2412 FILLER_26_157
*2413 FILLER_26_184
*2414 FILLER_26_191
*2415 FILLER_26_198
*2416 FILLER_26_216
*2417 FILLER_26_244
*2418 FILLER_26_246
*2419 FILLER_26_267
*2420 FILLER_26_273
*2421 FILLER_27_2
*2422 FILLER_27_4
*2423 FILLER_27_10
*2424 FILLER_27_12
*2425 FILLER_27_19
*2426 FILLER_27_43
*2427 FILLER_27_72
*2428 FILLER_27_76
*2429 FILLER_27_84
*2430 FILLER_27_106
*2431 FILLER_27_120
*2432 FILLER_27_126
*2433 FILLER_27_137
*2434 FILLER_27_198
*2435 FILLER_27_200
*2436 FILLER_27_207
*2437 FILLER_27_209
*2438 FILLER_27_248
*2439 FILLER_27_255
*2440 FILLER_27_269
*2441 FILLER_27_273
*2442 FILLER_28_2
*2443 FILLER_28_13
*2444 FILLER_28_23
*2445 FILLER_28_25
*2446 FILLER_28_37
*2447 FILLER_28_48
*2448 FILLER_28_70
*2449 FILLER_28_80
*2450 FILLER_28_118
*2451 FILLER_28_124
*2452 FILLER_28_135
*2453 FILLER_28_146
*2454 FILLER_28_164
*2455 FILLER_28_173
*2456 FILLER_28_183
*2457 FILLER_28_202
*2458 FILLER_28_225
*2459 FILLER_28_237
*2460 FILLER_28_259
*2461 FILLER_28_264
*2462 FILLER_28_271
*2463 FILLER_28_273
*2464 FILLER_29_2
*2465 FILLER_29_24
*2466 FILLER_29_53
*2467 FILLER_29_63
*2468 FILLER_29_65
*2469 FILLER_29_76
*2470 FILLER_29_86
*2471 FILLER_29_88
*2472 FILLER_29_96
*2473 FILLER_29_128
*2474 FILLER_29_130
*2475 FILLER_29_157
*2476 FILLER_29_179
*2477 FILLER_29_222
*2478 FILLER_29_244
*2479 FILLER_29_253
*2480 FILLER_29_267
*2481 FILLER_30_2
*2482 FILLER_30_24
*2483 FILLER_30_30
*2484 FILLER_30_49
*2485 FILLER_30_53
*2486 FILLER_30_75
*2487 FILLER_30_79
*2488 FILLER_30_88
*2489 FILLER_30_92
*2490 FILLER_30_99
*2491 FILLER_30_101
*2492 FILLER_30_120
*2493 FILLER_30_124
*2494 FILLER_30_131
*2495 FILLER_30_147
*2496 FILLER_30_169
*2497 FILLER_30_179
*2498 FILLER_30_183
*2499 FILLER_30_191
*2500 FILLER_30_206
*2501 FILLER_30_228
*2502 FILLER_30_238
*2503 FILLER_30_240
*2504 FILLER_31_2
*2505 FILLER_31_24
*2506 FILLER_31_28
*2507 FILLER_31_40
*2508 FILLER_31_56
*2509 FILLER_31_60
*2510 FILLER_31_67
*2511 FILLER_31_71
*2512 FILLER_31_80
*2513 FILLER_31_104
*2514 FILLER_31_108
*2515 FILLER_31_125
*2516 FILLER_31_127
*2517 FILLER_31_136
*2518 FILLER_31_152
*2519 FILLER_31_170
*2520 FILLER_31_177
*2521 FILLER_31_186
*2522 FILLER_31_193
*2523 FILLER_31_209
*2524 FILLER_31_215
*2525 FILLER_31_222
*2526 FILLER_31_228
*2527 FILLER_31_230
*2528 FILLER_31_241
*2529 FILLER_31_247
*2530 FILLER_31_261
*2531 FILLER_31_267
*2532 FILLER_32_2
*2533 FILLER_32_24
*2534 FILLER_32_38
*2535 FILLER_32_50
*2536 FILLER_32_74
*2537 FILLER_32_96
*2538 FILLER_32_118
*2539 FILLER_32_124
*2540 FILLER_32_126
*2541 FILLER_32_137
*2542 FILLER_32_159
*2543 FILLER_32_174
*2544 FILLER_32_178
*2545 FILLER_32_185
*2546 FILLER_32_200
*2547 FILLER_32_222
*2548 FILLER_32_228
*2549 FILLER_32_240
*2550 FILLER_32_250
*2551 FILLER_32_259
*2552 FILLER_32_265
*2553 FILLER_33_2
*2554 FILLER_33_24
*2555 FILLER_33_34
*2556 FILLER_33_51
*2557 FILLER_33_65
*2558 FILLER_33_77
*2559 FILLER_33_105
*2560 FILLER_33_127
*2561 FILLER_33_149
*2562 FILLER_33_159
*2563 FILLER_33_181
*2564 FILLER_33_203
*2565 FILLER_33_217
*2566 FILLER_33_221
*2567 FILLER_33_225
*2568 FILLER_33_247
*2569 FILLER_33_249
*2570 FILLER_33_270
*2571 FILLER_34_2
*2572 FILLER_34_24
*2573 FILLER_34_48
*2574 FILLER_34_92
*2575 FILLER_34_114
*2576 FILLER_34_128
*2577 FILLER_34_130
*2578 FILLER_34_163
*2579 FILLER_34_177
*2580 FILLER_34_179
*2581 FILLER_34_186
*2582 FILLER_34_198
*2583 FILLER_34_229
*2584 FILLER_34_243
*2585 FILLER_34_247
*2586 FILLER_34_262
*2587 FILLER_35_2
*2588 FILLER_35_24
*2589 FILLER_35_34
*2590 FILLER_35_46
*2591 FILLER_35_60
*2592 FILLER_35_62
*2593 FILLER_35_69
*2594 FILLER_35_77
*2595 FILLER_35_91
*2596 FILLER_35_99
*2597 FILLER_35_101
*2598 FILLER_35_108
*2599 FILLER_35_110
*2600 FILLER_35_120
*2601 FILLER_35_126
*2602 FILLER_35_160
*2603 FILLER_35_182
*2604 FILLER_35_198
*2605 FILLER_35_228
*2606 FILLER_35_235
*2607 FILLER_35_241
*2608 FILLER_35_243
*2609 FILLER_35_272
*2610 FILLER_36_2
*2611 FILLER_36_24
*2612 FILLER_36_38
*2613 FILLER_36_50
*2614 FILLER_36_60
*2615 FILLER_36_91
*2616 FILLER_36_118
*2617 FILLER_36_120
*2618 FILLER_36_127
*2619 FILLER_36_145
*2620 FILLER_36_162
*2621 FILLER_36_186
*2622 FILLER_36_195
*2623 FILLER_36_214
*2624 FILLER_36_220
*2625 FILLER_36_241
*2626 FILLER_36_248
*2627 FILLER_36_270
*2628 FILLER_37_2
*2629 FILLER_37_24
*2630 FILLER_37_38
*2631 FILLER_37_40
*2632 FILLER_37_69
*2633 FILLER_37_83
*2634 FILLER_37_87
*2635 FILLER_37_94
*2636 FILLER_37_134
*2637 FILLER_37_136
*2638 FILLER_37_140
*2639 FILLER_37_168
*2640 FILLER_37_172
*2641 FILLER_37_188
*2642 FILLER_37_202
*2643 FILLER_37_211
*2644 FILLER_37_217
*2645 FILLER_37_219
*2646 FILLER_37_228
*2647 FILLER_37_242
*2648 FILLER_37_262
*2649 FILLER_38_2
*2650 FILLER_38_24
*2651 FILLER_38_38
*2652 FILLER_38_42
*2653 FILLER_38_75
*2654 FILLER_38_85
*2655 FILLER_38_100
*2656 FILLER_38_129
*2657 FILLER_38_142
*2658 FILLER_38_144
*2659 FILLER_38_165
*2660 FILLER_38_179
*2661 FILLER_38_181
*2662 FILLER_38_188
*2663 FILLER_38_194
*2664 FILLER_38_196
*2665 FILLER_38_203
*2666 FILLER_38_213
*2667 FILLER_38_230
*2668 FILLER_38_244
*2669 FILLER_38_248
*2670 FILLER_38_250
*2671 FILLER_38_271
*2672 FILLER_38_273
*2673 FILLER_39_2
*2674 FILLER_39_24
*2675 FILLER_39_46
*2676 FILLER_39_68
*2677 FILLER_39_76
*2678 FILLER_39_102
*2679 FILLER_39_143
*2680 FILLER_39_190
*2681 FILLER_39_201
*2682 FILLER_39_213
*2683 FILLER_39_261
*2684 FILLER_39_271
*2685 FILLER_39_273
*2686 FILLER_40_2
*2687 FILLER_40_24
*2688 FILLER_40_46
*2689 FILLER_40_60
*2690 FILLER_40_66
*2691 FILLER_40_75
*2692 FILLER_40_110
*2693 FILLER_40_118
*2694 FILLER_40_125
*2695 FILLER_40_144
*2696 FILLER_40_151
*2697 FILLER_40_163
*2698 FILLER_40_173
*2699 FILLER_40_175
*2700 FILLER_40_188
*2701 FILLER_40_198
*2702 FILLER_40_207
*2703 FILLER_40_233
*2704 FILLER_40_248
*2705 FILLER_40_260
*2706 FILLER_40_264
*2707 FILLER_40_268
*2708 FILLER_41_2
*2709 FILLER_41_24
*2710 FILLER_41_34
*2711 FILLER_41_55
*2712 FILLER_41_69
*2713 FILLER_41_71
*2714 FILLER_41_84
*2715 FILLER_41_98
*2716 FILLER_41_111
*2717 FILLER_41_148
*2718 FILLER_41_159
*2719 FILLER_41_194
*2720 FILLER_41_208
*2721 FILLER_41_212
*2722 FILLER_41_228
*2723 FILLER_41_250
*2724 FILLER_41_272
*2725 FILLER_42_2
*2726 FILLER_42_24
*2727 FILLER_42_28
*2728 FILLER_42_63
*2729 FILLER_42_67
*2730 FILLER_42_74
*2731 FILLER_42_80
*2732 FILLER_42_90
*2733 FILLER_42_104
*2734 FILLER_42_111
*2735 FILLER_42_123
*2736 FILLER_42_131
*2737 FILLER_42_142
*2738 FILLER_42_156
*2739 FILLER_42_158
*2740 FILLER_42_167
*2741 FILLER_42_177
*2742 FILLER_42_199
*2743 FILLER_42_213
*2744 FILLER_42_226
*2745 FILLER_42_236
*2746 FILLER_42_241
*2747 FILLER_42_247
*2748 FILLER_42_262
*2749 FILLER_42_272
*2750 FILLER_43_2
*2751 FILLER_43_24
*2752 FILLER_43_34
*2753 FILLER_43_44
*2754 FILLER_43_62
*2755 FILLER_43_102
*2756 FILLER_43_112
*2757 FILLER_43_114
*2758 FILLER_43_118
*2759 FILLER_43_140
*2760 FILLER_43_162
*2761 FILLER_43_183
*2762 FILLER_43_205
*2763 FILLER_43_207
*2764 FILLER_43_223
*2765 FILLER_43_237
*2766 FILLER_43_258
*2767 FILLER_43_260
*2768 FILLER_43_269
*2769 FILLER_43_273
*2770 FILLER_44_2
*2771 FILLER_44_24
*2772 FILLER_44_30
*2773 FILLER_44_37
*2774 FILLER_44_47
*2775 FILLER_44_65
*2776 FILLER_44_72
*2777 FILLER_44_78
*2778 FILLER_44_90
*2779 FILLER_44_104
*2780 FILLER_44_134
*2781 FILLER_44_148
*2782 FILLER_44_150
*2783 FILLER_44_178
*2784 FILLER_44_185
*2785 FILLER_44_199
*2786 FILLER_44_201
*2787 FILLER_44_232
*2788 FILLER_44_254
*2789 FILLER_44_263
*2790 FILLER_44_273
*2791 FILLER_45_2
*2792 FILLER_45_24
*2793 FILLER_45_34
*2794 FILLER_45_64
*2795 FILLER_45_66
*2796 FILLER_45_75
*2797 FILLER_45_90
*2798 FILLER_45_147
*2799 FILLER_45_149
*2800 FILLER_45_168
*2801 FILLER_45_190
*2802 FILLER_45_212
*2803 FILLER_45_245
*2804 FILLER_45_272
*2805 FILLER_46_2
*2806 FILLER_46_24
*2807 FILLER_46_46
*2808 FILLER_46_56
*2809 FILLER_46_65
*2810 FILLER_46_80
*2811 FILLER_46_94
*2812 FILLER_46_114
*2813 FILLER_46_124
*2814 FILLER_46_131
*2815 FILLER_46_141
*2816 FILLER_46_173
*2817 FILLER_46_187
*2818 FILLER_46_201
*2819 FILLER_46_231
*2820 FILLER_46_235
*2821 FILLER_46_247
*2822 FILLER_46_268
*2823 FILLER_47_2
*2824 FILLER_47_24
*2825 FILLER_47_46
*2826 FILLER_47_56
*2827 FILLER_47_58
*2828 FILLER_47_80
*2829 FILLER_47_84
*2830 FILLER_47_91
*2831 FILLER_47_99
*2832 FILLER_47_111
*2833 FILLER_47_125
*2834 FILLER_47_127
*2835 FILLER_47_142
*2836 FILLER_47_164
*2837 FILLER_47_180
*2838 FILLER_47_187
*2839 FILLER_47_228
*2840 FILLER_47_266
*2841 FILLER_47_272
*2842 FILLER_48_2
*2843 FILLER_48_24
*2844 FILLER_48_38
*2845 FILLER_48_40
*2846 FILLER_48_49
*2847 FILLER_48_55
*2848 FILLER_48_57
*2849 FILLER_48_69
*2850 FILLER_48_76
*2851 FILLER_48_98
*2852 FILLER_48_120
*2853 FILLER_48_134
*2854 FILLER_48_146
*2855 FILLER_48_170
*2856 FILLER_48_192
*2857 FILLER_48_205
*2858 FILLER_48_211
*2859 FILLER_48_233
*2860 FILLER_48_239
*2861 FILLER_48_241
*2862 FILLER_48_248
*2863 FILLER_48_270
*2864 FILLER_49_2
*2865 FILLER_49_24
*2866 FILLER_49_38
*2867 FILLER_49_42
*2868 FILLER_49_69
*2869 FILLER_49_79
*2870 FILLER_49_81
*2871 FILLER_49_109
*2872 FILLER_49_125
*2873 FILLER_49_137
*2874 FILLER_49_144
*2875 FILLER_49_168
*2876 FILLER_49_202
*2877 FILLER_49_224
*2878 FILLER_49_234
*2879 FILLER_49_239
*2880 FILLER_49_261
*2881 FILLER_49_271
*2882 FILLER_49_273
*2883 FILLER_50_2
*2884 FILLER_50_24
*2885 FILLER_50_46
*2886 FILLER_50_68
*2887 FILLER_50_96
*2888 FILLER_50_134
*2889 FILLER_50_141
*2890 FILLER_50_163
*2891 FILLER_50_185
*2892 FILLER_50_191
*2893 FILLER_50_201
*2894 FILLER_50_223
*2895 FILLER_50_245
*2896 FILLER_50_267
*2897 FILLER_50_273
*2898 FILLER_51_2
*2899 FILLER_51_24
*2900 FILLER_51_46
*2901 FILLER_51_68
*2902 FILLER_51_90
*2903 FILLER_51_139
*2904 FILLER_51_161
*2905 FILLER_51_183
*2906 FILLER_51_205
*2907 FILLER_51_227
*2908 FILLER_51_249
*2909 FILLER_51_271
*2910 FILLER_51_273
*2911 FILLER_52_2
*2912 FILLER_52_24
*2913 FILLER_52_46
*2914 FILLER_52_68
*2915 FILLER_52_90
*2916 FILLER_52_104
*2917 FILLER_52_110
*2918 FILLER_52_125
*2919 FILLER_52_137
*2920 FILLER_52_159
*2921 FILLER_52_181
*2922 FILLER_52_203
*2923 FILLER_52_225
*2924 FILLER_52_235
*2925 FILLER_52_241
*2926 FILLER_52_263
*2927 FILLER_52_273
*2928 FILLER_53_2
*2929 FILLER_53_24
*2930 FILLER_53_46
*2931 FILLER_53_68
*2932 FILLER_53_90
*2933 FILLER_53_112
*2934 FILLER_53_141
*2935 FILLER_53_163
*2936 FILLER_53_185
*2937 FILLER_53_195
*2938 FILLER_53_197
*2939 FILLER_53_203
*2940 FILLER_53_225
*2941 FILLER_53_247
*2942 FILLER_53_269
*2943 FILLER_53_273
*2944 FILLER_54_2
*2945 FILLER_54_24
*2946 FILLER_54_46
*2947 FILLER_54_68
*2948 FILLER_54_90
*2949 FILLER_54_112
*2950 FILLER_54_134
*2951 FILLER_54_156
*2952 FILLER_54_178
*2953 FILLER_54_200
*2954 FILLER_54_222
*2955 FILLER_54_244
*2956 FILLER_54_266
*2957 FILLER_54_272

*PORTS
clk I
m_axis_tdata[0] O
m_axis_tdata[1] O
m_axis_tdata[2] O
m_axis_tdata[3] O
m_axis_tdata[4] O
m_axis_tdata[5] O
m_axis_tdata[6] O
m_axis_tdata[7] O
m_axis_tready I
m_axis_tvalid O
prescale[0] I
prescale[10] I
prescale[11] I
prescale[12] I
prescale[13] I
prescale[14] I
prescale[15] I
prescale[1] I
prescale[2] I
prescale[3] I
prescale[4] I
prescale[5] I
prescale[6] I
prescale[7] I
prescale[8] I
prescale[9] I
rst I
rx_busy O
rx_frame_error O
rx_overrun_error O
rxd I
s_axis_tdata[0] I
s_axis_tdata[1] I
s_axis_tdata[2] I
s_axis_tdata[3] I
s_axis_tdata[4] I
s_axis_tdata[5] I
s_axis_tdata[6] I
s_axis_tdata[7] I
s_axis_tready O
s_axis_tvalid I
tx_busy O
txd O

*D_NET *1 0.001452
*CONN
*I *1760:A I *D BUFx3_ASAP7_75t_SL
*I *1038:A I *D INVx1_ASAP7_75t_SL
*I *1761:A I *D BUFx3_ASAP7_75t_SL
*I *1152:A I *D OR2x2_ASAP7_75t_SL
*I *1506:QN O *D DFFHQNx1_ASAP7_75t_SL
*CAP
1 *1760:A 0
2 *1038:A 0
3 *1761:A 0
4 *1152:A 0
5 *1506:QN 1.6031e-05
6 *1:63 1.34554e-06
7 *1:57 0.00025073
8 *1:55 0.000255689
9 *1:51 4.86056e-05
10 *1:45 5.78499e-05
11 *1:37 1.98897e-05
12 *1:33 6.06483e-05
13 *1:27 8.97678e-05
14 *1:16 3.42314e-05
15 *1:12 0.000135993
16 *1:10 0.000135222
17 *1:8 1.6031e-05
18 *1:8 *178:8 0
19 *1:12 *97:20 1.62528e-05
20 *1:12 *209:16 1.03247e-05
21 *1:12 *692:141 0
22 *1:16 *70:33 4.97876e-07
23 *1:16 *209:10 6.72662e-07
24 *1:16 *294:20 3.71881e-06
25 *1:27 *70:33 6.4693e-07
26 *1:27 *209:10 1.68165e-06
27 *1:27 *294:16 1.57597e-05
28 *1:27 *294:20 9.6361e-06
29 *1:27 *294:52 8.29921e-06
30 *1:27 *300:8 0
31 *1:27 *711:50 7.75665e-06
32 *1:27 *720:21 2.64738e-05
33 *1:33 *1666:A 2.28964e-05
34 *1:33 *212:10 6.53981e-05
35 *1:33 *298:18 0
36 *1:37 *306:6 5.25794e-06
37 *1:45 *1193:E 2.12481e-06
38 *1:45 *306:6 3.81627e-06
39 *1:45 *717:39 8.3668e-07
40 *1:45 *792:8 7.58265e-07
41 *1:51 *174:8 1.1211e-07
42 *1:51 *289:12 0
43 *1:51 *692:109 0
44 *1:51 *707:10 1.53157e-06
45 *1:51 *717:18 2.11721e-05
46 *1:51 *744:37 7.89466e-06
47 *1:51 *769:18 4.14892e-06
48 *1:51 *770:27 3.25311e-05
49 *1:55 *707:10 3.66718e-06
50 *1:55 *744:37 2.19718e-05
51 *1:57 *266:14 0
52 *1:57 *268:70 0
53 *1:57 *272:14 1.65938e-05
54 *1:57 *272:18 5.02428e-06
55 *1:57 *282:40 0
56 *1:57 *481:14 0
57 *1:57 *717:18 0
58 *1:57 *769:18 6.33334e-06
59 *1:57 *809:64 6.18028e-06
60 *1:63 *403:14 0
61 *1:63 *447:16 0
*RES
1 *1506:QN *1:8 46.6958 
2 *1:8 *1:10 17.2 
3 *1:10 *1:12 53.6766 
4 *1:12 *1:16 18.4202 
5 *1:16 *1152:A 34.4 
6 *1:16 *1:27 47.611 
7 *1:27 *1:33 45.7725 
8 *1:33 *1:37 20.9438 
9 *1:37 *1:45 45.2577 
10 *1:45 *1:51 39.5912 
11 *1:51 *1:55 24.615 
12 *1:55 *1:57 79.6492 
13 *1:57 *1:63 35.4325 
14 *1:63 *1761:A 17.2 
15 *1:51 *1038:A 34.4 
16 *1:37 *1760:A 17.2 
*END

*D_NET *2 0.000170741
*CONN
*I *1015:A1 I *D OA21x2_ASAP7_75t_SL
*I *1024:A I *D INVx1_ASAP7_75t_SL
*I *1541:QN O *D DFFHQNx1_ASAP7_75t_SL
*CAP
1 *1015:A1 0
2 *1024:A 2.01014e-05
3 *1541:QN 1.33122e-05
4 *2:23 4.43695e-05
5 *2:8 7.7783e-05
6 *1024:A *817:8 0
7 *2:8 *817:8 0
8 *2:23 *279:16 0
9 *2:23 *524:73 1.08825e-06
10 *2:23 *817:12 1.40871e-05
*RES
1 *1541:QN *2:8 43.4107 
2 *2:8 *1024:A 43.6621 
3 *2:8 *2:23 38.0582 
4 *2:23 *1015:A1 17.2 
*END

*D_NET *3 0.000314464
*CONN
*I *1021:A I *D INVx1_ASAP7_75t_SL
*I *1012:B I *D OR3x1_ASAP7_75t_SL
*I *1540:QN O *D DFFHQNx1_ASAP7_75t_SL
*CAP
1 *1021:A 0
2 *1012:B 0
3 *1540:QN 5.73982e-06
4 *3:30 5.90432e-06
5 *3:22 4.24061e-05
6 *3:14 6.20142e-05
7 *3:12 6.3524e-05
8 *3:8 4.37514e-05
9 *3:8 *76:8 3.56648e-06
10 *3:12 *1423:D 1.34466e-06
11 *3:12 *1425:A 0
12 *3:12 *1427:A 2.25787e-06
13 *3:12 *1427:B 8.71771e-06
14 *3:12 *501:10 5.52807e-07
15 *3:12 *504:8 9.94583e-06
16 *3:12 *505:10 1.67815e-06
17 *3:12 *505:27 3.3563e-06
18 *3:12 *702:8 8.06436e-06
19 *3:12 *702:20 0
20 *3:12 *727:57 2.68933e-07
21 *3:12 *728:103 5.85806e-06
22 *3:14 *676:27 3.13426e-06
23 *3:14 *791:14 2.72554e-05
24 *3:22 *227:14 0
25 *3:22 *790:18 9.24628e-07
26 *3:30 *1012:C 7.58545e-06
27 *3:30 *262:31 4.30517e-07
28 *3:30 *823:18 6.18268e-06
*RES
1 *1540:QN *3:8 37.0741 
2 *3:8 *3:12 45.9215 
3 *3:12 *3:14 12.301 
4 *3:14 *3:22 47.7407 
5 *3:22 *3:30 38.6981 
6 *3:30 *1012:B 17.2 
7 *3:14 *1021:A 17.2 
*END

*D_NET *4 8.15996e-05
*CONN
*I *1740:A I *D BUFx3_ASAP7_75t_SL
*I *1089:A I *D AND2x2_ASAP7_75t_SL
*I *1539:QN O *D DFFHQNx1_ASAP7_75t_SL
*CAP
1 *1740:A 4.16402e-06
2 *1089:A 7.47211e-06
3 *1539:QN 4.84046e-06
4 *4:8 1.64766e-05
5 *1089:A *5:16 1.34788e-05
6 *1089:A *823:82 1.29877e-05
7 *1089:A *889:8 0
8 *1740:A *5:16 1.33022e-05
9 *1740:A *889:25 0
10 *4:8 *823:82 8.87763e-06
*RES
1 *1539:QN *4:8 37.0741 
2 *4:8 *1089:A 40.9596 
3 *4:8 *1740:A 38.9053 
*END

*D_NET *5 0.000166932
*CONN
*I *1741:A I *D BUFx3_ASAP7_75t_SL
*I *1089:B I *D AND2x2_ASAP7_75t_SL
*I *1538:QN O *D DFFHQNx1_ASAP7_75t_SL
*CAP
1 *1741:A 1.78577e-06
2 *1089:B 0
3 *1538:QN 1.71409e-05
4 *5:16 3.60215e-05
5 *5:10 5.49481e-05
6 *1741:A *1003:C 5.41446e-06
7 *5:10 *612:6 7.72307e-07
8 *5:10 *621:12 1.19526e-07
9 *5:10 *663:74 0
10 *5:16 *585:30 8.58704e-06
11 *5:16 *604:26 0
12 *5:16 *621:12 5.37866e-07
13 *5:16 *622:18 1.12894e-06
14 *5:16 *663:74 0
15 *5:16 *772:10 1.36943e-05
16 *5:16 *889:8 0
17 *5:16 *889:25 0
18 *5:16 *889:35 0
19 *1089:A *5:16 1.34788e-05
20 *1740:A *5:16 1.33022e-05
*RES
1 *1538:QN *5:10 43.8321 
2 *5:10 *5:16 44.7101 
3 *5:16 *1089:B 17.2 
4 *5:10 *1741:A 36.0045 
*END

*D_NET *6 0.000274379
*CONN
*I *1088:A I *D AND4x2_ASAP7_75t_SL
*I *1736:A I *D BUFx3_ASAP7_75t_SL
*I *1537:QN O *D DFFHQNx1_ASAP7_75t_SL
*CAP
1 *1088:A 7.36224e-06
2 *1736:A 1.76181e-05
3 *1537:QN 0
4 *6:27 3.06108e-05
5 *6:10 6.65928e-05
6 *6:4 7.22232e-05
7 *1088:A *1088:B 7.14604e-06
8 *1088:A *1088:C 5.51397e-07
9 *1088:A *1088:D 3.68287e-06
10 *1088:A *1535:CLK 2.70479e-05
11 *1736:A *987:A2 1.71006e-05
12 *1736:A *1535:CLK 5.41446e-06
13 *6:10 *815:20 9.67723e-06
14 *6:10 *820:336 1.49407e-08
15 *6:10 *820:344 5.05247e-06
16 *6:10 *820:359 9.66472e-07
17 *6:27 *606:14 2.54626e-07
18 *6:27 *774:12 3.0628e-06
19 *6:27 *820:336 0
20 *6:27 *820:359 0
*RES
1 *1537:QN *6:4 17.2 
2 *6:4 *6:10 42.4538 
3 *6:10 *1736:A 46.701 
4 *6:4 *6:27 48.9573 
5 *6:27 *1088:A 25.2224 
*END

*D_NET *7 0.000119278
*CONN
*I *1742:A I *D BUFx3_ASAP7_75t_SL
*I *1088:B I *D AND4x2_ASAP7_75t_SL
*I *1536:QN O *D DFFHQNx1_ASAP7_75t_SL
*CAP
1 *1742:A 1.1392e-05
2 *1088:B 1.04153e-05
3 *1536:QN 2.8372e-05
4 *7:8 5.01793e-05
5 *1088:B *1088:C 3.05302e-06
6 *1088:B *774:12 1.98924e-06
7 *1742:A *774:12 6.73121e-06
8 *1088:A *1088:B 7.14604e-06
*RES
1 *1536:QN *7:8 47.7706 
2 *7:8 *1088:B 42.171 
3 *7:8 *1742:A 44.537 
*END

*D_NET *8 0.000234307
*CONN
*I *1743:A I *D BUFx3_ASAP7_75t_SL
*I *1088:C I *D AND4x2_ASAP7_75t_SL
*I *1535:QN O *D DFFHQNx1_ASAP7_75t_SL
*CAP
1 *1743:A 0
2 *1088:C 2.31596e-05
3 *1535:QN 3.13764e-05
4 *8:21 1.47834e-05
5 *8:6 6.93194e-05
6 *1088:C *1535:CLK 3.79133e-06
7 *1088:C *775:23 3.00838e-05
8 *1088:C *775:31 2.31575e-05
9 *8:6 *775:23 2.66207e-05
10 *8:21 *655:12 8.41057e-06
11 *8:21 *775:10 0
12 *1088:A *1088:C 5.51397e-07
13 *1088:B *1088:C 3.05302e-06
*RES
1 *1535:QN *8:6 39.1278 
2 *8:6 *1088:C 38.0582 
3 *8:6 *8:21 45.0151 
4 *8:21 *1743:A 17.2 
*END

*D_NET *9 0.000302402
*CONN
*I *1088:D I *D AND4x2_ASAP7_75t_SL
*I *1744:A I *D BUFx3_ASAP7_75t_SL
*I *1534:QN O *D DFFHQNx1_ASAP7_75t_SL
*CAP
1 *1088:D 1.43724e-06
2 *1744:A 1.65192e-05
3 *1534:QN 2.54289e-05
4 *9:27 2.21511e-05
5 *9:23 4.32756e-05
6 *9:8 6.45099e-05
7 *1744:A *980:A2 0
8 *1744:A *529:87 0
9 *9:8 *815:106 4.76072e-05
10 *9:23 *980:B 1.98538e-05
11 *9:23 *988:D 0
12 *9:23 *529:99 4.74248e-06
13 *9:23 *607:12 1.68856e-05
14 *9:27 *986:B 0
15 *9:27 *216:10 0
16 *9:27 *606:14 0
17 *9:27 *774:12 3.63081e-05
18 *9:27 *775:37 0
19 *1088:A *1088:D 3.68287e-06
*RES
1 *1534:QN *9:8 48.8403 
2 *9:8 *1744:A 45.6633 
3 *9:8 *9:23 38.3983 
4 *9:23 *9:27 34.6581 
5 *9:27 *1088:D 35.4697 
*END

*D_NET *10 0.00036095
*CONN
*I *971:B I *D AND3x1_ASAP7_75t_SL
*I *1092:A I *D AND2x2_ASAP7_75t_SL
*I *1745:A I *D BUFx3_ASAP7_75t_SL
*I *1453:B I *D AND4x1_ASAP7_75t_SL
*I *1533:QN O *D DFFHQNx1_ASAP7_75t_SL
*CAP
1 *971:B 0
2 *1092:A 0
3 *1745:A 0
4 *1453:B 0
5 *1533:QN 2.4333e-05
6 *10:35 1.77788e-05
7 *10:27 2.98474e-05
8 *10:25 2.35356e-05
9 *10:16 1.65939e-05
10 *10:10 4.27969e-05
11 *10:8 3.9069e-05
12 *10:8 *815:99 2.86376e-07
13 *10:10 *585:10 0
14 *10:10 *593:10 2.33715e-05
15 *10:10 *722:12 8.36938e-06
16 *10:10 *815:88 0
17 *10:10 *818:187 3.47607e-06
18 *10:16 *962:A 1.62383e-05
19 *10:16 *1453:C 2.88246e-06
20 *10:16 *11:47 2.98532e-06
21 *10:16 *529:10 1.52651e-06
22 *10:16 *722:12 3.16603e-06
23 *10:16 *722:18 3.83184e-05
24 *10:16 *789:16 7.79295e-06
25 *10:16 *818:187 2.83449e-06
26 *10:25 *971:C 5.62196e-06
27 *10:25 *593:10 1.59615e-06
28 *10:25 *722:16 2.03526e-06
29 *10:27 *961:C 7.14604e-06
30 *10:27 *971:A 9.18629e-06
31 *10:27 *971:C 7.35354e-06
32 *10:35 *961:C 1.7743e-05
33 *10:35 *663:70 0
34 *10:35 *736:46 5.06565e-06
*RES
1 *1533:QN *10:8 43.492 
2 *10:8 *10:10 15.2055 
3 *10:10 *10:16 35.6144 
4 *10:16 *1453:B 17.2 
5 *10:10 *10:25 24.6875 
6 *10:25 *10:27 10.1617 
7 *10:27 *10:35 47.6326 
8 *10:35 *1745:A 17.2 
9 *10:27 *1092:A 17.2 
10 *10:25 *971:B 17.2 
*END

*D_NET *11 0.00039241
*CONN
*I *962:B I *D AND3x1_ASAP7_75t_SL
*I *1453:C I *D AND4x1_ASAP7_75t_SL
*I *1092:B I *D AND2x2_ASAP7_75t_SL
*I *971:C I *D AND3x1_ASAP7_75t_SL
*I *1746:A I *D BUFx3_ASAP7_75t_SL
*I *1532:QN O *D DFFHQNx1_ASAP7_75t_SL
*CAP
1 *962:B 2.17132e-06
2 *1453:C 1.82054e-05
3 *1092:B 0
4 *971:C 5.45848e-06
5 *1746:A 0
6 *1532:QN 0
7 *11:47 3.71207e-05
8 *11:36 2.72843e-05
9 *11:21 3.74994e-05
10 *11:14 2.60728e-05
11 *11:8 4.84242e-05
12 *11:4 3.43388e-05
13 *962:B *585:8 2.90209e-08
14 *1453:C *962:A 1.9464e-05
15 *1453:C *1434:A 8.19503e-06
16 *1453:C *529:10 1.02586e-05
17 *1453:C *815:88 0
18 *11:8 *585:8 0
19 *11:14 *959:B 1.55843e-05
20 *11:14 *220:8 0
21 *11:14 *529:10 8.19503e-06
22 *11:14 *583:10 0
23 *11:14 *585:10 8.18276e-06
24 *11:14 *818:187 0
25 *11:14 *846:192 3.05118e-08
26 *11:14 *853:27 1.5804e-05
27 *11:14 *874:10 1.35961e-06
28 *11:21 *220:8 0
29 *11:21 *583:10 0
30 *11:21 *585:10 5.37569e-06
31 *11:36 *971:A 3.88144e-05
32 *11:36 *585:10 5.69885e-06
33 *10:16 *1453:C 2.88246e-06
34 *10:16 *11:47 2.98532e-06
35 *10:25 *971:C 5.62196e-06
36 *10:27 *971:C 7.35354e-06
*RES
1 *1532:QN *11:4 17.2 
2 *11:4 *11:8 24.1527 
3 *11:8 *11:14 40.5979 
4 *11:14 *1746:A 17.2 
5 *11:8 *11:21 4.50533 
6 *11:21 *971:C 38.1438 
7 *11:21 *11:36 34.0346 
8 *11:36 *1092:B 17.2 
9 *11:4 *11:47 24.8293 
10 *11:47 *1453:C 48.3374 
11 *11:47 *962:B 35.4697 
*END

*D_NET *12 0.0001162
*CONN
*I *1098:A I *D NAND2x1_ASAP7_75t_SL
*I *1408:A I *D AND3x2_ASAP7_75t_SL
*I *1748:A I *D BUFx3_ASAP7_75t_SL
*I *1530:QN O *D DFFHQNx1_ASAP7_75t_SL
*CAP
1 *1098:A 1.41269e-05
2 *1408:A 4.4978e-06
3 *1748:A 1.54685e-06
4 *1530:QN 0
5 *12:27 2.31389e-05
6 *12:8 3.32895e-05
7 *12:4 2.72284e-05
8 *1408:A *490:43 2.0895e-06
9 *1748:A *576:16 5.41446e-06
10 *1748:A *780:8 5.0551e-07
11 *12:8 *573:8 0
12 *12:8 *827:96 1.09067e-06
13 *12:27 *490:43 1.12894e-06
14 *12:27 *499:14 4.98688e-07
15 *12:27 *573:8 0
16 *12:27 *827:96 1.64348e-06
*RES
1 *1530:QN *12:4 17.2 
2 *12:4 *12:8 25.0843 
3 *12:8 *1748:A 36.0045 
4 *12:8 *12:27 45.893 
5 *12:27 *1408:A 37.0741 
6 *12:4 *1098:A 22.5483 
*END

*D_NET *13 0.000124978
*CONN
*I *1749:A I *D BUFx3_ASAP7_75t_SL
*I *1408:B I *D AND3x2_ASAP7_75t_SL
*I *1098:B I *D NAND2x1_ASAP7_75t_SL
*I *1529:QN O *D DFFHQNx1_ASAP7_75t_SL
*CAP
1 *1749:A 0
2 *1408:B 1.32227e-05
3 *1098:B 4.51359e-06
4 *1529:QN 1.39661e-05
5 *13:23 3.4393e-05
6 *13:10 3.965e-05
7 *1408:B *490:43 3.05302e-06
8 *1408:B *491:6 3.73144e-06
9 *13:10 *226:10 1.70866e-06
10 *13:10 *226:31 1.09842e-06
11 *13:10 *827:96 0
12 *13:10 *827:124 6.39911e-06
13 *13:23 *576:10 1.62854e-06
14 *13:23 *781:8 1.6136e-06
15 *13:23 *827:96 0
*RES
1 *1529:QN *13:10 43.8888 
2 *13:10 *1098:B 36.5393 
3 *13:10 *13:23 33.5318 
4 *13:23 *1408:B 25.7572 
5 *13:23 *1749:A 17.2 
*END

*D_NET *14 0.000529012
*CONN
*I *1101:A I *D AND3x1_ASAP7_75t_SL
*I *1405:A I *D AND2x2_ASAP7_75t_SL
*I *1751:A I *D BUFx3_ASAP7_75t_SL
*I *1528:QN O *D DFFHQNx1_ASAP7_75t_SL
*CAP
1 *1101:A 0
2 *1405:A 1.84528e-05
3 *1751:A 2.31764e-05
4 *1528:QN 1.11212e-05
5 *14:39 2.81189e-05
6 *14:33 1.74186e-05
7 *14:29 3.68212e-05
8 *14:23 6.39248e-05
9 *14:10 6.91536e-05
10 *1405:A *1405:B 8.65792e-06
11 *1405:A *15:20 2.29378e-05
12 *1405:A *530:14 7.30263e-06
13 *1751:A *783:16 8.20846e-06
14 *14:10 *226:12 0
15 *14:23 *162:8 1.02072e-05
16 *14:23 *881:10 2.68324e-05
17 *14:29 *15:20 4.83862e-06
18 *14:29 *15:30 2.07736e-05
19 *14:29 *490:35 4.92332e-06
20 *14:29 *575:16 5.52807e-07
21 *14:29 *881:10 7.3054e-05
22 *14:33 *15:24 3.90258e-06
23 *14:33 *15:30 3.90258e-06
24 *14:39 *15:20 1.894e-05
25 *14:39 *575:16 4.57907e-05
*RES
1 *1528:QN *14:10 40.5098 
2 *14:10 *1751:A 47.7706 
3 *14:10 *14:23 47.611 
4 *14:23 *14:29 45.7231 
5 *14:29 *14:33 20.9438 
6 *14:33 *14:39 49.6055 
7 *14:39 *1405:A 32.1751 
8 *14:33 *1101:A 17.2 
*END

*D_NET *15 0.000447103
*CONN
*I *929:A I *D INVx1_ASAP7_75t_SL
*I *1405:B I *D AND2x2_ASAP7_75t_SL
*I *1101:B I *D AND3x1_ASAP7_75t_SL
*I *939:A I *D AND2x2_ASAP7_75t_SL
*I *1527:QN O *D DFFHQNx1_ASAP7_75t_SL
*CAP
1 *929:A 0
2 *1405:B 1.24865e-06
3 *1101:B 0
4 *939:A 7.98969e-06
5 *1527:QN 2.93468e-05
6 *15:30 2.57833e-05
7 *15:24 1.88081e-05
8 *15:20 2.01534e-05
9 *15:14 2.03876e-05
10 *15:12 4.95774e-05
11 *15:10 5.46815e-05
12 *15:8 3.44509e-05
13 *939:A *567:8 3.56177e-06
14 *939:A *753:12 5.22376e-07
15 *1405:B *530:14 1.08167e-05
16 *15:8 *728:60 6.33292e-06
17 *15:10 *159:8 2.68933e-07
18 *15:12 *159:8 2.68933e-07
19 *15:12 *499:114 6.68208e-06
20 *15:12 *558:8 7.75768e-06
21 *15:12 *563:10 0
22 *15:12 *575:16 0
23 *15:12 *817:173 0
24 *15:12 *854:12 0
25 *15:20 *229:8 1.12894e-06
26 *15:20 *499:114 0
27 *15:20 *530:14 2.31575e-05
28 *15:20 *575:16 1.64764e-06
29 *15:20 *881:10 9.15342e-06
30 *15:30 *496:40 5.16782e-06
31 *15:30 *553:12 8.06436e-06
32 *15:30 *575:16 1.61913e-05
33 *1405:A *1405:B 8.65792e-06
34 *1405:A *15:20 2.29378e-05
35 *14:29 *15:20 4.83862e-06
36 *14:29 *15:30 2.07736e-05
37 *14:33 *15:24 3.90258e-06
38 *14:33 *15:30 3.90258e-06
39 *14:39 *15:20 1.894e-05
*RES
1 *1527:QN *15:8 48.8403 
2 *15:8 *15:10 3.379 
3 *15:10 *15:12 36.6058 
4 *15:12 *15:14 17.2 
5 *15:14 *15:20 41.6109 
6 *15:20 *15:24 18.2696 
7 *15:24 *15:30 36.8541 
8 *15:30 *939:A 39.2134 
9 *15:24 *1101:B 17.2 
10 *15:14 *1405:B 20.409 
11 *15:10 *929:A 34.4 
*END

*D_NET *16 9.00855e-05
*CONN
*I *1407:B I *D AND5x1_ASAP7_75t_SL
*I *1753:A I *D BUFx3_ASAP7_75t_SL
*I *1526:QN O *D DFFHQNx1_ASAP7_75t_SL
*CAP
1 *1407:B 0
2 *1753:A 0
3 *1526:QN 1.94135e-05
4 *16:27 1.64689e-05
5 *16:12 1.64689e-05
6 *16:10 1.94135e-05
7 *16:10 *18:16 0
8 *16:10 *20:19 3.79494e-06
9 *16:27 *17:52 3.6269e-06
10 *16:27 *18:40 1.95129e-06
11 *16:27 *20:19 3.32579e-06
12 *16:27 *553:14 5.62196e-06
13 *16:27 *786:10 0
*RES
1 *1526:QN *16:10 48.3941 
2 *16:10 *16:12 17.2 
3 *16:12 *1753:A 17.2 
4 *16:12 *16:27 46.0281 
5 *16:27 *1407:B 17.2 
*END

*D_NET *17 0.000350833
*CONN
*I *1100:A I *D AND4x1_ASAP7_75t_SL
*I *1407:A I *D AND5x1_ASAP7_75t_SL
*I *1752:A I *D BUFx3_ASAP7_75t_SL
*I *1525:QN O *D DFFHQNx1_ASAP7_75t_SL
*CAP
1 *1100:A 4.68701e-06
2 *1407:A 0
3 *1752:A 2.72384e-06
4 *1525:QN 6.46808e-06
5 *17:52 2.31717e-05
6 *17:39 2.39879e-05
7 *17:31 3.7145e-05
8 *17:27 5.41577e-05
9 *17:10 6.48473e-05
10 *17:8 4.60756e-05
11 *1100:A *18:25 1.59615e-06
12 *1752:A *817:134 0
13 *17:8 *157:6 0
14 *17:10 *156:18 0
15 *17:10 *784:8 0
16 *17:10 *854:46 0
17 *17:27 *550:16 3.30589e-06
18 *17:27 *786:18 4.70105e-07
19 *17:27 *854:58 3.59323e-06
20 *17:31 *924:C 3.09627e-05
21 *17:31 *542:8 8.41606e-06
22 *17:31 *697:24 1.96943e-05
23 *17:31 *787:22 3.90258e-06
24 *17:31 *788:29 1.36155e-06
25 *17:31 *788:40 6.53466e-06
26 *17:39 *18:16 0
27 *17:52 *1100:D 0
28 *17:52 *18:40 2.19685e-06
29 *17:52 *787:14 1.908e-06
30 *17:52 *787:22 0
31 *16:27 *17:52 3.6269e-06
*RES
1 *1525:QN *17:8 37.0741 
2 *17:8 *17:10 31.6312 
3 *17:10 *1752:A 36.5588 
4 *17:10 *17:27 43.8448 
5 *17:27 *17:31 43.4064 
6 *17:31 *17:39 38.8203 
7 *17:39 *1407:A 17.2 
8 *17:39 *17:52 48.3941 
9 *17:52 *1100:A 19.8741 
*END

*D_NET *18 0.000310145
*CONN
*I *1407:C I *D AND5x1_ASAP7_75t_SL
*I *1100:B I *D AND4x1_ASAP7_75t_SL
*I *1754:A I *D BUFx3_ASAP7_75t_SL
*I *1524:QN O *D DFFHQNx1_ASAP7_75t_SL
*CAP
1 *1407:C 0
2 *1100:B 0
3 *1754:A 0
4 *1524:QN 2.68576e-05
5 *18:40 9.42975e-06
6 *18:25 2.16292e-05
7 *18:16 2.49414e-05
8 *18:10 4.74695e-05
9 *18:8 3.71863e-05
10 *18:8 *914:B 5.22376e-07
11 *18:8 *914:C 9.9223e-06
12 *18:8 *530:22 1.44167e-06
13 *18:8 *786:41 1.21211e-05
14 *18:10 *787:22 8.33296e-06
15 *18:10 *788:40 6.30218e-06
16 *18:16 *542:21 0
17 *18:16 *553:14 2.12481e-06
18 *18:16 *786:10 4.53313e-06
19 *18:16 *787:22 2.31101e-05
20 *18:16 *788:25 5.06496e-06
21 *18:25 *697:12 4.71816e-05
22 *18:25 *787:14 9.58768e-06
23 *18:40 *1100:D 6.6421e-06
24 *1100:A *18:25 1.59615e-06
25 *16:10 *18:16 0
26 *16:27 *18:40 1.95129e-06
27 *17:39 *18:16 0
28 *17:52 *18:40 2.19685e-06
*RES
1 *1524:QN *18:8 48.8403 
2 *18:8 *18:10 7.88432 
3 *18:10 *18:16 36.2626 
4 *18:16 *1754:A 17.2 
5 *18:10 *18:25 31.1054 
6 *18:25 *1100:B 17.2 
7 *18:25 *18:40 41.6361 
8 *18:40 *1407:C 17.2 
*END

*D_NET *19 0.000270381
*CONN
*I *1755:A I *D BUFx3_ASAP7_75t_SL
*I *1100:C I *D AND4x1_ASAP7_75t_SL
*I *1407:D I *D AND5x1_ASAP7_75t_SL
*I *1523:QN O *D DFFHQNx1_ASAP7_75t_SL
*CAP
1 *1755:A 1.05011e-06
2 *1100:C 3.47565e-06
3 *1407:D 0
4 *1523:QN 2.73733e-05
5 *19:26 1.77492e-05
6 *19:20 4.51325e-05
7 *19:10 4.10504e-05
8 *19:8 4.34659e-05
9 *1100:C *1100:D 5.85387e-06
10 *1755:A *530:22 2.20493e-06
11 *1755:A *787:8 5.41446e-06
12 *19:8 *918:B1 5.62196e-06
13 *19:10 *899:A 4.10928e-06
14 *19:10 *524:35 0
15 *19:10 *531:10 5.37866e-07
16 *19:10 *532:12 5.21648e-06
17 *19:10 *787:14 1.41724e-06
18 *19:20 *524:35 0
19 *19:20 *530:14 2.52755e-07
20 *19:20 *530:20 0
21 *19:20 *530:22 8.23084e-06
22 *19:20 *787:14 6.76305e-06
23 *19:26 *1100:D 3.03456e-05
24 *19:26 *20:19 8.46363e-06
25 *19:26 *524:35 6.65157e-06
26 *19:26 *787:14 0
*RES
1 *1523:QN *19:8 46.701 
2 *19:8 *19:10 12.9528 
3 *19:10 *19:20 49.8002 
4 *19:20 *19:26 33.9249 
5 *19:26 *1407:D 17.2 
6 *19:20 *1100:C 36.0045 
7 *19:10 *1755:A 36.0045 
*END

*D_NET *20 0.000240093
*CONN
*I *1100:D I *D AND4x1_ASAP7_75t_SL
*I *1407:E I *D AND5x1_ASAP7_75t_SL
*I *1756:A I *D BUFx3_ASAP7_75t_SL
*I *1522:QN O *D DFFHQNx1_ASAP7_75t_SL
*CAP
1 *1100:D 1.23511e-05
2 *1407:E 0
3 *1756:A 2.32303e-06
4 *1522:QN 0
5 *20:19 4.79442e-05
6 *20:8 6.90411e-05
7 *20:6 3.1125e-05
8 *1100:D *697:12 1.40419e-08
9 *1756:A *921:A 2.20493e-06
10 *20:8 *524:28 2.55486e-06
11 *20:8 *525:8 0
12 *20:8 *567:29 3.05599e-06
13 *20:8 *817:54 0
14 *20:19 *524:28 5.52807e-07
15 *20:19 *524:35 5.52807e-07
16 *20:19 *785:8 9.94685e-06
17 *1100:C *1100:D 5.85387e-06
18 *16:10 *20:19 3.79494e-06
19 *16:27 *20:19 3.32579e-06
20 *17:52 *1100:D 0
21 *18:40 *1100:D 6.6421e-06
22 *19:26 *1100:D 3.03456e-05
23 *19:26 *20:19 8.46363e-06
*RES
1 *1522:QN *20:6 34.4 
2 *20:6 *20:8 21.4003 
3 *20:8 *1756:A 36.0045 
4 *20:8 *20:19 28.1583 
5 *20:19 *1407:E 34.4 
6 *20:19 *1100:D 46.6763 
*END

*D_NET *21 7.05189e-05
*CONN
*I *1138:A I *D NAND2x1_ASAP7_75t_SL
*I *1143:A I *D NAND2x2_ASAP7_75t_SL
*I *1520:QN O *D DFFHQNx1_ASAP7_75t_SL
*CAP
1 *1138:A 1.3324e-05
2 *1143:A 0
3 *1520:QN 1.10826e-05
4 *21:12 1.3324e-05
5 *21:10 1.10826e-05
6 *1138:A *259:10 2.90209e-08
7 *1138:A *714:61 7.30263e-06
8 *1138:A *874:18 3.56648e-06
9 *21:10 *1143:B 3.6269e-06
10 *21:10 *714:61 2.98814e-08
11 *21:10 *874:12 3.47607e-06
12 *21:10 *874:22 3.67481e-06
*RES
1 *1520:QN *21:10 41.6361 
2 *21:10 *21:12 17.2 
3 *21:12 *1143:A 17.2 
4 *21:12 *1138:A 26.8269 
*END

*D_NET *22 0.000318531
*CONN
*I *1134:A I *D NAND2x1_ASAP7_75t_SL
*I *1140:A I *D NAND2x2_ASAP7_75t_SL
*I *1519:QN O *D DFFHQNx1_ASAP7_75t_SL
*CAP
1 *1134:A 0
2 *1140:A 1.95755e-05
3 *1519:QN 0
4 *22:27 1.00601e-05
5 *22:8 9.72096e-05
6 *22:4 8.76941e-05
7 *1140:A *1141:A2 1.04206e-05
8 *1140:A *259:10 0
9 *1140:A *260:8 4.6155e-06
10 *1140:A *818:66 1.84268e-06
11 *1140:A *874:24 1.06138e-05
12 *22:8 *818:70 6.01313e-06
13 *22:8 *818:81 6.15569e-05
14 *22:27 *150:10 7.21451e-07
15 *22:27 *871:59 8.20723e-06
*RES
1 *1519:QN *22:4 17.2 
2 *22:4 *22:8 47.685 
3 *22:8 *1140:A 48.3374 
4 *22:4 *22:27 39.89 
5 *22:27 *1134:A 17.2 
*END

*D_NET *23 0.000185674
*CONN
*I *1130:A I *D NAND2x1_ASAP7_75t_SL
*I *1136:A I *D NAND2x2_ASAP7_75t_SL
*I *1518:QN O *D DFFHQNx1_ASAP7_75t_SL
*CAP
1 *1130:A 0
2 *1136:A 0
3 *1518:QN 0
4 *23:23 2.44911e-05
5 *23:12 1.56121e-05
6 *23:6 4.01033e-05
7 *23:12 *254:10 4.82951e-05
8 *23:12 *713:65 3.55137e-06
9 *23:12 *713:221 4.61888e-06
10 *23:12 *818:136 3.0339e-05
11 *23:12 *871:74 0
12 *23:23 *818:136 1.86635e-05
13 *23:23 *871:74 0
*RES
1 *1518:QN *23:6 34.4 
2 *23:6 *23:12 37.389 
3 *23:12 *1136:A 17.2 
4 *23:6 *23:23 34.1197 
5 *23:23 *1130:A 17.2 
*END

*D_NET *24 7.78492e-05
*CONN
*I *1132:A I *D NAND2x2_ASAP7_75t_SL
*I *1126:A I *D NAND2x1_ASAP7_75t_SL
*I *1517:QN O *D DFFHQNx1_ASAP7_75t_SL
*CAP
1 *1132:A 0
2 *1126:A 0
3 *1517:QN 0
4 *24:25 1.69028e-05
5 *24:12 1.779e-05
6 *24:4 3.46928e-05
7 *24:25 *1128:B 8.46363e-06
8 *24:25 *713:105 0
*RES
1 *1517:QN *24:4 17.2 
2 *24:4 *24:12 46.1415 
3 *24:12 *1126:A 17.2 
4 *24:4 *24:25 43.7754 
5 *24:25 *1132:A 17.2 
*END

*D_NET *25 3.44485e-05
*CONN
*I *1122:A I *D NAND2x1_ASAP7_75t_SL
*I *1128:A I *D NAND2x2_ASAP7_75t_SL
*I *1516:QN O *D DFFHQNx1_ASAP7_75t_SL
*CAP
1 *1122:A 3.21662e-06
2 *1128:A 8.77368e-06
3 *1516:QN 5.23396e-06
4 *25:8 1.72243e-05
5 *1122:A *875:42 0
6 *1128:A *713:105 0
7 *1128:A *875:42 0
*RES
1 *1516:QN *25:8 37.0741 
2 *25:8 *1128:A 40.0317 
3 *25:8 *1122:A 37.1591 
*END

*D_NET *26 0.00010369
*CONN
*I *1124:A I *D NAND2x2_ASAP7_75t_SL
*I *1118:A I *D NAND2x1_ASAP7_75t_SL
*I *1515:QN O *D DFFHQNx1_ASAP7_75t_SL
*CAP
1 *1124:A 1.28309e-05
2 *1118:A 8.12494e-06
3 *1515:QN 2.14238e-05
4 *26:10 4.23796e-05
5 *1124:A *249:12 3.6269e-06
6 *1124:A *713:156 2.68933e-07
7 *1124:A *875:51 5.09299e-06
8 *1124:A *875:55 3.47607e-06
9 *26:10 *249:12 5.37569e-06
10 *26:10 *713:139 0
11 *26:10 *713:156 1.09067e-06
*RES
1 *1515:QN *26:10 45.8581 
2 *26:10 *1118:A 38.6786 
3 *26:10 *1124:A 44.2252 
*END

*D_NET *27 0.000113905
*CONN
*I *1114:A I *D NAND2x1_ASAP7_75t_SL
*I *1120:A I *D NAND2x2_ASAP7_75t_SL
*I *1514:QN O *D DFFHQNx1_ASAP7_75t_SL
*CAP
1 *1114:A 1.46127e-05
2 *1120:A 0
3 *1514:QN 0
4 *27:12 1.99896e-05
5 *27:6 3.46023e-05
6 *1114:A *1115:B 5.08828e-06
7 *1114:A *241:8 8.19503e-06
8 *1114:A *713:175 1.15587e-05
9 *1114:A *875:74 5.37569e-06
10 *27:12 *875:74 1.44825e-05
*RES
1 *1514:QN *27:6 34.4 
2 *27:6 *27:12 33.2767 
3 *27:12 *1120:A 17.2 
4 *27:6 *1114:A 47.0977 
*END

*D_NET *28 0.000148241
*CONN
*I *1110:A I *D NAND2x1_ASAP7_75t_SL
*I *1116:A I *D NAND2x1_ASAP7_75t_SL
*I *1513:QN O *D DFFHQNx1_ASAP7_75t_SL
*CAP
1 *1110:A 0
2 *1116:A 6.93777e-06
3 *1513:QN 2.86062e-05
4 *28:14 8.14239e-06
5 *28:10 2.98108e-05
6 *1116:A *1111:B 2.31575e-05
7 *1116:A *238:10 1.7743e-05
8 *1116:A *243:8 1.25483e-05
9 *1116:A *875:68 6.86929e-06
10 *28:10 *238:10 0
11 *28:14 *238:10 1.06092e-05
12 *28:14 *875:68 3.81627e-06
*RES
1 *1513:QN *28:10 47.9974 
2 *28:10 *28:14 20.409 
3 *28:14 *1116:A 28.9662 
4 *28:14 *1110:A 17.2 
*END

*D_NET *29 0.000988995
*CONN
*I *1112:A I *D NAND2x1p5_ASAP7_75t_SL
*I *1016:B I *D OA21x2_ASAP7_75t_SL
*I *1512:QN O *D DFFHQNx1_ASAP7_75t_SL
*CAP
1 *1112:A 0
2 *1016:B 0
3 *1512:QN 3.95632e-05
4 *29:40 4.72422e-05
5 *29:38 5.02805e-05
6 *29:32 9.40597e-05
7 *29:30 9.10214e-05
8 *29:28 5.32064e-05
9 *29:22 5.48307e-05
10 *29:16 6.35792e-05
11 *29:14 6.90119e-05
12 *29:10 1.91469e-05
13 *29:6 5.16529e-05
14 *29:6 *144:12 0
15 *29:6 *669:8 0
16 *29:10 *240:10 0
17 *29:10 *871:93 3.90551e-06
18 *29:14 *240:10 0
19 *29:14 *678:43 0
20 *29:14 *871:93 2.25787e-06
21 *29:14 *875:38 3.47607e-06
22 *29:16 *580:12 2.48575e-05
23 *29:16 *875:30 1.27255e-05
24 *29:22 *958:B 7.46912e-07
25 *29:22 *78:12 0
26 *29:28 *514:40 3.30589e-06
27 *29:28 *722:18 0
28 *29:28 *874:84 4.61286e-07
29 *29:28 *875:14 1.11232e-05
30 *29:32 *1091:A 7.72638e-05
31 *29:32 *1820:A 5.77516e-06
32 *29:32 *219:8 5.08628e-05
33 *29:32 *499:88 3.17011e-06
34 *29:32 *722:22 5.31118e-05
35 *29:38 *501:53 3.47607e-06
36 *29:38 *524:94 0
37 *29:40 *1011:A 3.68565e-06
38 *29:40 *230:26 1.44167e-06
39 *29:40 *230:30 8.05089e-05
40 *29:40 *627:10 1.11189e-05
41 *29:40 *631:8 2.12481e-06
*RES
1 *1512:QN *29:6 33.7796 
2 *29:6 *29:10 26.2107 
3 *29:10 *29:14 22.8317 
4 *29:14 *29:16 44.3905 
5 *29:16 *29:22 35.4325 
6 *29:22 *29:28 34.4366 
7 *29:28 *29:30 17.2 
8 *29:30 *29:32 79.6889 
9 *29:32 *29:38 37.2158 
10 *29:38 *29:40 39.577 
11 *29:40 *1016:B 17.2 
12 *29:10 *1112:A 34.4 
*END

*D_NET *30 2.42192e-05
*CONN
*I *1025:A I *D INVx1_ASAP7_75t_SL
*I *1511:QN O *D DFFHQNx1_ASAP7_75t_SL
*CAP
1 *1025:A 1.21096e-05
2 *1511:QN 1.21096e-05
*RES
1 *1511:QN *1025:A 40.2831 
*END

*D_NET *31 0.000339848
*CONN
*I *1097:A I *D AND2x2_ASAP7_75t_SL
*I *1758:A I *D BUFx3_ASAP7_75t_SL
*I *1510:QN O *D DFFHQNx1_ASAP7_75t_SL
*CAP
1 *1097:A 0
2 *1758:A 3.57899e-06
3 *1510:QN 5.37073e-05
4 *31:20 2.82339e-05
5 *31:14 3.66922e-05
6 *31:6 6.57447e-05
7 *1758:A *504:12 8.20846e-06
8 *1758:A *790:10 8.20846e-06
9 *31:6 *1510:CLK 0.000111879
10 *31:14 *225:8 9.49598e-06
11 *31:14 *236:29 6.5975e-06
12 *31:20 *32:8 5.13209e-07
13 *31:20 *225:8 5.10358e-06
14 *31:20 *236:29 1.885e-06
15 *31:20 *503:53 0
16 *31:20 *791:8 0
*RES
1 *1510:QN *31:6 45.5457 
2 *31:6 *31:14 43.1839 
3 *31:14 *31:20 33.4751 
4 *31:20 *1758:A 39.2134 
5 *31:14 *1097:A 17.2 
*END

*D_NET *32 6.68774e-05
*CONN
*I *1097:B I *D AND2x2_ASAP7_75t_SL
*I *1759:A I *D BUFx3_ASAP7_75t_SL
*I *1509:QN O *D DFFHQNx1_ASAP7_75t_SL
*CAP
1 *1097:B 2.53915e-06
2 *1759:A 1.67528e-05
3 *1509:QN 5.57893e-06
4 *32:8 2.48709e-05
5 *1097:B *236:29 6.20163e-07
6 *1759:A *236:29 1.54891e-05
7 *32:8 *791:8 5.13209e-07
8 *31:20 *32:8 5.13209e-07
*RES
1 *1509:QN *32:8 37.779 
2 *32:8 *1759:A 45.1815 
3 *32:8 *1097:B 35.4697 
*END

*D_NET *33 0.000542241
*CONN
*I *1049:A I *D AND2x2_ASAP7_75t_SL
*I *1279:A I *D INVx1_ASAP7_75t_SL
*I *1505:QN O *D DFFHQNx1_ASAP7_75t_SL
*CAP
1 *1049:A 5.22043e-06
2 *1279:A 1.24648e-05
3 *1505:QN 5.2128e-05
4 *33:29 4.93986e-05
5 *33:16 8.87086e-05
6 *33:12 3.27754e-05
7 *33:6 5.28378e-05
8 *1279:A *288:10 6.7842e-07
9 *1279:A *350:21 3.73144e-06
10 *1279:A *350:29 1.31351e-05
11 *1279:A *689:53 8.13022e-06
12 *1279:A *820:197 5.79724e-07
13 *1279:A *865:20 2.90209e-08
14 *33:6 *731:63 0
15 *33:12 *137:12 6.72662e-07
16 *33:12 *351:23 1.70708e-06
17 *33:16 *189:29 6.18574e-06
18 *33:16 *285:24 3.94093e-05
19 *33:16 *867:14 1.49606e-07
20 *33:16 *885:12 1.38196e-05
21 *33:16 *885:29 7.39639e-06
22 *33:29 *1050:B 2.63229e-05
23 *33:29 *185:12 4.59143e-05
24 *33:29 *186:10 5.79724e-07
25 *33:29 *192:12 1.25502e-06
26 *33:29 *287:28 2.6552e-06
27 *33:29 *350:29 7.77987e-06
28 *33:29 *478:10 0
29 *33:29 *689:53 7.52553e-06
30 *33:29 *689:64 2.00551e-06
31 *33:29 *739:10 1.17652e-05
32 *33:29 *739:70 4.52052e-05
33 *33:29 *820:197 2.07439e-06
*RES
1 *1505:QN *33:6 39.1278 
2 *33:6 *33:12 35.057 
3 *33:12 *33:16 32.5671 
4 *33:16 *1279:A 44.9956 
5 *33:16 *33:29 43.8331 
6 *33:29 *1049:A 36.5393 
*END

*D_NET *34 8.69446e-05
*CONN
*I *1762:A I *D BUFx3_ASAP7_75t_SL
*I *1049:B I *D AND2x2_ASAP7_75t_SL
*I *1504:QN O *D DFFHQNx1_ASAP7_75t_SL
*CAP
1 *1762:A 5.88544e-06
2 *1049:B 1.00139e-05
3 *1504:QN 0
4 *34:6 1.58993e-05
5 *1049:B *478:10 1.30114e-05
6 *1049:B *860:10 6.27229e-06
7 *1049:B *860:16 1.36103e-05
8 *1762:A *478:10 5.19498e-06
9 *1762:A *819:42 3.65131e-06
10 *1762:A *860:10 1.34057e-05
*RES
1 *1504:QN *34:6 34.4 
2 *34:6 *1049:B 46.6763 
3 *34:6 *1762:A 41.5795 
*END

*D_NET *35 9.21966e-05
*CONN
*I *1763:A I *D BUFx3_ASAP7_75t_SL
*I *1047:A I *D AND4x2_ASAP7_75t_SL
*I *1503:QN O *D DFFHQNx2_ASAP7_75t_SL
*CAP
1 *1763:A 0
2 *1047:A 2.22586e-05
3 *1503:QN 4.50981e-06
4 *35:12 4.15885e-05
5 *35:8 2.38397e-05
6 *35:8 *1378:B 0
7 *35:12 *132:10 0
8 *35:12 *795:8 0
*RES
1 *1503:QN *35:8 36.0045 
2 *35:8 *35:12 31.2792 
3 *35:12 *1047:A 30.5706 
4 *35:12 *1763:A 17.2 
*END

*D_NET *36 0.000372831
*CONN
*I *1047:B I *D AND4x2_ASAP7_75t_SL
*I *1376:A I *D AND4x1_ASAP7_75t_SL
*I *1366:A I *D XNOR2x2_ASAP7_75t_SL
*I *1502:QN O *D DFFHQNx1_ASAP7_75t_SL
*CAP
1 *1047:B 0
2 *1376:A 0
3 *1366:A 0
4 *1502:QN 6.10938e-05
5 *36:50 8.88044e-06
6 *36:37 1.87429e-05
7 *36:24 2.24503e-05
8 *36:16 7.33578e-05
9 *36:14 5.28854e-05
10 *36:6 9.06951e-05
11 *36:14 *37:8 6.33206e-07
12 *36:14 *183:10 1.82715e-05
13 *36:14 *797:10 0
14 *36:14 *860:86 9.75645e-06
15 *36:16 *860:86 2.54159e-06
16 *36:24 *133:14 0
17 *36:24 *453:8 7.50128e-07
18 *36:37 *453:8 1.56667e-06
19 *36:37 *796:14 5.58366e-06
20 *36:37 *860:36 5.62196e-06
*RES
1 *1502:QN *36:6 42.3368 
2 *36:6 *36:14 46.4779 
3 *36:14 *36:16 14.4403 
4 *36:16 *36:24 45.8581 
5 *36:24 *1366:A 17.2 
6 *36:16 *36:37 48.9573 
7 *36:37 *1376:A 17.2 
8 *36:6 *36:50 38.8486 
9 *36:50 *1047:B 17.2 
*END

*D_NET *37 9.51176e-05
*CONN
*I *1047:C I *D AND4x2_ASAP7_75t_SL
*I *1764:A I *D BUFx3_ASAP7_75t_SL
*I *1501:QN O *D DFFHQNx1_ASAP7_75t_SL
*CAP
1 *1047:C 1.06433e-05
2 *1764:A 1.904e-05
3 *1501:QN 1.01241e-05
4 *37:10 2.96833e-05
5 *37:8 1.01241e-05
6 *1047:C *183:8 4.2449e-06
7 *1764:A *183:8 2.20493e-06
8 *1764:A *796:8 7.72307e-07
9 *37:8 *1047:D 5.97352e-06
10 *37:8 *183:10 3.05118e-08
11 *37:8 *797:10 1.64348e-06
12 *36:14 *37:8 6.33206e-07
*RES
1 *1501:QN *37:8 42.2843 
2 *37:8 *37:10 17.2 
3 *37:10 *1764:A 28.4313 
4 *37:10 *1047:C 23.0831 
*END

*D_NET *38 0.00024359
*CONN
*I *1765:A I *D BUFx3_ASAP7_75t_SL
*I *1047:D I *D AND4x2_ASAP7_75t_SL
*I *1500:QN O *D DFFHQNx2_ASAP7_75t_SL
*CAP
1 *1765:A 1.33138e-05
2 *1047:D 1.55106e-05
3 *1500:QN 7.38412e-05
4 *38:10 3.57686e-05
5 *38:6 8.07854e-05
6 *1047:D *183:8 2.03526e-06
7 *1047:D *183:10 8.33296e-06
8 *1047:D *797:10 0
9 *1047:D *860:92 7.25669e-06
10 *1765:A *797:8 7.72307e-07
11 *38:6 *1500:CLK 0
12 *38:10 *797:10 0
13 *37:8 *1047:D 5.97352e-06
*RES
1 *1500:QN *38:6 48.7547 
2 *38:6 *38:10 22.2685 
3 *38:10 *1047:D 46.6763 
4 *38:10 *1765:A 42.4224 
*END

*D_NET *39 0.000269753
*CONN
*I *1170:A I *D AND2x2_ASAP7_75t_SL
*I *1058:A I *D NAND2x1_ASAP7_75t_SL
*I *1341:A I *D NOR2x1_ASAP7_75t_SL
*I *1256:B I *D AND4x1_ASAP7_75t_SL
*I *1499:QN O *D DFFHQNx1_ASAP7_75t_SL
*CAP
1 *1170:A 0
2 *1058:A 1.79659e-05
3 *1341:A 2.12635e-06
4 *1256:B 0
5 *1499:QN 0
6 *39:36 2.85073e-05
7 *39:23 2.54232e-05
8 *39:12 4.92237e-05
9 *39:6 3.64683e-05
10 *1058:A *1058:B 2.27181e-05
11 *1058:A *432:6 4.73041e-06
12 *1341:A *807:14 2.05045e-06
13 *1341:A *807:47 0
14 *39:12 *1256:D 1.73158e-05
15 *39:12 *357:6 2.11853e-06
16 *39:12 *798:8 1.34402e-05
17 *39:12 *798:12 2.09987e-05
18 *39:12 *798:20 7.35354e-06
19 *39:12 *799:45 0
20 *39:23 *40:18 0
21 *39:23 *807:14 8.70093e-06
22 *39:23 *807:47 0
23 *39:23 *807:66 0
24 *39:36 *1058:B 6.92634e-06
25 *39:36 *432:6 3.68565e-06
*RES
1 *1499:QN *39:6 34.4 
2 *39:6 *39:12 48.2838 
3 *39:12 *1256:B 17.2 
4 *39:12 *39:23 27.337 
5 *39:23 *1341:A 36.0895 
6 *39:23 *39:36 24.6875 
7 *39:36 *1058:A 30.5706 
8 *39:36 *1170:A 17.2 
*END

*D_NET *40 0.000236296
*CONN
*I *1766:A I *D BUFx3_ASAP7_75t_SL
*I *1170:B I *D AND2x2_ASAP7_75t_SL
*I *1058:B I *D NAND2x1_ASAP7_75t_SL
*I *1498:QN O *D DFFHQNx1_ASAP7_75t_SL
*CAP
1 *1766:A 0
2 *1170:B 1.12361e-06
3 *1058:B 5.97084e-06
4 *1498:QN 2.16929e-05
5 *40:18 4.36342e-05
6 *40:12 3.65398e-05
7 *40:10 2.16929e-05
8 *1058:B *432:6 4.4994e-06
9 *1058:B *865:65 0
10 *1170:B *432:6 1.75355e-05
11 *40:10 *692:73 9.59239e-06
12 *40:18 *1244:A 1.95129e-06
13 *40:18 *1498:D 0
14 *40:18 *94:6 3.33273e-05
15 *40:18 *798:20 8.51183e-06
16 *40:18 *807:14 5.79724e-07
17 *40:18 *860:122 0
18 *40:18 *864:8 0
19 *1058:A *1058:B 2.27181e-05
20 *39:23 *40:18 0
21 *39:36 *1058:B 6.92634e-06
*RES
1 *1498:QN *40:10 45.8581 
2 *40:10 *40:12 17.2 
3 *40:12 *40:18 44.8198 
4 *40:18 *1058:B 44.6467 
5 *40:18 *1170:B 39.7482 
6 *40:12 *1766:A 17.2 
*END

*D_NET *41 0.000157492
*CONN
*I *1750:A I *D BUFx3_ASAP7_75t_SL
*I *1056:A I *D INVx1_ASAP7_75t_SL
*I *1496:QN O *D DFFHQNx1_ASAP7_75t_SL
*CAP
1 *1750:A 0
2 *1056:A 4.26888e-05
3 *1496:QN 1.01669e-05
4 *41:12 6.07327e-05
5 *41:6 2.82108e-05
6 *1056:A *400:10 0
7 *1056:A *800:14 0
8 *41:6 *856:21 5.77516e-06
9 *41:12 *1768:A 1.09842e-06
10 *41:12 *723:44 0
11 *41:12 *782:10 1.71381e-06
12 *41:12 *856:27 7.1053e-06
*RES
1 *1496:QN *41:6 24.1527 
2 *41:6 *41:12 47.3528 
3 *41:12 *1056:A 33.7796 
4 *41:6 *1750:A 17.2 
*END

*D_NET *42 9.08673e-05
*CONN
*I *1824:A I *D BUFx3_ASAP7_75t_SL
*I *1057:A I *D NAND2x1_ASAP7_75t_SL
*I *1495:QN O *D DFFHQNx1_ASAP7_75t_SL
*CAP
1 *1824:A 5.23788e-06
2 *1057:A 3.38084e-06
3 *1495:QN 1.37031e-05
4 *42:10 2.23218e-05
5 *1057:A *402:22 2.66797e-07
6 *1824:A *193:18 1.67815e-06
7 *1824:A *412:8 1.51765e-05
8 *42:10 *193:18 1.64764e-06
9 *42:10 *402:22 3.79923e-06
10 *42:10 *412:8 2.33715e-05
11 *42:10 *423:8 2.83874e-07
12 *42:10 *863:14 0
*RES
1 *1495:QN *42:10 44.9585 
2 *42:10 *1057:A 36.0045 
3 *42:10 *1824:A 40.0317 
*END

*D_NET *43 0.000139225
*CONN
*I *1825:A I *D BUFx3_ASAP7_75t_SL
*I *1057:B I *D NAND2x1_ASAP7_75t_SL
*I *1494:QN O *D DFFHQNx1_ASAP7_75t_SL
*CAP
1 *1825:A 1.66679e-05
2 *1057:B 2.05996e-06
3 *1494:QN 1.54054e-05
4 *43:10 2.9446e-05
5 *43:8 2.61236e-05
6 *1057:B *423:8 1.12894e-06
7 *1057:B *452:10 0
8 *43:8 *856:14 1.07377e-06
9 *43:8 *859:26 4.00478e-05
10 *43:10 *423:8 2.22736e-06
11 *43:10 *452:10 0
12 *43:10 *856:14 5.04414e-06
*RES
1 *1494:QN *43:8 46.1661 
2 *43:8 *43:10 9.01066 
3 *43:10 *1057:B 36.0895 
4 *43:10 *1825:A 43.492 
*END

*D_NET *44 0.000150127
*CONN
*I *1299:A1 I *D AO21x1_ASAP7_75t_SL
*I *1052:A I *D AND3x1_ASAP7_75t_SL
*I *1298:B I *D AOI21x1_ASAP7_75t_SL
*I *1493:QN O *D DFFHQNx1_ASAP7_75t_SL
*CAP
1 *1299:A1 6.20162e-06
2 *1052:A 0
3 *1298:B 0
4 *1493:QN 0
5 *44:23 2.01835e-05
6 *44:12 2.37098e-05
7 *44:8 2.78261e-05
8 *44:4 3.05014e-05
9 *44:8 *1297:A2 0
10 *44:8 *1297:B 3.24214e-06
11 *44:8 *125:10 6.33206e-07
12 *44:8 *393:10 2.68933e-07
13 *44:8 *395:8 0
14 *44:8 *885:18 5.84834e-06
15 *44:23 *45:30 8.42392e-06
16 *44:23 *187:14 1.94788e-06
17 *44:23 *393:10 2.13401e-05
*RES
1 *1493:QN *44:4 17.2 
2 *44:4 *44:8 39.1635 
3 *44:8 *44:12 18.8045 
4 *44:12 *1298:B 17.2 
5 *44:12 *44:23 36.2626 
6 *44:23 *1052:A 34.4 
7 *44:4 *1299:A1 19.8741 
*END

*D_NET *45 0.000457961
*CONN
*I *1278:A I *D INVx1_ASAP7_75t_SL
*I *1296:A I *D AND5x1_ASAP7_75t_SL
*I *1052:B I *D AND3x1_ASAP7_75t_SL
*I *1492:QN O *D DFFHQNx1_ASAP7_75t_SL
*CAP
1 *1278:A 0
2 *1296:A 3.12651e-06
3 *1052:B 0
4 *1492:QN 3.8173e-05
5 *45:30 2.9316e-05
6 *45:24 3.24425e-05
7 *45:22 3.78546e-05
8 *45:18 5.67577e-05
9 *45:12 3.43899e-05
10 *45:8 5.36598e-05
11 *1296:A *1296:B 2.52755e-07
12 *1296:A *347:36 0
13 *1296:A *764:8 4.83862e-06
14 *45:12 *1282:A 1.12894e-06
15 *45:12 *1283:B 1.09842e-06
16 *45:12 *287:78 0
17 *45:12 *380:8 1.30015e-05
18 *45:12 *752:16 1.83968e-05
19 *45:18 *1283:A2 1.75233e-05
20 *45:18 *1283:B 1.79628e-05
21 *45:18 *379:14 5.85387e-06
22 *45:18 *379:20 1.15587e-05
23 *45:18 *860:55 5.04414e-06
24 *45:22 *1296:D 3.09627e-05
25 *45:22 *379:14 1.0391e-06
26 *45:22 *766:68 1.04475e-06
27 *45:30 *187:38 1.20458e-05
28 *45:30 *393:10 1.21263e-05
29 *45:30 *764:8 9.93857e-06
30 *44:23 *45:30 8.42392e-06
*RES
1 *1492:QN *45:8 47.7706 
2 *45:8 *45:12 32.4055 
3 *45:12 *45:18 34.5128 
4 *45:18 *45:22 34.8492 
5 *45:22 *45:24 17.2 
6 *45:24 *45:30 44.0619 
7 *45:30 *1052:B 17.2 
8 *45:24 *1296:A 37.1591 
9 *45:12 *1278:A 17.2 
*END

*D_NET *46 0.000375049
*CONN
*I *1772:A I *D BUFx3_ASAP7_75t_SL
*I *1052:C I *D AND3x1_ASAP7_75t_SL
*I *1491:QN O *D DFFHQNx1_ASAP7_75t_SL
*CAP
1 *1772:A 2.32303e-06
2 *1052:C 0
3 *1491:QN 2.58207e-05
4 *46:12 4.79234e-05
5 *46:10 6.97521e-05
6 *46:8 4.53265e-05
7 *1772:A *804:8 2.20493e-06
8 *46:8 *860:46 5.04356e-05
9 *46:10 *357:51 5.00394e-06
10 *46:10 *860:55 0
11 *46:12 *1274:C 3.32579e-06
12 *46:12 *346:87 3.08086e-06
13 *46:12 *346:100 8.06799e-07
14 *46:12 *357:51 1.67815e-06
15 *46:12 *366:12 0
16 *46:12 *379:10 0
17 *46:12 *393:10 8.00974e-05
18 *46:12 *764:8 2.77657e-06
19 *46:12 *764:36 1.96231e-05
20 *46:12 *765:16 0
21 *46:12 *765:67 1.49407e-08
22 *46:12 *766:16 0
23 *46:12 *766:20 0
24 *46:12 *766:30 1.16894e-05
25 *46:12 *766:68 3.16603e-06
26 *46:12 *860:55 0
*RES
1 *1491:QN *46:8 49.9099 
2 *46:8 *46:10 13.516 
3 *46:10 *46:12 47.8691 
4 *46:12 *1052:C 34.4 
5 *46:10 *1772:A 36.0045 
*END

*D_NET *47 8.7132e-05
*CONN
*I *1773:A I *D BUFx3_ASAP7_75t_SL
*I *1051:A I *D AND3x1_ASAP7_75t_SL
*I *1490:QN O *D DFFHQNx1_ASAP7_75t_SL
*CAP
1 *1773:A 1.47855e-05
2 *1051:A 1.28537e-05
3 *1490:QN 7.5073e-06
4 *47:8 3.51465e-05
5 *1051:A *1051:B 2.50967e-06
6 *1051:A *48:12 3.74457e-06
7 *1051:A *48:18 1.49407e-08
8 *1051:A *867:41 0
9 *1773:A *48:18 4.7643e-07
10 *1773:A *348:12 1.00935e-05
*RES
1 *1490:QN *47:8 38.1438 
2 *47:8 *1051:A 43.577 
3 *47:8 *1773:A 44.7884 
*END

*D_NET *48 7.97398e-05
*CONN
*I *1051:B I *D AND3x1_ASAP7_75t_SL
*I *1771:A I *D BUFx3_ASAP7_75t_SL
*I *1489:QN O *D DFFHQNx1_ASAP7_75t_SL
*CAP
1 *1051:B 8.20126e-06
2 *1771:A 0
3 *1489:QN 6.26258e-06
4 *48:18 1.31681e-05
5 *48:12 3.02345e-05
6 *48:8 1.51277e-05
7 *48:18 *49:8 0
8 *1051:A *1051:B 2.50967e-06
9 *1051:A *48:12 3.74457e-06
10 *1051:A *48:18 1.49407e-08
11 *1773:A *48:18 4.7643e-07
*RES
1 *1489:QN *48:8 38.9053 
2 *48:8 *48:12 22.0134 
3 *48:12 *48:18 43.4107 
4 *48:18 *1771:A 17.2 
5 *48:12 *1051:B 22.0134 
*END

*D_NET *49 0.000166175
*CONN
*I *1774:A I *D BUFx3_ASAP7_75t_SL
*I *1051:C I *D AND3x1_ASAP7_75t_SL
*I *1488:QN O *D DFFHQNx1_ASAP7_75t_SL
*CAP
1 *1774:A 0
2 *1051:C 2.62297e-06
3 *1488:QN 0
4 *49:23 2.00458e-05
5 *49:8 7.53559e-05
6 *49:6 5.26872e-05
7 *49:8 *125:10 0
8 *49:8 *187:14 0
9 *49:8 *187:38 0
10 *49:23 *187:38 0
11 *49:23 *348:8 2.45021e-07
12 *49:23 *366:14 2.03526e-06
13 *49:23 *803:8 1.31828e-05
14 *48:18 *49:8 0
*RES
1 *1488:QN *49:6 34.4 
2 *49:6 *49:8 41.6743 
3 *49:8 *1051:C 35.4697 
4 *49:8 *49:23 32.8836 
5 *49:23 *1774:A 17.2 
*END

*D_NET *50 2.42192e-05
*CONN
*I *1026:A I *D INVx1_ASAP7_75t_SL
*I *1486:QN O *D DFFHQNx1_ASAP7_75t_SL
*CAP
1 *1026:A 1.21096e-05
2 *1486:QN 1.21096e-05
*RES
1 *1486:QN *1026:A 40.2831 
*END

*D_NET *51 0.000286049
*CONN
*I *1023:A I *D INVx1_ASAP7_75t_SL
*I *1220:A2 I *D OA21x2_ASAP7_75t_SL
*I *1222:B I *D OR4x1_ASAP7_75t_SL
*I *1485:QN O *D DFFHQNx1_ASAP7_75t_SL
*CAP
1 *1023:A 6.60186e-06
2 *1220:A2 1.22224e-05
3 *1222:B 1.45199e-05
4 *1485:QN 0
5 *51:18 2.87827e-05
6 *51:12 7.58602e-05
7 *51:6 7.38199e-05
8 *51:4 6.60186e-06
9 *1220:A2 *325:6 3.65663e-06
10 *1220:A2 *645:12 2.09987e-05
11 *1220:A2 *690:266 3.05302e-06
12 *1222:B *1222:A 1.95948e-05
13 *1222:B *1223:A 8.39579e-06
14 *51:12 *1485:D 0
15 *51:18 *118:12 1.19413e-05
16 *51:18 *836:95 0
*RES
1 *1485:QN *51:4 17.2 
2 *51:4 *51:6 17.2 
3 *51:6 *51:12 48.5316 
4 *51:12 *51:18 46.7897 
5 *51:18 *1222:B 32.7099 
6 *51:6 *1220:A2 45.3232 
7 *51:4 *1023:A 19.8741 
*END

*D_NET *52 0.000112577
*CONN
*I *1027:A I *D INVx1_ASAP7_75t_SL
*I *1218:A I *D NAND2x1_ASAP7_75t_SL
*I *1484:QN O *D DFFHQNx1_ASAP7_75t_SL
*CAP
1 *1027:A 0
2 *1218:A 0
3 *1484:QN 2.20124e-05
4 *52:16 3.29954e-05
5 *52:10 5.50078e-05
6 *52:10 *190:8 0
7 *52:10 *690:86 0
8 *52:16 *1218:B 1.04475e-06
9 *52:16 *190:8 0
10 *52:16 *324:10 1.51653e-06
11 *52:16 *690:86 0
*RES
1 *1484:QN *52:10 45.8014 
2 *52:10 *52:16 39.3829 
3 *52:16 *1218:A 17.2 
4 *52:10 *1027:A 34.4 
*END

*D_NET *53 0.000141055
*CONN
*I *1028:A I *D INVx1_ASAP7_75t_SL
*I *1215:A I *D NAND2x1_ASAP7_75t_SL
*I *1483:QN O *D DFFHQNx1_ASAP7_75t_SL
*CAP
1 *1028:A 0
2 *1215:A 5.65063e-07
3 *1483:QN 1.94043e-05
4 *53:18 4.1171e-05
5 *53:12 4.06059e-05
6 *53:10 1.94043e-05
7 *1215:A *322:14 3.68287e-06
8 *1215:A *690:67 1.52651e-06
9 *53:18 *115:8 7.84037e-07
10 *53:18 *322:14 1.27255e-05
11 *53:18 *690:75 6.33206e-07
12 *53:18 *690:97 5.52807e-07
*RES
1 *1483:QN *53:10 43.6621 
2 *53:10 *53:12 17.2 
3 *53:12 *53:18 37.7217 
4 *53:18 *1215:A 35.4697 
5 *53:12 *1028:A 17.2 
*END

*D_NET *54 0.000123706
*CONN
*I *1029:A I *D INVx1_ASAP7_75t_SL
*I *1212:A I *D NAND2x1_ASAP7_75t_SL
*I *1482:QN O *D DFFHQNx1_ASAP7_75t_SL
*CAP
1 *1029:A 6.72187e-06
2 *1212:A 3.10854e-06
3 *1482:QN 0
4 *54:16 3.35078e-05
5 *54:10 4.28571e-05
6 *54:4 1.91797e-05
7 *54:10 *641:12 0
8 *54:10 *642:8 0
9 *54:16 *55:8 4.32492e-06
10 *54:16 *55:23 1.02072e-05
11 *54:16 *320:10 3.79923e-06
*RES
1 *1482:QN *54:4 17.2 
2 *54:4 *54:10 43.4107 
3 *54:10 *54:16 32.88 
4 *54:16 *1212:A 35.4697 
5 *54:4 *1029:A 19.8741 
*END

*D_NET *55 0.000325409
*CONN
*I *1209:A I *D NAND2x1_ASAP7_75t_SL
*I *1030:A I *D INVx1_ASAP7_75t_SL
*I *1481:QN O *D DFFHQNx1_ASAP7_75t_SL
*CAP
1 *1209:A 1.32711e-05
2 *1030:A 1.86239e-05
3 *1481:QN 2.0629e-05
4 *55:29 4.1282e-05
5 *55:23 4.61658e-05
6 *55:8 5.74077e-05
7 *1030:A *1213:B 5.19475e-06
8 *1030:A *320:10 7.75e-06
9 *1209:A *690:205 9.67723e-06
10 *1209:A *690:216 6.0212e-06
11 *55:23 *56:10 0
12 *55:23 *320:10 3.32579e-06
13 *55:23 *641:12 0
14 *55:23 *690:216 2.02764e-05
15 *55:29 *318:12 0
16 *55:29 *690:216 6.12523e-05
17 *54:16 *55:8 4.32492e-06
18 *54:16 *55:23 1.02072e-05
*RES
1 *1481:QN *55:8 46.701 
2 *55:8 *1030:A 48.9573 
3 *55:8 *55:23 34.6581 
4 *55:23 *55:29 39.861 
5 *55:29 *1209:A 45.0965 
*END

*D_NET *56 0.000213747
*CONN
*I *1031:A I *D INVx1_ASAP7_75t_SL
*I *1206:A I *D NAND2x1_ASAP7_75t_SL
*I *1480:QN O *D DFFHQNx1_ASAP7_75t_SL
*CAP
1 *1031:A 0
2 *1206:A 7.51415e-06
3 *1480:QN 1.48219e-05
4 *56:35 1.80716e-05
5 *56:22 6.17263e-05
6 *56:18 6.19288e-05
7 *56:10 4.06101e-05
8 *56:18 *112:10 0
9 *56:18 *318:12 0
10 *56:22 *1206:B 9.07421e-06
11 *56:35 *64:8 0
12 *56:35 *690:205 0
13 *55:23 *56:10 0
*RES
1 *1480:QN *56:10 44.2819 
2 *56:10 *56:18 48.5038 
3 *56:18 *56:22 40.1975 
4 *56:22 *1206:A 21.4786 
5 *56:22 *56:35 48.4791 
6 *56:35 *1031:A 17.2 
*END

*D_NET *57 6.00137e-05
*CONN
*I *1032:A I *D INVx1_ASAP7_75t_SL
*I *1203:A I *D NAND2x1_ASAP7_75t_SL
*I *1479:QN O *D DFFHQNx1_ASAP7_75t_SL
*CAP
1 *1032:A 1.68735e-05
2 *1203:A 0
3 *1479:QN 0
4 *57:12 9.67018e-06
5 *57:4 2.65437e-05
6 *57:12 *1204:B 6.92634e-06
*RES
1 *1479:QN *57:4 17.2 
2 *57:4 *57:12 39.9183 
3 *57:12 *1203:A 17.2 
4 *57:4 *1032:A 24.1527 
*END

*D_NET *58 0.000133883
*CONN
*I *1033:A I *D INVx1_ASAP7_75t_SL
*I *1199:A I *D NAND2x1_ASAP7_75t_SL
*I *1478:QN O *D DFFHQNx1_ASAP7_75t_SL
*CAP
1 *1033:A 0
2 *1199:A 1.35364e-06
3 *1478:QN 0
4 *58:27 2.67729e-05
5 *58:12 2.92057e-05
6 *58:4 5.46249e-05
7 *1199:A *1199:B 1.35684e-06
8 *1199:A *311:6 3.90258e-06
9 *58:12 *690:97 1.66659e-05
*RES
1 *1478:QN *58:4 17.2 
2 *58:4 *58:12 49.1237 
3 *58:12 *1199:A 18.2696 
4 *58:4 *58:27 46.871 
5 *58:27 *1033:A 17.2 
*END

*D_NET *59 0.000126516
*CONN
*I *1034:A I *D INVx1_ASAP7_75t_SL
*I *1196:A I *D NAND2x1p5_ASAP7_75t_SL
*I *1477:QN O *D DFFHQNx1_ASAP7_75t_SL
*CAP
1 *1034:A 0
2 *1196:A 0
3 *1477:QN 1.62069e-05
4 *59:16 4.17505e-05
5 *59:10 5.79574e-05
6 *59:16 *690:251 5.34278e-06
7 *59:16 *690:266 5.25794e-06
*RES
1 *1477:QN *59:10 42.5924 
2 *59:10 *59:16 45.1526 
3 *59:16 *1196:A 17.2 
4 *59:10 *1034:A 34.4 
*END

*D_NET *60 3.29342e-05
*CONN
*I *1035:A I *D INVx1_ASAP7_75t_SL
*I *1476:QN O *D DFFHQNx1_ASAP7_75t_SL
*CAP
1 *1035:A 1.05204e-05
2 *1476:QN 5.94671e-06
3 *60:8 1.64671e-05
4 *1035:A *665:8 0
*RES
1 *1476:QN *60:8 37.779 
2 *60:8 *1035:A 39.2134 
*END

*D_NET *61 0.000190764
*CONN
*I *1217:A I *D INVx1_ASAP7_75t_SL
*I *1085:B I *D OAI21x1_ASAP7_75t_SL
*I *1078:A I *D OR4x1_ASAP7_75t_SL
*I *1475:QN O *D DFFHQNx1_ASAP7_75t_SL
*CAP
1 *1217:A 2.12698e-05
2 *1085:B 0
3 *1078:A 1.19487e-05
4 *1475:QN 0
5 *61:25 1.32912e-05
6 *61:10 5.16561e-05
7 *61:4 7.42684e-05
8 *1078:A *1079:B 4.70139e-06
9 *1078:A *106:10 5.19552e-07
10 *61:10 *100:8 2.22736e-06
11 *61:10 *711:64 0
12 *61:10 *848:83 7.90851e-06
13 *61:10 *861:62 1.89747e-06
14 *61:25 *686:149 1.07573e-06
*RES
1 *1475:QN *61:4 17.2 
2 *61:4 *61:10 43.4137 
3 *61:10 *1078:A 41.8876 
4 *61:4 *61:25 45.6633 
5 *61:25 *1085:B 17.2 
6 *61:4 *1217:A 26.292 
*END

*D_NET *62 0.000396378
*CONN
*I *1214:A I *D INVx1_ASAP7_75t_SL
*I *1076:D I *D OR4x1_ASAP7_75t_SL
*I *1079:A1 I *D OAI21x1_ASAP7_75t_SL
*I *1474:QN O *D DFFHQNx1_ASAP7_75t_SL
*CAP
1 *1214:A 6.72187e-06
2 *1076:D 0
3 *1079:A1 1.06344e-05
4 *1474:QN 0
5 *62:34 3.24946e-05
6 *62:23 1.61098e-05
7 *62:8 7.17403e-05
8 *62:4 7.07689e-05
9 *1079:A1 *106:10 9.94583e-06
10 *1079:A1 *848:77 2.99852e-06
11 *1079:A1 *848:83 8.79166e-06
12 *1079:A1 *848:96 4.98405e-06
13 *62:8 *1478:CLK 1.95129e-06
14 *62:8 *848:96 3.56648e-06
15 *62:8 *862:77 6.81787e-05
16 *62:23 *1069:A1 0
17 *62:23 *1076:C 8.6329e-06
18 *62:23 *686:61 4.43846e-06
19 *62:23 *711:91 2.36118e-05
20 *62:23 *711:99 2.55293e-06
21 *62:23 *869:65 2.39014e-05
22 *62:23 *869:74 9.66125e-06
23 *62:34 *1478:CLK 1.40602e-05
24 *62:34 *110:10 6.33206e-07
25 *62:34 *819:183 0
*RES
1 *1474:QN *62:4 17.2 
2 *62:4 *62:8 42.3368 
3 *62:8 *1079:A1 44.537 
4 *62:8 *62:23 35.0796 
5 *62:23 *1076:D 17.2 
6 *62:4 *62:34 33.1634 
7 *62:34 *1214:A 37.0741 
*END

*D_NET *63 9.31135e-05
*CONN
*I *1077:A1 I *D OAI21x1_ASAP7_75t_SL
*I *1211:A I *D INVx1_ASAP7_75t_SL
*I *1074:A I *D OR4x1_ASAP7_75t_SL
*I *1473:QN O *D DFFHQNx1_ASAP7_75t_SL
*CAP
1 *1077:A1 2.76889e-06
2 *1211:A 6.8259e-06
3 *1074:A 0
4 *1473:QN 5.7958e-06
5 *63:12 3.15627e-05
6 *63:8 3.33015e-05
7 *1077:A1 *848:64 2.12481e-06
8 *63:8 *104:10 2.25787e-06
9 *63:8 *105:8 0
10 *63:12 *1072:B 5.66897e-06
11 *63:12 *1072:C 0
12 *63:12 *64:18 0
13 *63:12 *104:10 2.80709e-06
14 *63:12 *848:49 0
*RES
1 *1473:QN *63:8 38.9053 
2 *63:8 *63:12 34.6581 
3 *63:12 *1074:A 17.2 
4 *63:12 *1211:A 20.9438 
5 *63:8 *1077:A1 36.0045 
*END

*D_NET *64 0.000147434
*CONN
*I *1208:A I *D INVx1_ASAP7_75t_SL
*I *1075:A1 I *D OAI21x1_ASAP7_75t_SL
*I *1072:A I *D OR4x1_ASAP7_75t_SL
*I *1472:QN O *D DFFHQNx1_ASAP7_75t_SL
*CAP
1 *1208:A 1.93407e-05
2 *1075:A1 0
3 *1072:A 1.25883e-05
4 *1472:QN 1.50033e-05
5 *64:18 2.97718e-05
6 *64:10 3.65241e-05
7 *64:8 1.50033e-05
8 *1208:A *316:14 6.7842e-07
9 *1208:A *848:64 5.22376e-07
10 *64:8 *104:10 3.51107e-06
11 *64:8 *316:8 0
12 *64:18 *104:10 4.45472e-06
13 *64:18 *316:8 0
14 *64:18 *848:64 1.00364e-05
15 *56:35 *64:8 0
16 *63:12 *64:18 0
*RES
1 *1472:QN *64:8 46.2265 
2 *64:8 *64:10 17.2 
3 *64:10 *64:18 47.2678 
4 *64:18 *1072:A 24.1527 
5 *64:18 *1075:A1 17.2 
6 *64:10 *1208:A 25.2224 
*END

*D_NET *65 0.000211065
*CONN
*I *1205:A I *D INVx1_ASAP7_75t_SL
*I *1073:A1 I *D OAI21x1_ASAP7_75t_SL
*I *1070:A I *D OR4x1_ASAP7_75t_SL
*I *1471:QN O *D DFFHQNx1_ASAP7_75t_SL
*CAP
1 *1205:A 3.30546e-05
2 *1073:A1 0
3 *1070:A 0
4 *1471:QN 0
5 *65:16 2.66597e-05
6 *65:10 4.62813e-05
7 *65:4 5.26762e-05
8 *1205:A *1077:B 1.64509e-05
9 *1205:A *848:53 4.57952e-06
10 *1205:A *848:64 1.31589e-05
11 *65:10 *1077:B 1.95129e-06
12 *65:10 *103:8 0
13 *65:10 *207:10 1.88253e-06
14 *65:16 *1070:C 5.655e-06
15 *65:16 *66:10 0
16 *65:16 *66:25 1.9818e-06
17 *65:16 *207:10 3.25708e-06
18 *65:16 *848:38 3.47607e-06
*RES
1 *1471:QN *65:4 17.2 
2 *65:4 *65:10 28.7714 
3 *65:10 *65:16 36.1493 
4 *65:16 *1070:A 17.2 
5 *65:10 *1073:A1 34.4 
6 *65:4 *1205:A 34.8492 
*END

*D_NET *66 0.000342973
*CONN
*I *1068:A I *D OR4x1_ASAP7_75t_SL
*I *1202:A I *D INVx1_ASAP7_75t_SL
*I *1071:A1 I *D OAI21x1_ASAP7_75t_SL
*I *1470:QN O *D DFFHQNx1_ASAP7_75t_SL
*CAP
1 *1068:A 1.74373e-06
2 *1202:A 0
3 *1071:A1 0
4 *1470:QN 0
5 *66:35 5.80197e-05
6 *66:29 6.62616e-05
7 *66:25 2.20366e-05
8 *66:10 3.69715e-05
9 *66:4 5.25099e-05
10 *1068:A *1068:B 1.61096e-06
11 *66:10 *848:19 2.29213e-06
12 *66:10 *848:32 7.0998e-06
13 *66:25 *1070:B 6.1473e-07
14 *66:25 *1070:C 1.00976e-05
15 *66:25 *206:12 5.26714e-06
16 *66:25 *207:10 1.59293e-05
17 *66:25 *711:125 9.75645e-06
18 *66:29 *686:76 6.1956e-06
19 *66:29 *711:125 4.71862e-06
20 *66:29 *869:87 1.27174e-05
21 *66:29 *869:100 3.70913e-06
22 *66:35 *1068:B 2.03526e-06
23 *66:35 *686:61 5.63702e-07
24 *66:35 *686:76 6.14798e-06
25 *66:35 *869:74 7.98765e-06
26 *66:35 *869:87 6.70512e-06
27 *65:16 *66:10 0
28 *65:16 *66:25 1.9818e-06
*RES
1 *1470:QN *66:4 17.2 
2 *66:4 *66:10 37.3286 
3 *66:10 *1071:A1 34.4 
4 *66:4 *66:25 45.9147 
5 *66:25 *66:29 25.0843 
6 *66:29 *66:35 45.266 
7 *66:35 *1202:A 17.2 
8 *66:29 *1068:A 35.4697 
*END

*D_NET *67 0.000213947
*CONN
*I *1198:A I *D INVx1_ASAP7_75t_SL
*I *1069:A1 I *D OAI21x1_ASAP7_75t_SL
*I *1066:A I *D OR4x1_ASAP7_75t_SL
*I *1469:QN O *D DFFHQNx1_ASAP7_75t_SL
*CAP
1 *1198:A 1.78958e-05
2 *1069:A1 1.47213e-05
3 *1066:A 7.10804e-06
4 *1469:QN 0
5 *67:8 6.29772e-05
6 *67:4 5.90437e-05
7 *1066:A *819:8 6.91282e-06
8 *1066:A *869:57 0
9 *1069:A1 *101:10 9.30483e-06
10 *1069:A1 *711:91 0
11 *1069:A1 *711:99 0
12 *1069:A1 *819:8 1.2077e-05
13 *1069:A1 *869:57 0
14 *67:8 *711:87 7.46759e-06
15 *67:8 *869:65 1.64387e-05
16 *62:23 *1069:A1 0
*RES
1 *1469:QN *67:4 17.2 
2 *67:4 *67:8 38.0582 
3 *67:8 *1066:A 40.0317 
4 *67:8 *1069:A1 47.2111 
5 *67:4 *1198:A 26.292 
*END

*D_NET *68 0.000149627
*CONN
*I *1192:A I *D INVx1_ASAP7_75t_SL
*I *1067:A1 I *D OAI21x1_ASAP7_75t_SL
*I *1468:QN O *D DFFHQNx1_ASAP7_75t_SL
*CAP
1 *1192:A 2.1558e-05
2 *1067:A1 2.74029e-05
3 *1468:QN 0
4 *68:10 3.61249e-05
5 *68:4 3.028e-05
6 *1067:A1 *861:64 3.42616e-05
*RES
1 *1468:QN *68:4 17.2 
2 *68:4 *68:10 40.0317 
3 *68:10 *1067:A1 41.2671 
4 *68:4 *1192:A 26.292 
*END

*D_NET *69 7.33985e-05
*CONN
*I *1036:A I *D INVx1_ASAP7_75t_SL
*I *1467:QN O *D DFFHQNx1_ASAP7_75t_SL
*CAP
1 *1036:A 4.19594e-06
2 *1467:QN 3.25033e-05
3 *69:10 3.66993e-05
4 *1036:A *664:6 0
5 *69:10 *862:166 0
6 *69:10 *862:186 0
*RES
1 *1467:QN *69:10 46.871 
2 *69:10 *1036:A 36.0045 
*END

*D_NET *70 0.000515471
*CONN
*I *1043:A I *D AND2x4_ASAP7_75t_SL
*I *1152:B I *D OR2x2_ASAP7_75t_SL
*I *1776:A I *D BUFx3_ASAP7_75t_SL
*I *1466:QN O *D DFFHQNx1_ASAP7_75t_SL
*CAP
1 *1043:A 0
2 *1152:B 0
3 *1776:A 6.06314e-06
4 *1466:QN 0
5 *70:48 1.41894e-05
6 *70:33 2.85329e-05
7 *70:16 3.45961e-05
8 *70:14 4.06464e-05
9 *70:8 9.20175e-05
10 *70:4 6.55605e-05
11 *1776:A *808:10 2.20493e-06
12 *1776:A *815:59 6.15135e-06
13 *1776:A *820:363 1.45158e-05
14 *70:8 *861:96 1.9386e-05
15 *70:14 *97:24 2.71126e-05
16 *70:14 *836:83 4.80588e-05
17 *70:33 *209:10 5.7096e-06
18 *70:33 *271:10 6.6145e-06
19 *70:33 *294:16 9.52454e-06
20 *70:33 *294:20 4.37666e-07
21 *70:33 *692:141 2.78959e-06
22 *70:33 *815:59 9.4165e-06
23 *70:33 *820:363 6.9478e-05
24 *70:33 *861:104 1.12901e-05
25 *70:48 *71:21 3.05118e-08
26 *70:48 *858:14 0
27 *1:16 *70:33 4.97876e-07
28 *1:27 *70:33 6.4693e-07
*RES
1 *1466:QN *70:4 17.2 
2 *70:4 *70:8 42.3368 
3 *70:8 *70:14 43.4668 
4 *70:14 *70:16 17.2 
5 *70:16 *1776:A 41.073 
6 *70:16 *70:33 47.8057 
7 *70:33 *1152:B 17.2 
8 *70:4 *70:48 42.6208 
9 *70:48 *1043:A 17.2 
*END

*D_NET *71 5.52361e-05
*CONN
*I *1043:B I *D AND2x4_ASAP7_75t_SL
*I *1826:A I *D BUFx3_ASAP7_75t_SL
*I *1465:QN O *D DFFHQNx1_ASAP7_75t_SL
*CAP
1 *1043:B 0
2 *1826:A 0
3 *1465:QN 1.55783e-06
4 *71:21 1.41555e-05
5 *71:6 1.57133e-05
6 *71:6 *815:75 8.65792e-06
7 *71:6 *858:8 1.26378e-06
8 *71:21 *815:75 1.23408e-05
9 *71:21 *858:8 1.51653e-06
10 *70:48 *71:21 3.05118e-08
*RES
1 *1465:QN *71:6 19.8741 
2 *71:6 *1826:A 17.2 
3 *71:6 *71:21 44.8451 
4 *71:21 *1043:B 17.2 
*END

*D_NET *72 0.00042841
*CONN
*I *1869:A I *D BUFx3_ASAP7_75t_SL
*I *1020:A I *D INVx2_ASAP7_75t_SL
*I *1455:B I *D HAxp5_ASAP7_75t_SL
*I *1507:QN O *D DFFHQNx2_ASAP7_75t_SL
*CAP
1 *1869:A 1.12955e-05
2 *1020:A 1.68535e-05
3 *1455:B 1.45868e-05
4 *1507:QN 4.59266e-05
5 *72:29 4.52459e-05
6 *72:16 6.14925e-05
7 *72:12 3.33348e-05
8 *72:6 4.94527e-05
9 *1020:A *1412:A1 1.56713e-06
10 *1020:A *1456:A 3.13426e-06
11 *1455:B *262:71 8.46363e-06
12 *1455:B *499:30 3.11702e-05
13 *1455:B *820:70 0
14 *1869:A *1819:A 1.60115e-05
15 *1869:A *262:69 1.15587e-05
16 *1869:A *494:8 5.67735e-06
17 *1869:A *820:81 0
18 *1869:A *894:25 2.84286e-06
19 *72:6 *678:12 2.27479e-06
20 *72:6 *818:18 0
21 *72:12 *139:8 7.84037e-07
22 *72:12 *818:26 2.83874e-07
23 *72:12 *871:20 9.67723e-06
24 *72:16 *499:30 1.56713e-06
25 *72:16 *818:26 1.29186e-06
26 *72:29 *262:69 5.76364e-06
27 *72:29 *262:71 4.61688e-05
28 *72:29 *494:8 1.98472e-06
29 *72:29 *820:70 0
*RES
1 *1507:QN *72:6 38.0582 
2 *72:6 *72:12 37.779 
3 *72:12 *72:16 29.501 
4 *72:16 *1455:B 46.3079 
5 *72:16 *72:29 17.4581 
6 *72:29 *1020:A 41.3527 
7 *72:29 *1869:A 45.9714 
*END

*D_NET *73 0.000641218
*CONN
*I *1689:A I *D BUFx3_ASAP7_75t_SL
*I *1456:B I *D HAxp5_ASAP7_75t_SL
*I *1455:A I *D HAxp5_ASAP7_75t_SL
*I *1508:QN O *D DFFHQNx2_ASAP7_75t_SL
*CAP
1 *1689:A 2.75071e-06
2 *1456:B 0
3 *1455:A 3.24144e-06
4 *1508:QN 8.61994e-06
5 *73:49 3.06494e-05
6 *73:34 6.09233e-05
7 *73:32 5.33557e-05
8 *73:24 3.82042e-05
9 *73:22 5.888e-05
10 *73:18 5.46511e-05
11 *73:12 4.33532e-05
12 *73:8 4.70718e-05
13 *1455:A *507:8 5.51397e-07
14 *1689:A *492:26 2.12481e-06
15 *73:8 *874:12 1.70866e-06
16 *73:12 *1419:B 2.27303e-05
17 *73:18 *140:8 6.33206e-07
18 *73:22 *1419:A1 1.02506e-06
19 *73:22 *1419:B 1.04475e-06
20 *73:22 *1425:C 9.75645e-06
21 *73:22 *500:14 8.82914e-06
22 *73:22 *820:262 0
23 *73:24 *1425:B 8.45637e-06
24 *73:24 *1428:A1 8.06799e-07
25 *73:24 *75:12 0
26 *73:24 *262:71 1.09842e-06
27 *73:24 *492:18 1.34257e-05
28 *73:24 *492:26 2.0153e-05
29 *73:24 *492:32 6.8435e-06
30 *73:24 *721:10 1.34329e-05
31 *73:32 *75:12 0
32 *73:32 *492:32 4.45497e-05
33 *73:34 *1425:A 0
34 *73:34 *1428:A1 5.37866e-07
35 *73:34 *492:32 0
36 *73:34 *505:10 0
37 *73:34 *505:27 0
38 *73:34 *507:14 5.03445e-06
39 *73:34 *507:22 8.71771e-06
40 *73:34 *508:10 1.10966e-05
41 *73:34 *714:10 5.11764e-06
42 *73:34 *727:69 6.33206e-07
43 *73:49 *76:8 2.28976e-06
44 *73:49 *507:14 2.22736e-06
45 *73:49 *727:57 0
46 *73:49 *727:69 1.01098e-05
47 *73:49 *728:118 3.65821e-05
*RES
1 *1508:QN *73:8 40.0317 
2 *73:8 *73:12 42.3368 
3 *73:12 *73:18 37.2158 
4 *73:18 *73:22 38.0582 
5 *73:22 *73:24 13.516 
6 *73:24 *73:32 47.9974 
7 *73:32 *73:34 22.5266 
8 *73:34 *1455:A 36.0045 
9 *73:34 *73:49 42.7939 
10 *73:49 *1456:B 17.2 
11 *73:24 *1689:A 36.0045 
*END

*D_NET *74 0.000397128
*CONN
*I *1718:A I *D BUFx3_ASAP7_75t_SL
*I *1455:CON O *D HAxp5_ASAP7_75t_SL
*CAP
1 *1718:A 0
2 *1455:CON 8.01313e-06
3 *74:12 4.88976e-05
4 *74:10 4.88976e-05
5 *74:8 8.01313e-06
6 *74:8 *492:18 1.64348e-06
7 *74:8 *499:30 9.93857e-06
8 *74:8 *499:47 1.47844e-05
9 *74:12 *1409:A 5.22376e-07
10 *74:12 *1409:B 3.76571e-05
11 *74:12 *1670:A 1.94746e-05
12 *74:12 *76:16 9.78126e-05
13 *74:12 *485:12 1.94299e-05
14 *74:12 *492:10 3.03035e-05
15 *74:12 *499:22 2.52755e-07
16 *74:12 *654:14 2.05732e-05
17 *74:12 *702:12 2.40363e-05
18 *74:12 *728:99 6.87795e-06
*RES
1 *1455:CON *74:8 42.2843 
2 *74:8 *74:10 17.2 
3 *74:10 *74:12 56.1566 
4 *74:12 *1718:A 17.2 
*END

*D_NET *75 0.000133402
*CONN
*I *1418:A I *D AND3x1_ASAP7_75t_SL
*I *1455:SN O *D HAxp5_ASAP7_75t_SL
*CAP
1 *1418:A 0
2 *1455:SN 0
3 *75:12 2.4605e-05
4 *75:6 2.4605e-05
5 *75:12 *1418:C 9.425e-07
6 *75:12 *262:71 1.93842e-05
7 *75:12 *499:34 6.38362e-05
8 *75:12 *714:35 2.90209e-08
9 *73:24 *75:12 0
10 *73:32 *75:12 0
*RES
1 *1455:SN *75:6 34.4 
2 *75:6 *75:12 42.3441 
3 *75:12 *1418:A 17.2 
*END

*D_NET *76 0.000636585
*CONN
*I *1694:A I *D BUFx3_ASAP7_75t_SL
*I *1103:A I *D INVx1_ASAP7_75t_SL
*I *1456:CON O *D HAxp5_ASAP7_75t_SL
*CAP
1 *1694:A 0
2 *1103:A 6.81986e-06
3 *1456:CON 2.37618e-05
4 *76:36 2.56292e-05
5 *76:30 2.18764e-05
6 *76:28 1.54386e-05
7 *76:22 4.70703e-05
8 *76:16 8.91009e-05
9 *76:12 6.17029e-05
10 *76:8 3.10625e-05
11 *76:8 *727:57 7.40033e-06
12 *76:12 *1670:A 0
13 *76:12 *501:10 6.94376e-06
14 *76:22 *225:39 1.19526e-06
15 *76:22 *727:23 3.15757e-05
16 *76:22 *727:29 8.03441e-06
17 *76:22 *823:18 1.12894e-06
18 *76:22 *890:12 4.17794e-05
19 *76:28 *1703:A 7.02886e-06
20 *76:28 *728:10 4.13665e-05
21 *76:28 *750:52 1.64348e-06
22 *76:30 *754:13 3.73144e-06
23 *76:36 *514:10 2.31174e-05
24 *76:36 *552:21 2.33715e-05
25 *76:36 *754:13 1.21364e-05
26 *3:8 *76:8 3.56648e-06
27 *73:49 *76:8 2.28976e-06
28 *74:12 *76:16 9.78126e-05
*RES
1 *1456:CON *76:8 49.9099 
2 *76:8 *76:12 22.8317 
3 *76:12 *76:16 46.6154 
4 *76:16 *76:22 48.0818 
5 *76:22 *76:28 48.4791 
6 *76:28 *76:30 2.67412 
7 *76:30 *76:36 34.1763 
8 *76:36 *1103:A 37.0741 
9 *76:30 *1694:A 17.2 
*END

*D_NET *77 0.000203934
*CONN
*I *1457:B I *D HAxp5_ASAP7_75t_SL
*I *1757:A I *D BUFx3_ASAP7_75t_SL
*I *1521:QN O *D DFFHQNx2_ASAP7_75t_SL
*CAP
1 *1457:B 0
2 *1757:A 0
3 *1521:QN 3.82076e-05
4 *77:22 1.30857e-05
5 *77:14 2.17511e-05
6 *77:6 4.6873e-05
7 *77:6 *818:124 7.18493e-05
8 *77:14 *78:12 5.52807e-07
9 *77:14 *78:16 6.33206e-07
10 *77:14 *79:6 2.20493e-06
11 *77:14 *153:8 0
12 *77:22 *78:16 2.19629e-06
13 *77:22 *79:6 2.12481e-06
14 *77:22 *153:8 4.45472e-06
15 *77:22 *820:310 0
*RES
1 *1521:QN *77:6 39.1278 
2 *77:6 *77:14 40.5098 
3 *77:14 *77:22 45.0151 
4 *77:22 *1757:A 17.2 
5 *77:14 *1457:B 17.2 
*END

*D_NET *78 0.000222014
*CONN
*I *1457:A I *D HAxp5_ASAP7_75t_SL
*I *1747:A I *D BUFx3_ASAP7_75t_SL
*I *1531:QN O *D DFFHQNx1_ASAP7_75t_SL
*CAP
1 *1457:A 0
2 *1747:A 0
3 *1531:QN 0
4 *78:20 2.52796e-05
5 *78:16 5.07311e-05
6 *78:12 6.44874e-05
7 *78:6 3.90359e-05
8 *78:12 *958:B 0
9 *78:12 *79:6 3.56648e-06
10 *78:12 *163:8 5.79724e-07
11 *78:12 *820:302 0
12 *78:12 *875:20 0
13 *78:16 *820:378 1.09067e-06
14 *78:20 *529:72 2.73261e-05
15 *78:20 *779:6 6.53466e-06
16 *29:22 *78:12 0
17 *77:14 *78:12 5.52807e-07
18 *77:14 *78:16 6.33206e-07
19 *77:22 *78:16 2.19629e-06
*RES
1 *1531:QN *78:6 34.4 
2 *78:6 *78:12 41.2744 
3 *78:12 *78:16 35.7845 
4 *78:16 *78:20 38.0582 
5 *78:20 *1747:A 17.2 
6 *78:12 *1457:A 17.2 
*END

*D_NET *79 0.000515642
*CONN
*I *1717:A I *D BUFx3_ASAP7_75t_SL
*I *1091:A I *D INVx2_ASAP7_75t_SL
*I *1457:CON O *D HAxp5_ASAP7_75t_SL
*CAP
1 *1717:A 0
2 *1091:A 8.68941e-06
3 *1457:CON 3.61491e-05
4 *79:22 2.5433e-05
5 *79:18 6.69322e-05
6 *79:12 5.33592e-05
7 *79:6 3.93196e-05
8 *1091:A *722:22 7.70441e-05
9 *79:6 *512:8 9.25277e-06
10 *79:6 *896:10 1.04475e-06
11 *79:6 *896:14 8.04845e-05
12 *79:12 *581:14 9.74162e-07
13 *79:12 *815:88 3.00165e-06
14 *79:18 *959:B 1.58634e-05
15 *79:18 *512:8 5.57622e-07
16 *79:18 *749:10 0
17 *79:18 *853:27 7.72307e-07
18 *79:18 *853:42 9.54913e-06
19 *79:18 *883:23 0
20 *79:22 *875:10 9.49809e-07
21 *79:22 *883:23 0
22 *79:22 *883:35 1.10561e-06
23 *29:32 *1091:A 7.72638e-05
24 *77:14 *79:6 2.20493e-06
25 *77:22 *79:6 2.12481e-06
26 *78:12 *79:6 3.56648e-06
*RES
1 *1457:CON *79:6 47.685 
2 *79:6 *79:12 37.2158 
3 *79:12 *79:18 49.0381 
4 *79:18 *79:22 27.337 
5 *79:22 *1091:A 40.7323 
6 *79:18 *1717:A 34.4 
*END

*D_NET *80 3.95499e-05
*CONN
*I *955:A I *D AND2x2_ASAP7_75t_SL
*I *1457:SN O *D HAxp5_ASAP7_75t_SL
*CAP
1 *955:A 0
2 *1457:SN 1.5446e-05
3 *80:10 1.5446e-05
4 *80:10 *896:14 8.65792e-06
*RES
1 *1457:SN *80:10 43.0989 
2 *80:10 *955:A 34.4 
*END

*D_NET *81 0.000136621
*CONN
*I *1796:A I *D BUFx3_ASAP7_75t_SL
*I *1458:A I *D HAxp5_ASAP7_75t_SL
*I *1022:Y O *D INVx1_ASAP7_75t_SL
*CAP
1 *1796:A 7.137e-06
2 *1458:A 0
3 *1022:Y 1.56544e-05
4 *81:10 2.27914e-05
5 *1796:A *746:79 2.03526e-06
6 *1796:A *850:19 2.53836e-05
7 *1796:A *872:128 2.71272e-05
8 *81:10 *625:6 9.75735e-06
9 *81:10 *850:19 1.34329e-05
10 *81:10 *872:128 1.33022e-05
*RES
1 *1022:Y *81:10 45.8581 
2 *81:10 *1458:A 34.4 
3 *81:10 *1796:A 45.0151 
*END

*D_NET *82 7.47388e-05
*CONN
*I *1458:B I *D HAxp5_ASAP7_75t_SL
*I *1037:Y O *D INVx1_ASAP7_75t_SL
*CAP
1 *1458:B 0
2 *1037:Y 2.34494e-05
3 *82:6 2.34494e-05
4 *82:6 *1037:A 3.56177e-06
5 *82:6 *83:6 5.19475e-06
6 *82:6 *84:6 7.46287e-06
7 *82:6 *514:67 3.73144e-06
8 *82:6 *654:30 2.03526e-06
9 *82:6 *654:45 5.85387e-06
*RES
1 *1037:Y *82:6 33.7796 
2 *82:6 *1458:B 17.2 
*END

*D_NET *83 0.000329263
*CONN
*I *1714:A I *D BUFx3_ASAP7_75t_SL
*I *1389:A I *D OR5x1_ASAP7_75t_SL
*I *1240:A I *D OR2x2_ASAP7_75t_SL
*I *1458:CON O *D HAxp5_ASAP7_75t_SL
*CAP
1 *1714:A 0
2 *1389:A 0
3 *1240:A 4.34359e-06
4 *1458:CON 0
5 *83:29 1.15987e-05
6 *83:14 3.48896e-05
7 *83:12 1.89474e-05
8 *83:10 3.35123e-05
9 *83:6 7.32423e-05
10 *83:4 3.973e-05
11 *1240:A *342:6 1.01102e-06
12 *83:6 *514:67 1.1646e-05
13 *83:6 *514:77 6.89389e-05
14 *83:10 *1007:A2 3.38681e-06
15 *83:10 *475:10 2.74606e-06
16 *83:10 *812:25 3.90551e-06
17 *83:10 *841:35 0
18 *83:10 *842:28 0
19 *83:10 *842:41 5.00549e-06
20 *83:10 *843:47 0
21 *83:10 *844:18 0
22 *83:14 *342:6 5.19552e-07
23 *83:29 *812:8 0
24 *83:29 *812:19 3.68287e-06
25 *83:29 *838:20 0
26 *83:29 *843:28 1.52651e-06
27 *83:29 *844:18 4.8028e-06
28 *83:29 *844:24 6.33206e-07
29 *82:6 *83:6 5.19475e-06
*RES
1 *1458:CON *83:4 17.2 
2 *83:4 *83:6 33.694 
3 *83:6 *83:10 40.853 
4 *83:10 *83:12 17.2 
5 *83:12 *83:14 11.2313 
6 *83:14 *1240:A 19.8741 
7 *83:14 *83:29 42.2276 
8 *83:29 *1389:A 17.2 
9 *83:12 *1714:A 17.2 
*END

*D_NET *84 0.000591171
*CONN
*I *1711:A I *D BUFx3_ASAP7_75t_SL
*I *969:B1 I *D OA31x2_ASAP7_75t_SL
*I *1458:SN O *D HAxp5_ASAP7_75t_SL
*CAP
1 *1711:A 2.81714e-06
2 *969:B1 1.04188e-05
3 *1458:SN 1.21724e-05
4 *84:47 1.84205e-05
5 *84:39 2.93542e-05
6 *84:35 2.87699e-05
7 *84:16 2.83878e-05
8 *84:10 7.39574e-05
9 *84:8 5.59883e-05
10 *84:6 2.71914e-05
11 *969:B1 *969:A3 2.68933e-07
12 *969:B1 *1709:A 3.05118e-08
13 *969:B1 *225:50 1.64764e-06
14 *969:B1 *647:16 0
15 *1711:A *469:12 2.30405e-06
16 *84:6 *654:45 1.32074e-05
17 *84:10 *1022:A 1.26641e-06
18 *84:10 *219:20 3.647e-06
19 *84:10 *625:12 0
20 *84:10 *647:16 4.97941e-05
21 *84:10 *655:22 2.19685e-06
22 *84:10 *663:43 2.90547e-05
23 *84:10 *724:12 2.21276e-05
24 *84:10 *728:10 0
25 *84:10 *741:18 1.70866e-06
26 *84:10 *741:27 2.74606e-06
27 *84:10 *741:40 3.32579e-06
28 *84:10 *826:8 2.83874e-07
29 *84:10 *877:10 2.01457e-05
30 *84:16 *716:6 1.56713e-06
31 *84:16 *741:16 9.59239e-06
32 *84:35 *654:30 5.0551e-07
33 *84:35 *654:45 3.67067e-06
34 *84:35 *655:22 1.31716e-05
35 *84:35 *724:12 1.10561e-06
36 *84:35 *844:85 1.35684e-06
37 *84:39 *334:10 6.80131e-06
38 *84:39 *469:8 3.75414e-05
39 *84:39 *617:10 0
40 *84:39 *655:22 3.63423e-05
41 *84:39 *812:79 2.60255e-06
42 *84:47 *334:12 1.9257e-06
43 *84:47 *469:8 2.62918e-05
44 *84:47 *655:37 0
45 *82:6 *84:6 7.46287e-06
*RES
1 *1458:SN *84:6 26.292 
2 *84:6 *84:8 17.2 
3 *84:8 *84:10 55.7534 
4 *84:10 *84:16 43.492 
5 *84:16 *969:B1 41.158 
6 *84:6 *84:35 44.2536 
7 *84:35 *84:39 35.6906 
8 *84:39 *84:47 45.236 
9 *84:47 *1711:A 36.0045 
*END

*D_NET *85 0.000384834
*CONN
*I *1019:A I *D INVx1_ASAP7_75t_SL
*I *1179:C I *D AND3x1_ASAP7_75t_SL
*I *1459:A I *D HAxp5_ASAP7_75t_SL
*I *1463:QN O *D DFFHQNx1_ASAP7_75t_SL
*CAP
1 *1019:A 0
2 *1179:C 1.74032e-05
3 *1459:A 4.18083e-06
4 *1463:QN 0
5 *85:40 3.77248e-05
6 *85:23 7.42206e-05
7 *85:10 2.93555e-05
8 *85:4 4.42672e-05
9 *1179:C *808:12 0
10 *1179:C *809:49 1.12894e-06
11 *1179:C *836:75 2.90209e-08
12 *1459:A *87:10 2.20493e-06
13 *1459:A *88:10 1.62312e-05
14 *1459:A *97:14 7.72307e-07
15 *85:10 *1459:B 0
16 *85:10 *86:12 0
17 *85:10 *663:83 4.71319e-05
18 *85:10 *815:61 5.51397e-07
19 *85:23 *209:22 8.87763e-06
20 *85:23 *209:26 9.52454e-06
21 *85:23 *680:12 1.52651e-06
22 *85:23 *763:6 2.18653e-05
23 *85:23 *763:14 2.29378e-05
24 *85:23 *815:61 2.11853e-06
25 *85:40 *89:10 4.44082e-06
26 *85:40 *89:23 9.22055e-06
27 *85:40 *299:8 1.26378e-06
28 *85:40 *808:12 0
29 *85:40 *809:49 1.12894e-06
30 *85:40 *866:10 2.67279e-05
*RES
1 *1463:QN *85:4 17.2 
2 *85:4 *85:10 36.2059 
3 *85:10 *1459:A 39.2134 
4 *85:4 *85:23 34.8492 
5 *85:23 *1179:C 44.4803 
6 *85:23 *85:40 41.4975 
7 *85:40 *1019:A 17.2 
*END

*D_NET *86 0.00029438
*CONN
*I *1460:A I *D HAxp5_ASAP7_75t_SL
*I *1459:B I *D HAxp5_ASAP7_75t_SL
*I *1179:B I *D AND3x1_ASAP7_75t_SL
*I *1779:A I *D BUFx3_ASAP7_75t_SL
*I *1464:QN O *D DFFHQNx2_ASAP7_75t_SL
*CAP
1 *1460:A 8.47636e-06
2 *1459:B 1.69168e-05
3 *1179:B 1.77689e-05
4 *1779:A 1.67625e-06
5 *1464:QN 0
6 *86:27 3.79198e-05
7 *86:12 4.49551e-05
8 *86:8 5.84013e-05
9 *86:4 2.6833e-05
10 *1179:B *1179:A 1.36155e-06
11 *1179:B *1739:A 4.20803e-06
12 *1179:B *836:75 4.80344e-05
13 *1459:B *88:10 0
14 *1459:B *836:135 0
15 *1460:A *861:108 1.59615e-06
16 *1779:A *811:6 2.28976e-06
17 *86:8 *861:108 7.86466e-06
18 *86:12 *663:83 0
19 *86:27 *663:83 8.33296e-06
20 *86:27 *811:6 4.57952e-06
21 *86:27 *836:71 3.16603e-06
22 *85:10 *1459:B 0
23 *85:10 *86:12 0
*RES
1 *1464:QN *86:4 17.2 
2 *86:4 *86:8 26.292 
3 *86:8 *86:12 32.4055 
4 *86:12 *1779:A 18.8045 
5 *86:12 *86:27 49.5168 
6 *86:27 *1179:B 33.7796 
7 *86:8 *1459:B 44.537 
8 *86:4 *1460:A 20.9438 
*END

*D_NET *87 0.000165443
*CONN
*I *1712:A I *D BUFx3_ASAP7_75t_SL
*I *1040:A I *D NAND2x1_ASAP7_75t_SL
*I *1459:CON O *D HAxp5_ASAP7_75t_SL
*CAP
1 *1712:A 7.72483e-06
2 *1040:A 0
3 *1459:CON 4.8589e-06
4 *87:14 4.19337e-05
5 *87:10 5.45174e-05
6 *1712:A *272:6 2.20493e-06
7 *1712:A *663:83 1.25812e-05
8 *87:10 *97:18 7.47402e-07
9 *87:10 *663:83 7.97766e-06
10 *87:14 *1183:A 2.11853e-06
11 *87:14 *1183:B 1.94746e-05
12 *87:14 *1183:C 1.40419e-08
13 *87:14 *299:8 9.08513e-06
14 *1459:A *87:10 2.20493e-06
*RES
1 *1459:CON *87:10 38.8203 
2 *87:10 *87:14 35.9189 
3 *87:14 *1040:A 17.2 
4 *87:10 *1712:A 40.5098 
*END

*D_NET *88 0.000247241
*CONN
*I *1159:A1 I *D AO21x1_ASAP7_75t_SL
*I *1459:SN O *D HAxp5_ASAP7_75t_SL
*CAP
1 *1159:A1 0
2 *1459:SN 1.47485e-05
3 *88:22 1.82993e-05
4 *88:14 5.49021e-05
5 *88:10 5.13513e-05
6 *88:10 *663:83 0
7 *88:14 *711:31 5.28774e-05
8 *88:14 *863:102 1.18157e-05
9 *88:22 *1159:B 0
10 *88:22 *1163:A2 2.61188e-06
11 *88:22 *693:78 4.47696e-06
12 *88:22 *695:50 3.68287e-06
13 *88:22 *711:16 1.62434e-05
14 *1459:A *88:10 1.62312e-05
15 *1459:B *88:10 0
*RES
1 *1459:SN *88:10 43.2494 
2 *88:10 *88:14 38.4109 
3 *88:14 *88:22 48.2966 
4 *88:22 *1159:A1 17.2 
*END

*D_NET *89 0.000132672
*CONN
*I *1040:B I *D NAND2x1_ASAP7_75t_SL
*I *1841:A I *D BUFx3_ASAP7_75t_SL
*I *1460:CON O *D HAxp5_ASAP7_75t_SL
*CAP
1 *1040:B 0
2 *1841:A 0
3 *1460:CON 1.19352e-05
4 *89:23 1.29187e-05
5 *89:10 2.48539e-05
6 *89:10 *809:49 1.12974e-05
7 *89:10 *861:108 6.28016e-06
8 *89:23 *299:8 2.68282e-05
9 *89:23 *809:49 2.21506e-05
10 *89:23 *866:10 2.74606e-06
11 *85:40 *89:10 4.44082e-06
12 *85:40 *89:23 9.22055e-06
*RES
1 *1460:CON *89:10 43.1556 
2 *89:10 *1841:A 34.4 
3 *89:10 *89:23 33.1067 
4 *89:23 *1040:B 17.2 
*END

*D_NET *90 4.34487e-05
*CONN
*I *1775:A I *D BUFx3_ASAP7_75t_SL
*I *1461:B I *D HAxp5_ASAP7_75t_SL
*I *1487:QN O *D DFFHQNx2_ASAP7_75t_SL
*CAP
1 *1775:A 1.11143e-06
2 *1461:B 0
3 *1487:QN 0
4 *90:14 1.5744e-05
5 *90:4 1.68555e-05
6 *1775:A *807:6 2.28976e-06
7 *1775:A *819:30 2.0895e-06
8 *90:14 *91:20 0
9 *90:14 *92:6 1.86049e-06
10 *90:14 *807:6 2.12481e-06
11 *90:14 *807:25 0
12 *90:14 *807:47 8.2174e-07
13 *90:14 *819:30 5.51397e-07
*RES
1 *1487:QN *90:4 17.2 
2 *90:4 *90:14 44.3669 
3 *90:14 *1461:B 17.2 
4 *90:4 *1775:A 19.3393 
*END

*D_NET *91 0.000232319
*CONN
*I *1767:A I *D BUFx3_ASAP7_75t_SL
*I *1461:A I *D HAxp5_ASAP7_75t_SL
*I *1497:QN O *D DFFHQNx2_ASAP7_75t_SL
*CAP
1 *1767:A 0
2 *1461:A 0
3 *1497:QN 3.85226e-05
4 *91:20 2.29724e-05
5 *91:14 5.95619e-05
6 *91:8 7.51121e-05
7 *91:8 *129:12 0
8 *91:14 *304:8 0
9 *91:14 *799:8 5.17782e-06
10 *91:14 *819:24 8.38787e-06
11 *91:14 *819:28 8.90942e-06
12 *91:14 *819:30 3.68565e-06
13 *91:20 *799:14 0
14 *91:20 *799:25 0
15 *91:20 *807:6 2.12481e-06
16 *91:20 *819:30 7.86466e-06
17 *90:14 *91:20 0
*RES
1 *1497:QN *91:8 47.7706 
2 *91:8 *91:14 46.7891 
3 *91:14 *91:20 33.05 
4 *91:20 *1461:A 34.4 
5 *91:14 *1767:A 17.2 
*END

*D_NET *92 0.000332969
*CONN
*I *1059:B I *D OR4x1_ASAP7_75t_SL
*I *1169:A I *D INVx1_ASAP7_75t_SL
*I *1145:A I *D OR4x1_ASAP7_75t_SL
*I *1461:CON O *D HAxp5_ASAP7_75t_SL
*CAP
1 *1059:B 0
2 *1169:A 3.2665e-05
3 *1145:A 1.09875e-05
4 *1461:CON 4.63389e-05
5 *92:33 4.37254e-05
6 *92:25 1.3101e-05
7 *92:10 3.38425e-05
8 *92:6 6.71532e-05
9 *1145:A *1059:A 1.58828e-05
10 *1145:A *1145:B 7.31606e-07
11 *1145:A *284:16 9.66472e-07
12 *1169:A *1145:C 3.65131e-06
13 *1169:A *1145:D 5.00816e-06
14 *1169:A *1706:A 4.09128e-05
15 *1169:A *738:6 3.1923e-06
16 *92:10 *119:8 9.52859e-07
17 *92:10 *284:16 4.48222e-08
18 *92:10 *287:8 0
19 *92:10 *865:65 3.03124e-06
20 *92:33 *1059:C 6.0034e-06
21 *92:33 *1145:B 8.52654e-07
22 *92:33 *865:65 2.06433e-06
23 *90:14 *92:6 1.86049e-06
*RES
1 *1461:CON *92:6 41.2671 
2 *92:6 *92:10 31.2792 
3 *92:10 *1145:A 46.6196 
4 *92:10 *92:25 18.2696 
5 *92:25 *92:33 45.6066 
6 *92:33 *1169:A 41.2671 
7 *92:25 *1059:B 17.2 
*END

*D_NET *93 2.14962e-05
*CONN
*I *1331:A I *D AND2x2_ASAP7_75t_SL
*I *1461:SN O *D HAxp5_ASAP7_75t_SL
*CAP
1 *1331:A 1.07481e-05
2 *1461:SN 1.07481e-05
*RES
1 *1461:SN *1331:A 39.7482 
*END

*D_NET *94 0.000272297
*CONN
*I *1336:A I *D XOR2x2_ASAP7_75t_SL
*I *1244:A I *D INVx1_ASAP7_75t_SL
*I *1462:CON O *D HAxp5_ASAP7_75t_SL
*CAP
1 *1336:A 0
2 *1244:A 4.3317e-05
3 *1462:CON 3.24873e-05
4 *94:6 7.58042e-05
5 *1244:A *1346:A1 2.90209e-08
6 *1244:A *1346:A2 1.36155e-06
7 *1244:A *1346:B 5.41446e-06
8 *1244:A *346:6 5.57057e-06
9 *1244:A *428:6 4.20803e-06
10 *1244:A *692:49 3.15324e-05
11 *1244:A *864:12 3.09382e-05
12 *94:6 *428:6 3.71468e-06
13 *94:6 *807:66 2.6409e-06
14 *40:18 *1244:A 1.95129e-06
15 *40:18 *94:6 3.33273e-05
*RES
1 *1462:CON *94:6 41.2671 
2 *94:6 *1244:A 49.8243 
3 *94:6 *1336:A 17.2 
*END

*D_NET *95 9.95222e-05
*CONN
*I *1463:D I *D DFFHQNx1_ASAP7_75t_SL
*I *1158:Y O *D AOI21x1_ASAP7_75t_SL
*CAP
1 *1463:D 0
2 *1158:Y 0
3 *95:12 3.21704e-05
4 *95:6 3.21704e-05
5 *95:12 *96:8 5.79724e-07
6 *95:12 *267:8 1.29755e-05
7 *95:12 *811:10 0
8 *95:12 *815:61 0
9 *95:12 *820:123 2.16262e-05
*RES
1 *1158:Y *95:6 34.4 
2 *95:6 *95:12 40.5412 
3 *95:12 *1463:D 17.2 
*END

*D_NET *96 4.4792e-05
*CONN
*I *1464:D I *D DFFHQNx2_ASAP7_75t_SL
*I *1163:Y O *D OA211x2_ASAP7_75t_SL
*CAP
1 *1464:D 1.21543e-05
2 *1163:Y 5.64351e-06
3 *96:8 1.77978e-05
4 *1464:D *861:108 8.146e-06
5 *96:8 *266:37 1.94229e-07
6 *96:8 *863:106 2.76402e-07
7 *95:12 *96:8 5.79724e-07
*RES
1 *1163:Y *96:8 37.779 
2 *96:8 *1464:D 40.2831 
*END

*D_NET *97 0.000567417
*CONN
*I *1465:D I *D DFFHQNx1_ASAP7_75t_SL
*I *1175:Y O *D AO32x1_ASAP7_75t_SL
*CAP
1 *1465:D 0
2 *1175:Y 5.47162e-06
3 *97:24 2.98976e-05
4 *97:20 0.000130379
5 *97:18 0.00010262
6 *97:14 3.92201e-05
7 *97:8 4.25541e-05
8 *97:8 *820:228 1.15945e-06
9 *97:20 *209:16 2.45879e-05
10 *97:20 *711:31 0.000146089
11 *97:24 *861:96 5.52807e-07
12 *1459:A *97:14 7.72307e-07
13 *1:12 *97:20 1.62528e-05
14 *70:14 *97:24 2.71126e-05
15 *87:10 *97:18 7.47402e-07
*RES
1 *1175:Y *97:8 37.779 
2 *97:8 *97:14 49.9099 
3 *97:14 *97:18 18.4202 
4 *97:18 *97:20 41.3397 
5 *97:20 *97:24 39.6328 
6 *97:24 *1465:D 34.4 
*END

*D_NET *98 4.29468e-05
*CONN
*I *1466:D I *D DFFHQNx1_ASAP7_75t_SL
*I *1186:Y O *D AOI21x1_ASAP7_75t_SL
*CAP
1 *1466:D 1.81636e-05
2 *1186:Y 1.81636e-05
3 *1466:D *861:96 6.6195e-06
4 *1466:D *861:104 0
*RES
1 *1186:Y *1466:D 43.492 
*END

*D_NET *99 7.66195e-05
*CONN
*I *1467:D I *D DFFHQNx1_ASAP7_75t_SL
*I *1189:Y O *D OA211x2_ASAP7_75t_SL
*CAP
1 *1467:D 2.5123e-05
2 *1189:Y 1.31868e-05
3 *99:8 3.83098e-05
4 *1467:D *862:166 0
5 *99:8 *664:12 0
6 *99:8 *862:164 0
*RES
1 *1189:Y *99:8 43.4107 
2 *99:8 *1467:D 45.6313 
*END

*D_NET *100 2.37388e-05
*CONN
*I *1468:D I *D DFFHQNx1_ASAP7_75t_SL
*I *1067:Y O *D OAI21x1_ASAP7_75t_SL
*CAP
1 *1468:D 6.45951e-06
2 *1067:Y 4.2962e-06
3 *100:8 1.07557e-05
4 *61:10 *100:8 2.22736e-06
*RES
1 *1067:Y *100:8 37.779 
2 *100:8 *1468:D 37.0741 
*END

*D_NET *101 4.94768e-05
*CONN
*I *1469:D I *D DFFHQNx1_ASAP7_75t_SL
*I *1069:Y O *D OAI21x1_ASAP7_75t_SL
*CAP
1 *1469:D 0
2 *1069:Y 1.00131e-05
3 *101:10 1.00131e-05
4 *101:10 *686:37 1.02072e-05
5 *101:10 *819:8 9.93857e-06
6 *1069:A1 *101:10 9.30483e-06
*RES
1 *1069:Y *101:10 41.5228 
2 *101:10 *1469:D 34.4 
*END

*D_NET *102 3.35727e-05
*CONN
*I *1470:D I *D DFFHQNx1_ASAP7_75t_SL
*I *1071:Y O *D OAI21x1_ASAP7_75t_SL
*CAP
1 *1470:D 1.03783e-05
2 *1071:Y 6.40803e-06
3 *102:8 1.67863e-05
4 *102:8 *862:140 0
*RES
1 *1071:Y *102:8 37.779 
2 *102:8 *1470:D 38.1438 
*END

*D_NET *103 7.18869e-05
*CONN
*I *1471:D I *D DFFHQNx1_ASAP7_75t_SL
*I *1073:Y O *D OAI21x1_ASAP7_75t_SL
*CAP
1 *1471:D 2.99967e-05
2 *1073:Y 5.94671e-06
3 *103:8 3.59434e-05
4 *65:10 *103:8 0
*RES
1 *1073:Y *103:8 37.779 
2 *103:8 *1471:D 46.701 
*END

*D_NET *104 0.000147709
*CONN
*I *1472:D I *D DFFHQNx1_ASAP7_75t_SL
*I *1075:Y O *D OAI21x1_ASAP7_75t_SL
*CAP
1 *1472:D 4.11689e-05
2 *1075:Y 0
3 *104:10 6.73393e-05
4 *104:6 2.61705e-05
5 *104:10 *105:8 0
6 *63:8 *104:10 2.25787e-06
7 *63:12 *104:10 2.80709e-06
8 *64:8 *104:10 3.51107e-06
9 *64:18 *104:10 4.45472e-06
*RES
1 *1075:Y *104:6 34.4 
2 *104:6 *104:10 37.474 
3 *104:10 *1472:D 36.9885 
*END

*D_NET *105 0.000104684
*CONN
*I *1473:D I *D DFFHQNx1_ASAP7_75t_SL
*I *1077:Y O *D OAI21x1_ASAP7_75t_SL
*CAP
1 *1473:D 0
2 *1077:Y 1.1102e-05
3 *105:12 4.12402e-05
4 *105:8 5.23422e-05
5 *63:8 *105:8 0
6 *104:10 *105:8 0
*RES
1 *1077:Y *105:8 43.4107 
2 *105:8 *105:12 34.8492 
3 *105:12 *1473:D 17.2 
*END

*D_NET *106 5.28655e-05
*CONN
*I *1474:D I *D DFFHQNx1_ASAP7_75t_SL
*I *1079:Y O *D OAI21x1_ASAP7_75t_SL
*CAP
1 *1474:D 0
2 *1079:Y 1.35199e-05
3 *106:10 1.35199e-05
4 *106:10 *1079:B 5.41446e-06
5 *106:10 *848:96 9.94583e-06
6 *1078:A *106:10 5.19552e-07
7 *1079:A1 *106:10 9.94583e-06
*RES
1 *1079:Y *106:10 42.5924 
2 *106:10 *1474:D 34.4 
*END

*D_NET *107 4.06295e-05
*CONN
*I *1475:D I *D DFFHQNx1_ASAP7_75t_SL
*I *1086:Y O *D OA21x2_ASAP7_75t_SL
*CAP
1 *1475:D 0
2 *1086:Y 6.87296e-06
3 *107:10 6.87296e-06
4 *107:10 *1086:B 1.03895e-05
5 *107:10 *294:60 5.67735e-06
6 *107:10 *686:149 1.08167e-05
7 *107:10 *819:8 0
*RES
1 *1086:Y *107:10 42.1143 
2 *107:10 *1475:D 34.4 
*END

*D_NET *108 4.11221e-05
*CONN
*I *1476:D I *D DFFHQNx1_ASAP7_75t_SL
*I *1191:Y O *D AND3x1_ASAP7_75t_SL
*CAP
1 *1476:D 0
2 *1191:Y 1.91728e-05
3 *108:10 1.91728e-05
4 *108:10 *692:81 2.77657e-06
5 *108:10 *862:170 0
*RES
1 *1191:Y *108:10 47.831 
2 *108:10 *1476:D 34.4 
*END

*D_NET *109 1.74977e-05
*CONN
*I *1477:D I *D DFFHQNx1_ASAP7_75t_SL
*I *1197:Y O *D OA211x2_ASAP7_75t_SL
*CAP
1 *1477:D 0
2 *1197:Y 3.49955e-06
3 *109:8 3.49955e-06
4 *109:8 *309:8 9.94583e-06
5 *109:8 *861:72 5.52807e-07
*RES
1 *1197:Y *109:8 37.779 
2 *109:8 *1477:D 34.4 
*END

*D_NET *110 2.10161e-05
*CONN
*I *1478:D I *D DFFHQNx1_ASAP7_75t_SL
*I *1201:Y O *D OA211x2_ASAP7_75t_SL
*CAP
1 *1478:D 0
2 *1201:Y 9.7813e-06
3 *110:10 9.7813e-06
4 *110:10 *1201:C 5.51397e-07
5 *110:10 *819:183 2.68933e-07
6 *110:10 *862:81 0
7 *62:34 *110:10 6.33206e-07
*RES
1 *1201:Y *110:10 39.3835 
2 *110:10 *1478:D 34.4 
*END

*D_NET *111 0.000133522
*CONN
*I *1479:D I *D DFFHQNx1_ASAP7_75t_SL
*I *1204:Y O *D OA211x2_ASAP7_75t_SL
*CAP
1 *1479:D 0
2 *1204:Y 1.00978e-05
3 *111:12 5.36127e-05
4 *111:8 6.37105e-05
5 *111:8 *819:217 6.10148e-06
*RES
1 *1204:Y *111:8 43.4107 
2 *111:8 *111:12 35.9189 
3 *111:12 *1479:D 17.2 
*END

*D_NET *112 6.85458e-05
*CONN
*I *1480:D I *D DFFHQNx1_ASAP7_75t_SL
*I *1207:Y O *D OA211x2_ASAP7_75t_SL
*CAP
1 *1480:D 0
2 *1207:Y 1.75689e-05
3 *112:10 1.75689e-05
4 *112:10 *1207:C 2.20493e-06
5 *112:10 *1210:C 1.66587e-05
6 *112:10 *113:10 0
7 *112:10 *318:12 1.34402e-05
8 *112:10 *690:168 5.51397e-07
9 *112:10 *690:190 5.52807e-07
10 *112:10 *862:108 0
11 *56:18 *112:10 0
*RES
1 *1207:Y *112:10 48.9006 
2 *112:10 *1480:D 34.4 
*END

*D_NET *113 4.83475e-05
*CONN
*I *1481:D I *D DFFHQNx1_ASAP7_75t_SL
*I *1210:Y O *D OA211x2_ASAP7_75t_SL
*CAP
1 *1481:D 1.06298e-05
2 *1210:Y 1.32274e-05
3 *113:10 2.38572e-05
4 *113:10 *862:108 6.33206e-07
5 *112:10 *113:10 0
*RES
1 *1210:Y *113:10 42.0293 
2 *113:10 *1481:D 40.8179 
*END

*D_NET *114 1.95413e-05
*CONN
*I *1482:D I *D DFFHQNx1_ASAP7_75t_SL
*I *1213:Y O *D OA211x2_ASAP7_75t_SL
*CAP
1 *1482:D 4.15277e-06
2 *1213:Y 5.34892e-06
3 *114:8 9.50169e-06
4 *114:8 *819:225 5.37866e-07
*RES
1 *1213:Y *114:8 37.779 
2 *114:8 *1482:D 36.0045 
*END

*D_NET *115 1.30154e-05
*CONN
*I *1483:D I *D DFFHQNx1_ASAP7_75t_SL
*I *1216:Y O *D OA211x2_ASAP7_75t_SL
*CAP
1 *1483:D 0
2 *1216:Y 4.06104e-06
3 *115:8 4.06104e-06
4 *115:8 *690:97 4.10928e-06
5 *53:18 *115:8 7.84037e-07
*RES
1 *1216:Y *115:8 37.779 
2 *115:8 *1483:D 34.4 
*END

*D_NET *116 3.9641e-05
*CONN
*I *1484:D I *D DFFHQNx1_ASAP7_75t_SL
*I *1219:Y O *D OA211x2_ASAP7_75t_SL
*CAP
1 *1484:D 1.94343e-05
2 *1219:Y 1.94343e-05
3 *1484:D *1484:CLK 7.72307e-07
*RES
1 *1219:Y *1484:D 43.492 
*END

*D_NET *117 6.86374e-05
*CONN
*I *1485:D I *D DFFHQNx1_ASAP7_75t_SL
*I *1221:Y O *D NOR2x1_ASAP7_75t_SL
*CAP
1 *1485:D 1.81269e-05
2 *1221:Y 1.21835e-05
3 *117:10 3.03104e-05
4 *117:10 *325:6 2.6409e-06
5 *117:10 *836:95 5.37569e-06
6 *51:12 *1485:D 0
*RES
1 *1221:Y *117:10 42.6491 
2 *117:10 *1485:D 42.4224 
*END

*D_NET *118 0.00012657
*CONN
*I *1486:D I *D DFFHQNx1_ASAP7_75t_SL
*I *1223:Y O *D INVx1_ASAP7_75t_SL
*CAP
1 *1486:D 0
2 *1223:Y 1.06793e-05
3 *118:12 2.01167e-05
4 *118:8 3.07959e-05
5 *118:8 *1222:A 1.96943e-05
6 *118:12 *179:10 2.73812e-05
7 *118:12 *836:95 0
8 *118:12 *861:78 2.1664e-06
9 *118:12 *861:82 3.79494e-06
10 *51:18 *118:12 1.19413e-05
*RES
1 *1223:Y *118:8 40.2831 
2 *118:8 *118:12 37.474 
3 *118:12 *1486:D 17.2 
*END

*D_NET *119 8.84378e-05
*CONN
*I *1487:D I *D DFFHQNx2_ASAP7_75t_SL
*I *1228:Y O *D AOI21x1_ASAP7_75t_SL
*CAP
1 *1487:D 1.51734e-05
2 *1228:Y 1.14537e-05
3 *119:8 2.6627e-05
4 *1487:D *819:30 0
5 *119:8 *287:8 3.42309e-05
6 *119:8 *865:65 0
7 *92:10 *119:8 9.52859e-07
*RES
1 *1228:Y *119:8 46.2265 
2 *119:8 *1487:D 41.3527 
*END

*D_NET *120 3.78624e-05
*CONN
*I *1488:D I *D DFFHQNx1_ASAP7_75t_SL
*I *1251:Y O *D OA211x2_ASAP7_75t_SL
*CAP
1 *1488:D 1.19269e-05
2 *1251:Y 3.89207e-06
3 *120:8 1.5819e-05
4 *1488:D *859:67 1.02506e-06
5 *120:8 *349:12 1.09842e-06
6 *120:8 *867:41 4.1009e-06
*RES
1 *1251:Y *120:8 37.779 
2 *120:8 *1488:D 39.2134 
*END

*D_NET *121 6.20804e-05
*CONN
*I *1489:D I *D DFFHQNx1_ASAP7_75t_SL
*I *1261:Y O *D OA211x2_ASAP7_75t_SL
*CAP
1 *1489:D 4.47746e-06
2 *1261:Y 1.7035e-05
3 *121:10 2.15124e-05
4 *121:10 *1490:CLK 1.3988e-05
5 *121:10 *361:20 9.425e-07
6 *121:10 *364:8 3.54011e-06
7 *121:10 *867:70 5.84952e-07
*RES
1 *1261:Y *121:10 43.6621 
2 *121:10 *1489:D 36.0045 
*END

*D_NET *122 3.6295e-05
*CONN
*I *1490:D I *D DFFHQNx1_ASAP7_75t_SL
*I *1269:Y O *D OA211x2_ASAP7_75t_SL
*CAP
1 *1490:D 7.16258e-06
2 *1269:Y 6.78607e-06
3 *122:8 1.39487e-05
4 *122:8 *364:8 0
5 *122:8 *372:10 8.39766e-06
6 *122:8 *867:62 0
*RES
1 *1269:Y *122:8 41.158 
2 *122:8 *1490:D 38.1438 
*END

*D_NET *123 9.30196e-06
*CONN
*I *1491:D I *D DFFHQNx1_ASAP7_75t_SL
*I *1277:Y O *D OA211x2_ASAP7_75t_SL
*CAP
1 *1491:D 0
2 *1277:Y 4.25896e-06
3 *123:8 4.25896e-06
4 *123:8 *708:67 7.84037e-07
*RES
1 *1277:Y *123:8 37.779 
2 *123:8 *1491:D 34.4 
*END

*D_NET *124 3.14864e-05
*CONN
*I *1492:D I *D DFFHQNx1_ASAP7_75t_SL
*I *1291:Y O *D AO32x1_ASAP7_75t_SL
*CAP
1 *1492:D 0
2 *1291:Y 1.57432e-05
3 *124:10 1.57432e-05
*RES
1 *1291:Y *124:10 41.5228 
2 *124:10 *1492:D 34.4 
*END

*D_NET *125 0.000114215
*CONN
*I *1493:D I *D DFFHQNx1_ASAP7_75t_SL
*I *1300:Y O *D OA211x2_ASAP7_75t_SL
*CAP
1 *1493:D 0
2 *1300:Y 9.22486e-06
3 *125:14 4.64211e-05
4 *125:10 5.5646e-05
5 *125:10 *1300:C 2.28976e-06
6 *44:8 *125:10 6.33206e-07
7 *49:8 *125:10 0
*RES
1 *1300:Y *125:10 39.3835 
2 *125:10 *125:14 39.1278 
3 *125:14 *1493:D 17.2 
*END

*D_NET *126 2.18423e-05
*CONN
*I *1494:D I *D DFFHQNx1_ASAP7_75t_SL
*I *1312:Y O *D AND3x1_ASAP7_75t_SL
*CAP
1 *1494:D 0
2 *1312:Y 7.72161e-06
3 *126:10 7.72161e-06
4 *126:10 *1312:B 2.28976e-06
5 *126:10 *859:113 4.10928e-06
*RES
1 *1312:Y *126:10 39.3835 
2 *126:10 *1494:D 34.4 
*END

*D_NET *127 4.72089e-05
*CONN
*I *1495:D I *D DFFHQNx1_ASAP7_75t_SL
*I *1322:Y O *D AND3x1_ASAP7_75t_SL
*CAP
1 *1495:D 0
2 *1322:Y 1.52431e-05
3 *127:10 1.52431e-05
4 *127:10 *407:10 3.90551e-06
5 *127:10 *412:12 2.12481e-06
6 *127:10 *709:6 5.85387e-06
7 *127:10 *709:12 4.83862e-06
*RES
1 *1322:Y *127:10 46.1415 
2 *127:10 *1495:D 34.4 
*END

*D_NET *128 5.16218e-05
*CONN
*I *1496:D I *D DFFHQNx1_ASAP7_75t_SL
*I *1330:Y O *D AND4x1_ASAP7_75t_SL
*CAP
1 *1496:D 1.88959e-05
2 *1330:Y 4.94156e-06
3 *128:8 2.38375e-05
4 *1496:D *856:21 3.94687e-06
5 *128:8 *452:10 0
6 *128:8 *857:10 0
*RES
1 *1330:Y *128:8 37.779 
2 *128:8 *1496:D 42.4224 
*END

*D_NET *129 9.99731e-05
*CONN
*I *1497:D I *D DFFHQNx2_ASAP7_75t_SL
*I *1335:Y O *D OA21x2_ASAP7_75t_SL
*CAP
1 *1497:D 0
2 *1335:Y 5.69073e-06
3 *129:12 4.36927e-05
4 *129:8 4.93834e-05
5 *129:8 *302:8 4.84697e-07
6 *129:8 *819:20 7.21596e-07
7 *91:8 *129:12 0
*RES
1 *1335:Y *129:8 37.779 
2 *129:8 *129:12 34.8492 
3 *129:12 *1497:D 17.2 
*END

*D_NET *130 9.15138e-05
*CONN
*I *1498:D I *D DFFHQNx1_ASAP7_75t_SL
*I *1339:Y O *D OA211x2_ASAP7_75t_SL
*CAP
1 *1498:D 1.8492e-05
2 *1339:Y 2.21302e-05
3 *130:8 4.06222e-05
4 *1498:D *860:122 1.12894e-06
5 *1498:D *864:8 6.33206e-06
6 *130:8 *357:6 0
7 *130:8 *865:69 2.28884e-06
8 *130:8 *865:75 5.19552e-07
9 *40:18 *1498:D 0
*RES
1 *1339:Y *130:8 43.492 
2 *130:8 *1498:D 46.2265 
*END

*D_NET *131 5.61365e-05
*CONN
*I *1499:D I *D DFFHQNx1_ASAP7_75t_SL
*I *1346:Y O *D OA21x2_ASAP7_75t_SL
*CAP
1 *1499:D 4.15277e-06
2 *1346:Y 1.15207e-05
3 *131:8 1.56735e-05
4 *131:8 *860:122 9.8079e-06
5 *131:8 *864:23 1.49816e-05
*RES
1 *1346:Y *131:8 46.2265 
2 *131:8 *1499:D 36.0045 
*END

*D_NET *132 0.000281758
*CONN
*I *1500:D I *D DFFHQNx2_ASAP7_75t_SL
*I *1354:Y O *D AOI21x1_ASAP7_75t_SL
*CAP
1 *1500:D 0
2 *1354:Y 3.83659e-06
3 *132:10 6.83875e-05
4 *132:8 7.22241e-05
5 *132:8 *819:42 2.20493e-06
6 *132:10 *1378:B 0
7 *132:10 *134:8 1.52833e-05
8 *132:10 *183:10 0
9 *132:10 *183:14 0
10 *132:10 *346:12 8.06436e-06
11 *132:10 *462:10 9.49065e-05
12 *132:10 *692:27 0
13 *132:10 *708:29 1.67893e-05
14 *132:10 *860:92 0
15 *132:10 *865:87 6.10236e-08
16 *35:12 *132:10 0
*RES
1 *1354:Y *132:8 36.0045 
2 *132:8 *132:10 62.5114 
3 *132:10 *1500:D 34.4 
*END

*D_NET *133 8.77388e-05
*CONN
*I *1501:D I *D DFFHQNx1_ASAP7_75t_SL
*I *1364:Y O *D OA21x2_ASAP7_75t_SL
*CAP
1 *1501:D 0
2 *1364:Y 4.567e-06
3 *133:14 2.6514e-05
4 *133:8 3.1081e-05
5 *133:14 *1501:CLK 5.58366e-06
6 *133:14 *439:17 1.44292e-05
7 *133:14 *453:8 0
8 *133:14 *796:54 3.05118e-08
9 *133:14 *797:60 5.53343e-06
10 *36:24 *133:14 0
*RES
1 *1364:Y *133:8 36.0045 
2 *133:8 *133:14 36.2626 
3 *133:14 *1501:D 17.2 
*END

*D_NET *134 4.03613e-05
*CONN
*I *1502:D I *D DFFHQNx1_ASAP7_75t_SL
*I *1375:Y O *D OA211x2_ASAP7_75t_SL
*CAP
1 *1502:D 0
2 *1375:Y 1.2539e-05
3 *134:8 1.2539e-05
4 *134:8 *183:10 0
5 *132:10 *134:8 1.52833e-05
*RES
1 *1375:Y *134:8 46.2265 
2 *134:8 *1502:D 34.4 
*END

*D_NET *135 0.000184246
*CONN
*I *1503:D I *D DFFHQNx2_ASAP7_75t_SL
*I *1385:Y O *D AO22x1_ASAP7_75t_SL
*CAP
1 *1503:D 0
2 *1385:Y 3.87498e-06
3 *135:10 4.02077e-05
4 *135:8 4.40827e-05
5 *135:8 *819:46 0
6 *135:10 *183:10 2.98814e-07
7 *135:10 *357:20 7.68038e-05
8 *135:10 *692:27 2.22736e-06
9 *135:10 *797:10 6.10236e-07
10 *135:10 *797:12 4.45472e-06
11 *135:10 *797:14 1.1686e-05
*RES
1 *1385:Y *135:8 36.0045 
2 *135:8 *135:10 37.169 
3 *135:10 *1503:D 34.4 
*END

*D_NET *136 4.58921e-05
*CONN
*I *1504:D I *D DFFHQNx1_ASAP7_75t_SL
*I *1392:Y O *D AO22x1_ASAP7_75t_SL
*CAP
1 *1504:D 1.80674e-05
2 *1392:Y 1.80674e-05
3 *1504:D *388:54 0
4 *1504:D *860:26 7.55242e-06
5 *1504:D *860:30 2.20493e-06
*RES
1 *1392:Y *1504:D 43.492 
*END

*D_NET *137 0.000144075
*CONN
*I *1505:D I *D DFFHQNx1_ASAP7_75t_SL
*I *1400:Y O *D OR3x1_ASAP7_75t_SL
*CAP
1 *1505:D 0
2 *1400:Y 1.57604e-05
3 *137:12 3.144e-05
4 *137:8 4.72004e-05
5 *137:8 *268:56 1.15918e-05
6 *137:12 *285:28 1.49407e-08
7 *137:12 *351:10 8.77358e-06
8 *137:12 *351:23 3.05118e-08
9 *137:12 *436:10 2.85907e-05
10 *33:12 *137:12 6.72662e-07
*RES
1 *1400:Y *137:8 42.4224 
2 *137:8 *137:12 43.1056 
3 *137:12 *1505:D 17.2 
*END

*D_NET *138 3.57321e-05
*CONN
*I *1506:D I *D DFFHQNx1_ASAP7_75t_SL
*I *1401:Y O *D OR2x2_ASAP7_75t_SL
*CAP
1 *1506:D 1.22706e-05
2 *1401:Y 5.31904e-06
3 *138:8 1.75897e-05
4 *138:8 *836:89 5.52807e-07
*RES
1 *1401:Y *138:8 37.779 
2 *138:8 *1506:D 39.2134 
*END

*D_NET *139 3.38254e-05
*CONN
*I *1507:D I *D DFFHQNx2_ASAP7_75t_SL
*I *1412:Y O *D OA211x2_ASAP7_75t_SL
*CAP
1 *1507:D 0
2 *1412:Y 9.71573e-06
3 *139:8 9.71573e-06
4 *139:8 *818:20 3.16603e-06
5 *139:8 *818:26 5.1866e-06
6 *139:8 *820:70 2.83874e-07
7 *139:8 *871:20 4.97342e-06
8 *72:12 *139:8 7.84037e-07
*RES
1 *1412:Y *139:8 43.4107 
2 *139:8 *1507:D 34.4 
*END

*D_NET *140 1.96462e-05
*CONN
*I *1508:D I *D DFFHQNx2_ASAP7_75t_SL
*I *1419:Y O *D OA21x2_ASAP7_75t_SL
*CAP
1 *1508:D 3.73918e-06
2 *1419:Y 5.63283e-06
3 *140:8 9.37202e-06
4 *140:8 *818:30 0
5 *140:8 *820:275 2.68933e-07
6 *73:18 *140:8 6.33206e-07
*RES
1 *1419:Y *140:8 37.779 
2 *140:8 *1508:D 36.0045 
*END

*D_NET *141 0.000129376
*CONN
*I *1509:D I *D DFFHQNx1_ASAP7_75t_SL
*I *1424:Y O *D OA21x2_ASAP7_75t_SL
*CAP
1 *1509:D 0
2 *1424:Y 7.9778e-06
3 *141:12 2.49691e-05
4 *141:8 3.29469e-05
5 *141:8 *236:27 9.02011e-06
6 *141:8 *676:10 3.56395e-06
7 *141:8 *790:10 7.64042e-07
8 *141:12 *225:12 1.47201e-06
9 *141:12 *820:22 2.73315e-05
10 *141:12 *820:39 2.13304e-05
*RES
1 *1424:Y *141:8 42.2843 
2 *141:8 *141:12 33.7796 
3 *141:12 *1509:D 17.2 
*END

*D_NET *142 5.65254e-05
*CONN
*I *1510:D I *D DFFHQNx1_ASAP7_75t_SL
*I *1429:Y O *D OA211x2_ASAP7_75t_SL
*CAP
1 *1510:D 1.77368e-05
2 *1429:Y 3.8038e-06
3 *142:8 2.15406e-05
4 *1510:D *1510:CLK 3.80219e-06
5 *142:8 *714:10 9.6421e-06
*RES
1 *1429:Y *142:8 37.779 
2 *142:8 *1510:D 41.3527 
*END

*D_NET *143 7.60532e-05
*CONN
*I *1511:D I *D DFFHQNx1_ASAP7_75t_SL
*I *1432:Y O *D OA211x2_ASAP7_75t_SL
*CAP
1 *1511:D 2.77025e-05
2 *1432:Y 2.77025e-05
3 *1511:D *1511:CLK 2.06482e-05
*RES
1 *1432:Y *1511:D 46.701 
*END

*D_NET *144 0.000101071
*CONN
*I *1512:D I *D DFFHQNx1_ASAP7_75t_SL
*I *1113:Y O *D OA21x2_ASAP7_75t_SL
*CAP
1 *1512:D 0
2 *1113:Y 3.88117e-06
3 *144:12 4.13649e-05
4 *144:8 4.5246e-05
5 *144:8 *678:43 9.94583e-06
6 *144:8 *871:110 6.33206e-07
7 *29:6 *144:12 0
*RES
1 *1113:Y *144:8 37.779 
2 *144:8 *144:12 34.8492 
3 *144:12 *1512:D 17.2 
*END

*D_NET *145 5.43016e-05
*CONN
*I *1513:D I *D DFFHQNx1_ASAP7_75t_SL
*I *1117:Y O *D OA21x2_ASAP7_75t_SL
*CAP
1 *1513:D 0
2 *1117:Y 1.81603e-05
3 *145:10 1.81603e-05
4 *145:10 *1117:A2 2.28976e-06
5 *145:10 *1117:B 2.80709e-06
6 *145:10 *678:43 1.28841e-05
*RES
1 *1117:Y *145:10 47.831 
2 *145:10 *1513:D 34.4 
*END

*D_NET *146 0.000104539
*CONN
*I *1514:D I *D DFFHQNx1_ASAP7_75t_SL
*I *1121:Y O *D OA21x2_ASAP7_75t_SL
*CAP
1 *1514:D 0
2 *1121:Y 4.90143e-06
3 *146:12 4.54683e-05
4 *146:8 5.03697e-05
5 *146:8 *875:55 0
6 *146:8 *875:74 3.79923e-06
*RES
1 *1121:Y *146:8 37.779 
2 *146:8 *146:12 36.9885 
3 *146:12 *1514:D 17.2 
*END

*D_NET *147 9.01931e-05
*CONN
*I *1515:D I *D DFFHQNx1_ASAP7_75t_SL
*I *1125:Y O *D OA21x2_ASAP7_75t_SL
*CAP
1 *1515:D 1.91988e-05
2 *1125:Y 1.2863e-05
3 *147:10 3.20617e-05
4 *1515:D *678:39 3.56648e-06
5 *147:10 *249:12 5.17782e-06
6 *147:10 *678:39 8.8135e-06
7 *147:10 *713:133 4.10928e-06
8 *147:10 *713:156 4.40256e-06
*RES
1 *1125:Y *147:10 44.9018 
2 *147:10 *1515:D 45.6313 
*END

*D_NET *148 8.84077e-05
*CONN
*I *1516:D I *D DFFHQNx1_ASAP7_75t_SL
*I *1129:Y O *D OA21x2_ASAP7_75t_SL
*CAP
1 *1516:D 0
2 *1129:Y 4.69008e-06
3 *148:12 3.76142e-05
4 *148:8 4.23042e-05
5 *148:8 *871:82 0
6 *148:8 *875:42 3.79923e-06
*RES
1 *1129:Y *148:8 37.779 
2 *148:8 *148:12 34.8492 
3 *148:12 *1516:D 17.2 
*END

*D_NET *149 5.70759e-05
*CONN
*I *1517:D I *D DFFHQNx1_ASAP7_75t_SL
*I *1133:Y O *D OA21x2_ASAP7_75t_SL
*CAP
1 *1517:D 2.26979e-05
2 *1133:Y 5.53493e-06
3 *149:8 2.82328e-05
4 *149:8 *254:10 0
5 *149:8 *874:51 6.10236e-07
*RES
1 *1133:Y *149:8 37.779 
2 *149:8 *1517:D 42.4224 
*END

*D_NET *150 0.00017261
*CONN
*I *1518:D I *D DFFHQNx1_ASAP7_75t_SL
*I *1137:Y O *D OA21x2_ASAP7_75t_SL
*CAP
1 *1518:D 3.13136e-05
2 *1137:Y 0
3 *150:10 5.13621e-05
4 *150:6 2.00485e-05
5 *1518:D *871:63 1.96943e-05
6 *150:10 *253:8 1.89221e-05
7 *150:10 *256:8 1.59854e-05
8 *150:10 *258:10 1.4826e-06
9 *150:10 *713:50 1.30801e-05
10 *150:10 *871:59 0
11 *22:27 *150:10 7.21451e-07
*RES
1 *1137:Y *150:6 34.4 
2 *150:6 *150:10 37.474 
3 *150:10 *1518:D 32.7099 
*END

*D_NET *151 6.74161e-05
*CONN
*I *1519:D I *D DFFHQNx1_ASAP7_75t_SL
*I *1141:Y O *D OA21x2_ASAP7_75t_SL
*CAP
1 *1519:D 1.81926e-05
2 *1141:Y 1.34693e-05
3 *151:10 3.16618e-05
4 *1519:D *818:81 4.09246e-06
*RES
1 *1141:Y *151:10 40.4531 
2 *151:10 *1519:D 42.4224 
*END

*D_NET *152 3.12689e-05
*CONN
*I *1520:D I *D DFFHQNx1_ASAP7_75t_SL
*I *1144:Y O *D OA21x2_ASAP7_75t_SL
*CAP
1 *1520:D 6.95478e-06
2 *1144:Y 4.39575e-06
3 *152:8 1.13505e-05
4 *1520:D *818:34 6.7842e-07
5 *1520:D *818:60 4.18905e-06
6 *152:8 *818:30 3.7004e-06
*RES
1 *1144:Y *152:8 37.779 
2 *152:8 *1520:D 37.0741 
*END

*D_NET *153 6.40892e-05
*CONN
*I *1521:D I *D DFFHQNx2_ASAP7_75t_SL
*I *1438:Y O *D OA21x2_ASAP7_75t_SL
*CAP
1 *1521:D 6.65942e-06
2 *1438:Y 1.57302e-05
3 *153:8 2.23896e-05
4 *1521:D *818:124 1.21211e-05
5 *153:8 *820:310 2.73415e-06
6 *77:14 *153:8 0
7 *77:22 *153:8 4.45472e-06
*RES
1 *1438:Y *153:8 46.2265 
2 *153:8 *1521:D 38.1438 
*END

*D_NET *154 9.61734e-05
*CONN
*I *1522:D I *D DFFHQNx1_ASAP7_75t_SL
*I *1452:Y O *D OA211x2_ASAP7_75t_SL
*CAP
1 *1522:D 3.57757e-05
2 *1452:Y 1.0732e-05
3 *154:8 4.65077e-05
4 *154:8 *525:20 2.45021e-07
5 *154:8 *701:21 2.91303e-06
*RES
1 *1452:Y *154:8 43.4107 
2 *154:8 *1522:D 48.8403 
*END

*D_NET *155 1.73199e-05
*CONN
*I *1523:D I *D DFFHQNx1_ASAP7_75t_SL
*I *904:Y O *D AO32x2_ASAP7_75t_SL
*CAP
1 *1523:D 3.35735e-06
2 *904:Y 4.92347e-06
3 *155:8 8.28082e-06
4 *1523:D *918:B1 7.58265e-07
5 *155:8 *548:10 0
6 *155:8 *854:20 0
*RES
1 *904:Y *155:8 37.779 
2 *155:8 *1523:D 36.0045 
*END

*D_NET *156 0.000212798
*CONN
*I *1524:D I *D DFFHQNx1_ASAP7_75t_SL
*I *913:Y O *D OA211x2_ASAP7_75t_SL
*CAP
1 *1524:D 0
2 *913:Y 2.99392e-05
3 *156:18 3.30897e-05
4 *156:14 6.82261e-05
5 *156:8 6.50755e-05
6 *156:8 *913:A2 1.40419e-08
7 *156:8 *541:14 8.57464e-06
8 *156:14 *854:36 5.97063e-06
9 *156:14 *854:40 1.908e-06
10 *17:10 *156:18 0
*RES
1 *913:Y *156:8 46.701 
2 *156:8 *156:14 36.7654 
3 *156:14 *156:18 43.1056 
4 *156:18 *1524:D 34.4 
*END

*D_NET *157 0.000133174
*CONN
*I *1525:D I *D DFFHQNx1_ASAP7_75t_SL
*I *918:Y O *D AO32x2_ASAP7_75t_SL
*CAP
1 *1525:D 0
2 *918:Y 6.65869e-05
3 *157:6 6.65869e-05
4 *17:8 *157:6 0
*RES
1 *918:Y *157:6 45.5457 
2 *157:6 *1525:D 17.2 
*END

*D_NET *158 4.01646e-05
*CONN
*I *1526:D I *D DFFHQNx1_ASAP7_75t_SL
*I *927:Y O *D OA211x2_ASAP7_75t_SL
*CAP
1 *1526:D 1.11932e-05
2 *927:Y 3.71052e-06
3 *158:8 1.49037e-05
4 *158:8 *555:14 9.8079e-06
5 *158:8 *556:12 5.49212e-07
*RES
1 *927:Y *158:8 37.779 
2 *158:8 *1526:D 39.2134 
*END

*D_NET *159 3.93602e-05
*CONN
*I *1527:D I *D DFFHQNx1_ASAP7_75t_SL
*I *935:Y O *D OA211x2_ASAP7_75t_SL
*CAP
1 *1527:D 1.30295e-05
2 *935:Y 5.36367e-06
3 *159:8 1.83931e-05
4 *1527:D *728:60 2.03608e-06
5 *159:8 *575:16 0
6 *15:10 *159:8 2.68933e-07
7 *15:12 *159:8 2.68933e-07
*RES
1 *935:Y *159:8 37.779 
2 *159:8 *1527:D 40.2831 
*END

*D_NET *160 0.000169227
*CONN
*I *1528:D I *D DFFHQNx1_ASAP7_75t_SL
*I *943:Y O *D AO21x2_ASAP7_75t_SL
*CAP
1 *1528:D 0
2 *943:Y 9.40506e-06
3 *160:14 3.27049e-05
4 *160:8 4.211e-05
5 *160:14 *941:A 3.28023e-07
6 *160:14 *941:D 3.05617e-06
7 *160:14 *943:B 3.47914e-05
8 *160:14 *226:12 0
9 *160:14 *226:20 3.54011e-06
10 *160:14 *525:8 0
11 *160:14 *567:10 1.45247e-05
12 *160:14 *783:16 4.91537e-06
13 *160:14 *783:31 2.38516e-05
*RES
1 *943:Y *160:8 38.1438 
2 *160:8 *160:14 47.5259 
3 *160:14 *1528:D 17.2 
*END

*D_NET *161 7.83572e-05
*CONN
*I *1529:D I *D DFFHQNx1_ASAP7_75t_SL
*I *949:Y O *D AO22x2_ASAP7_75t_SL
*CAP
1 *1529:D 1.99813e-05
2 *949:Y 1.99813e-05
3 *1529:D *827:100 1.91973e-05
4 *1529:D *827:106 1.91973e-05
*RES
1 *949:Y *1529:D 43.492 
*END

*D_NET *162 2.33959e-05
*CONN
*I *1530:D I *D DFFHQNx1_ASAP7_75t_SL
*I *954:Y O *D AO22x2_ASAP7_75t_SL
*CAP
1 *1530:D 0
2 *954:Y 1.49078e-06
3 *162:8 1.49078e-06
4 *162:8 *881:10 1.02072e-05
5 *14:23 *162:8 1.02072e-05
*RES
1 *954:Y *162:8 37.779 
2 *162:8 *1530:D 34.4 
*END

*D_NET *163 0.000111933
*CONN
*I *1531:D I *D DFFHQNx1_ASAP7_75t_SL
*I *958:Y O *D OA21x2_ASAP7_75t_SL
*CAP
1 *1531:D 0
2 *958:Y 5.6188e-06
3 *163:12 4.99159e-05
4 *163:8 5.55347e-05
5 *163:8 *820:302 2.83874e-07
6 *78:12 *163:8 5.79724e-07
*RES
1 *958:Y *163:8 37.779 
2 *163:8 *163:12 38.0582 
3 *163:12 *1531:D 17.2 
*END

*D_NET *164 2.82258e-05
*CONN
*I *1532:D I *D DFFHQNx1_ASAP7_75t_SL
*I *961:Y O *D AND3x1_ASAP7_75t_SL
*CAP
1 *1532:D 7.22283e-06
2 *961:Y 5.06177e-06
3 *164:8 1.22846e-05
4 *1532:D *220:12 3.65663e-06
5 *164:8 *583:10 0
6 *164:8 *663:70 0
*RES
1 *961:Y *164:8 37.779 
2 *164:8 *1532:D 38.1438 
*END

*D_NET *165 3.43097e-05
*CONN
*I *1533:D I *D DFFHQNx1_ASAP7_75t_SL
*I *967:Y O *D AOI211x1_ASAP7_75t_SL
*CAP
1 *1533:D 1.14049e-05
2 *967:Y 5.60802e-06
3 *165:8 1.70129e-05
4 *165:8 *585:10 2.83874e-07
5 *165:8 *777:10 0
*RES
1 *967:Y *165:8 37.779 
2 *165:8 *1533:D 39.2134 
*END

*D_NET *166 2.52141e-05
*CONN
*I *1534:D I *D DFFHQNx1_ASAP7_75t_SL
*I *974:Y O *D OA21x2_ASAP7_75t_SL
*CAP
1 *1534:D 0
2 *974:Y 1.00071e-05
3 *166:10 1.00071e-05
4 *166:10 *775:43 4.10928e-06
5 *166:10 *888:20 1.09067e-06
*RES
1 *974:Y *166:10 40.4531 
2 *166:10 *1534:D 34.4 
*END

*D_NET *167 4.07728e-05
*CONN
*I *1535:D I *D DFFHQNx1_ASAP7_75t_SL
*I *981:Y O *D AOI21x1_ASAP7_75t_SL
*CAP
1 *1535:D 0
2 *981:Y 1.84783e-05
3 *167:10 1.84783e-05
4 *167:10 *978:B 0
5 *167:10 *529:99 0
6 *167:10 *598:38 3.81627e-06
*RES
1 *981:Y *167:10 43.6621 
2 *167:10 *1535:D 34.4 
*END

*D_NET *168 4.26243e-05
*CONN
*I *1536:D I *D DFFHQNx1_ASAP7_75t_SL
*I *987:Y O *D OA211x2_ASAP7_75t_SL
*CAP
1 *1536:D 4.15277e-06
2 *987:Y 1.2146e-05
3 *168:8 1.62988e-05
4 *168:8 *216:10 3.76935e-06
5 *168:8 *606:14 5.97352e-06
6 *168:8 *820:336 2.83874e-07
*RES
1 *987:Y *168:8 43.4107 
2 *168:8 *1536:D 36.0045 
*END

*D_NET *169 3.08289e-05
*CONN
*I *1537:D I *D DFFHQNx1_ASAP7_75t_SL
*I *994:Y O *D OA21x2_ASAP7_75t_SL
*CAP
1 *1537:D 9.73983e-06
2 *994:Y 5.67462e-06
3 *169:8 1.54145e-05
*RES
1 *994:Y *169:8 37.779 
2 *169:8 *1537:D 38.1438 
*END

*D_NET *170 5.07685e-05
*CONN
*I *1538:D I *D DFFHQNx1_ASAP7_75t_SL
*I *1003:Y O *D AOI211x1_ASAP7_75t_SL
*CAP
1 *1538:D 0
2 *1003:Y 1.88041e-05
3 *170:10 1.88041e-05
4 *170:10 *1003:C 1.56713e-06
5 *170:10 *820:121 9.30483e-06
6 *170:10 *820:123 2.28839e-06
7 *170:10 *823:73 0
*RES
1 *1003:Y *170:10 46.9277 
2 *170:10 *1538:D 34.4 
*END

*D_NET *171 9.82418e-06
*CONN
*I *1539:D I *D DFFHQNx1_ASAP7_75t_SL
*I *1010:Y O *D AO32x2_ASAP7_75t_SL
*CAP
1 *1539:D 0
2 *1010:Y 3.79841e-06
3 *171:8 3.79841e-06
4 *171:8 *501:57 0
5 *171:8 *619:10 2.22736e-06
*RES
1 *1010:Y *171:8 37.779 
2 *171:8 *1539:D 34.4 
*END

*D_NET *172 0.000119126
*CONN
*I *1540:D I *D DFFHQNx1_ASAP7_75t_SL
*I *1014:Y O *D AND5x1_ASAP7_75t_SL
*CAP
1 *1540:D 2.0494e-05
2 *1014:Y 4.41865e-06
3 *172:8 2.49127e-05
4 *1540:D *876:16 1.57738e-05
5 *172:8 *1420:A 1.84303e-05
6 *172:8 *1670:A 8.33296e-06
7 *172:8 *629:8 2.67633e-05
*RES
1 *1014:Y *172:8 43.4107 
2 *172:8 *1540:D 45.6313 
*END

*D_NET *173 7.5009e-05
*CONN
*I *1541:D I *D DFFHQNx1_ASAP7_75t_SL
*I *1018:Y O *D NAND2x1_ASAP7_75t_SL
*CAP
1 *1541:D 1.87274e-05
2 *1018:Y 7.17149e-06
3 *173:8 2.58989e-05
4 *173:8 *524:65 2.32112e-05
*RES
1 *1018:Y *173:8 42.2843 
2 *173:8 *1541:D 43.492 
*END

*D_NET *174 9.41921e-05
*CONN
*I *1044:A1 I *D OA211x2_ASAP7_75t_SL
*I *1738:A I *D BUFx3_ASAP7_75t_SL
*I *1038:Y O *D INVx1_ASAP7_75t_SL
*CAP
1 *1044:A1 0
2 *1738:A 0
3 *1038:Y 7.14711e-06
4 *174:27 1.04279e-05
5 *174:12 1.91254e-05
6 *174:8 1.58446e-05
7 *174:8 *289:12 0
8 *174:8 *707:10 0
9 *174:12 *180:16 6.78445e-06
10 *174:27 *180:10 1.30408e-05
11 *174:27 *180:16 2.03526e-06
12 *174:27 *289:12 1.96744e-05
13 *1:51 *174:8 1.1211e-07
*RES
1 *1038:Y *174:8 38.9053 
2 *174:8 *174:12 23.0831 
3 *174:12 *1738:A 17.2 
4 *174:12 *174:27 43.8321 
5 *174:27 *1044:A1 17.2 
*END

*D_NET *175 0.000217678
*CONN
*P tx_busy O
*I *1039:Y O *D BUFx2_ASAP7_75t_SL
*CAP
1 tx_busy 3.38057e-05
2 *1039:Y 6.80408e-05
3 *175:12 4.07982e-05
4 *175:6 7.50333e-05
*RES
1 *1039:Y *175:6 46.6154 
2 *175:6 *175:12 38.8115 
3 *175:12 tx_busy 17.5856 
*END

*D_NET *176 0.000427031
*CONN
*I *1688:A I *D BUFx3_ASAP7_75t_SL
*I *1044:B I *D OA211x2_ASAP7_75t_SL
*I *1872:A I *D BUFx3_ASAP7_75t_SL
*I *1040:Y O *D NAND2x1_ASAP7_75t_SL
*CAP
1 *1688:A 3.85716e-06
2 *1044:B 3.95775e-06
3 *1872:A 0
4 *1040:Y 2.90034e-06
5 *176:22 2.46916e-05
6 *176:16 2.86494e-05
7 *176:14 5.20991e-05
8 *176:10 8.10277e-05
9 *176:8 2.79718e-05
10 *1044:B *180:10 2.66797e-07
11 *1044:B *289:12 1.34532e-06
12 *1044:B *663:83 3.05118e-08
13 *1688:A *212:10 6.33206e-07
14 *1688:A *769:126 0
15 *176:8 *299:8 5.19475e-06
16 *176:10 *179:20 1.31716e-05
17 *176:10 *179:26 0
18 *176:10 *271:10 2.24484e-06
19 *176:10 *720:10 0
20 *176:10 *809:41 3.31794e-05
21 *176:10 *866:10 1.10561e-06
22 *176:14 *1044:C 5.51397e-07
23 *176:14 *179:32 5.21445e-05
24 *176:14 *180:10 0
25 *176:14 *212:10 7.58265e-07
26 *176:14 *212:14 7.55242e-06
27 *176:22 *272:6 3.76449e-05
28 *176:22 *289:12 6.6421e-06
29 *176:22 *290:8 1.49407e-08
30 *176:22 *663:83 4.51575e-06
31 *176:22 *744:23 3.09382e-05
32 *176:22 *744:31 3.94177e-06
33 *176:22 *744:37 0
*RES
1 *1040:Y *176:8 36.0045 
2 *176:8 *176:10 20.274 
3 *176:10 *176:14 44.4761 
4 *176:14 *176:16 17.2 
5 *176:16 *176:22 41.3841 
6 *176:22 *1872:A 17.2 
7 *176:16 *1044:B 37.694 
8 *176:10 *1688:A 37.2158 
*END

*D_NET *177 0.000191171
*CONN
*P s_axis_tready O
*I *1041:Y O *D BUFx2_ASAP7_75t_SL
*CAP
1 s_axis_tready 2.20713e-05
2 *1041:Y 5.21776e-05
3 *177:10 4.34077e-05
4 *177:6 7.3514e-05
*RES
1 *1041:Y *177:6 42.3368 
2 *177:6 *177:10 34.5643 
3 *177:10 s_axis_tready 40.5791 
*END

*D_NET *178 9.59018e-05
*CONN
*P rx_overrun_error O
*I *1042:Y O *D BUFx2_ASAP7_75t_SL
*CAP
1 rx_overrun_error 4.45831e-05
2 *1042:Y 3.36783e-06
3 *178:8 4.79509e-05
4 rx_overrun_error *332:9 0
5 *1:8 *178:8 0
*RES
1 *1042:Y *178:8 36.9342 
2 *178:8 rx_overrun_error 40.6294 
*END

*D_NET *179 0.000745388
*CONN
*I *1737:A I *D BUFx3_ASAP7_75t_SL
*I *1044:C I *D OA211x2_ASAP7_75t_SL
*I *1043:Y O *D AND2x4_ASAP7_75t_SL
*CAP
1 *1737:A 0
2 *1044:C 3.04009e-06
3 *1043:Y 0
4 *179:32 1.64645e-05
5 *179:26 2.70025e-05
6 *179:20 2.92603e-05
7 *179:12 0.000194475
8 *179:10 0.000198572
9 *179:6 1.97792e-05
10 *1044:C *180:10 2.79851e-06
11 *179:10 *836:95 0
12 *179:10 *861:82 0
13 *179:12 *272:6 5.00816e-06
14 *179:12 *692:125 1.85565e-05
15 *179:12 *711:50 2.93253e-06
16 *179:12 *759:6 6.87208e-05
17 *179:20 *1081:A 5.09299e-06
18 *179:20 *769:126 1.02506e-06
19 *179:20 *866:10 1.12894e-06
20 *179:26 *209:28 6.33206e-07
21 *179:26 *769:12 3.80761e-06
22 *179:26 *866:10 1.12894e-06
23 *179:32 *212:14 3.78646e-05
24 *179:32 *663:83 7.53304e-06
25 *179:32 *770:12 7.31605e-06
26 *118:12 *179:10 2.73812e-05
27 *176:10 *179:20 1.31716e-05
28 *176:10 *179:26 0
29 *176:14 *1044:C 5.51397e-07
30 *176:14 *179:32 5.21445e-05
*RES
1 *1043:Y *179:6 34.4 
2 *179:6 *179:10 34.6581 
3 *179:10 *179:12 76.48 
4 *179:12 *179:20 45.8581 
5 *179:20 *179:26 43.4107 
6 *179:26 *179:32 35.5258 
7 *179:32 *1044:C 36.5393 
8 *179:20 *1737:A 17.2 
*END

*D_NET *180 0.000644652
*CONN
*I *1667:A I *D BUFx6f_ASAP7_75t_SL
*I *1248:D I *D AND4x2_ASAP7_75t_SL
*I *1044:Y O *D OA211x2_ASAP7_75t_SL
*CAP
1 *1667:A 7.57259e-06
2 *1248:D 0
3 *1044:Y 2.11595e-05
4 *180:37 3.20715e-05
5 *180:22 2.42348e-05
6 *180:20 2.42348e-05
7 *180:18 4.89135e-05
8 *180:16 3.15089e-05
9 *180:10 2.82538e-05
10 *1667:A *869:14 1.84022e-05
11 *180:10 *289:12 2.84286e-06
12 *180:10 *663:83 3.3563e-06
13 *180:16 *264:45 8.146e-06
14 *180:18 *264:39 2.17659e-05
15 *180:18 *264:45 4.94402e-05
16 *180:18 *289:12 5.52807e-07
17 *180:18 *707:10 0
18 *180:22 *1248:B 2.28976e-06
19 *180:22 *1248:C 7.35354e-06
20 *180:22 *268:56 0.000148238
21 *180:22 *663:95 0.000120105
22 *180:37 *186:74 3.74016e-08
23 *180:37 *264:39 1.30044e-05
24 *180:37 *268:54 6.24249e-06
25 *180:37 *304:8 0
26 *1044:B *180:10 2.66797e-07
27 *1044:C *180:10 2.79851e-06
28 *174:12 *180:16 6.78445e-06
29 *174:27 *180:10 1.30408e-05
30 *174:27 *180:16 2.03526e-06
31 *176:14 *180:10 0
*RES
1 *1044:Y *180:10 47.0411 
2 *180:10 *180:16 41.3527 
3 *180:16 *180:18 25.9056 
4 *180:18 *180:20 17.2 
5 *180:20 *180:22 44.3905 
6 *180:22 *1248:D 17.2 
7 *180:18 *180:37 48.1303 
8 *180:37 *1667:A 39.7482 
*END

*D_NET *181 0.000154497
*CONN
*P rx_frame_error O
*I *1045:Y O *D BUFx2_ASAP7_75t_SL
*CAP
1 rx_frame_error 2.4935e-05
2 *1045:Y 1.46742e-05
3 *181:14 3.62956e-05
4 *181:8 2.60348e-05
5 rx_frame_error rx_busy 5.25578e-05
6 *181:8 *182:8 0
*RES
1 *1045:Y *181:8 45.3817 
2 *181:8 *181:14 33.0582 
3 *181:14 rx_frame_error 19.7531 
*END

*D_NET *182 0.000204977
*CONN
*P rx_busy O
*I *1046:Y O *D BUFx2_ASAP7_75t_SL
*CAP
1 rx_busy 2.71435e-05
2 *1046:Y 0
3 *182:14 3.14764e-05
4 *182:8 4.50097e-05
5 *182:6 4.06768e-05
6 *182:8 *665:12 8.11281e-06
7 rx_frame_error rx_busy 5.25578e-05
8 *181:8 *182:8 0
*RES
1 *1046:Y *182:6 34.4 
2 *182:6 *182:8 34.8224 
3 *182:8 *182:14 30.2445 
4 *182:14 rx_busy 20.6648 
*END

*D_NET *183 0.00105377
*CONN
*I *1734:A I *D BUFx3_ASAP7_75t_SL
*I *1735:A I *D BUFx3_ASAP7_75t_SL
*I *1167:A I *D AND2x4_ASAP7_75t_SL
*I *1050:A I *D NAND2x2_ASAP7_75t_SL
*I *1047:Y O *D AND4x2_ASAP7_75t_SL
*CAP
1 *1734:A 0
2 *1735:A 9.99349e-06
3 *1167:A 1.08297e-05
4 *1050:A 1.47924e-05
5 *1047:Y 6.83787e-06
6 *183:61 3.8999e-05
7 *183:46 4.89925e-05
8 *183:44 3.61746e-05
9 *183:20 6.91736e-05
10 *183:18 6.73117e-05
11 *183:14 3.44375e-05
12 *183:10 9.33969e-05
13 *183:8 5.33828e-05
14 *1050:A *1050:B 2.01651e-05
15 *1050:A *185:12 1.10128e-05
16 *1050:A *192:12 3.16603e-07
17 *1050:A *377:23 3.08818e-06
18 *1050:A *430:18 0
19 *1050:A *738:6 2.52755e-07
20 *1167:A *1289:A 1.88216e-05
21 *1735:A *1388:B 4.94291e-06
22 *1735:A *346:24 8.2174e-07
23 *1735:A *452:18 6.62106e-06
24 *183:10 *1375:A1 1.97709e-05
25 *183:10 *346:12 0
26 *183:10 *692:27 3.54529e-05
27 *183:10 *797:10 0
28 *183:10 *860:92 1.96231e-05
29 *183:14 *692:27 3.00916e-05
30 *183:18 *357:14 6.01677e-05
31 *183:18 *357:18 3.05232e-05
32 *183:18 *756:8 9.08513e-06
33 *183:18 *756:44 3.74496e-05
34 *183:20 *185:10 1.01618e-05
35 *183:20 *185:12 3.66246e-05
36 *183:20 *430:18 0
37 *183:20 *478:10 0
38 *183:20 *708:10 0
39 *183:20 *708:19 0
40 *183:20 *756:44 5.21648e-06
41 *183:20 *794:10 1.2903e-05
42 *183:20 *819:36 8.51183e-06
43 *183:20 *860:10 3.32579e-06
44 *183:20 *860:16 1.15945e-06
45 *183:44 *346:14 9.73457e-05
46 *183:44 *346:64 1.62312e-05
47 *183:44 *439:6 5.51397e-07
48 *183:44 *439:17 1.04475e-06
49 *183:44 *705:6 4.22446e-06
50 *183:44 *705:58 9.34096e-06
51 *183:61 *1349:A 2.20493e-06
52 *183:61 *346:64 1.03556e-05
53 *183:61 *439:6 6.6195e-06
54 *1047:C *183:8 4.2449e-06
55 *1047:D *183:8 2.03526e-06
56 *1047:D *183:10 8.33296e-06
57 *1764:A *183:8 2.20493e-06
58 *36:14 *183:10 1.82715e-05
59 *37:8 *183:10 3.05118e-08
60 *132:10 *183:10 0
61 *132:10 *183:14 0
62 *134:8 *183:10 0
63 *135:10 *183:10 2.98814e-07
*RES
1 *1047:Y *183:8 39.2134 
2 *183:8 *183:10 42.8006 
3 *183:10 *183:14 27.337 
4 *183:14 *183:18 44.4761 
5 *183:18 *183:20 38.2953 
6 *183:20 *1050:A 46.1415 
7 *183:20 *1167:A 39.2134 
8 *183:10 *183:44 48.7547 
9 *183:44 *183:46 17.2 
10 *183:46 *1735:A 44.537 
11 *183:46 *183:61 44.0263 
12 *183:61 *1734:A 17.2 
*END

*D_NET *184 0.000153687
*CONN
*P m_axis_tvalid O
*I *1048:Y O *D BUFx2_ASAP7_75t_SL
*CAP
1 m_axis_tvalid 1.45823e-05
2 *1048:Y 6.86049e-06
3 *184:8 2.14428e-05
4 m_axis_tvalid *332:9 5.56625e-05
5 m_axis_tvalid *518:7 5.51393e-05
*RES
1 *1048:Y *184:8 37.8729 
2 *184:8 m_axis_tvalid 37.3828 
*END

*D_NET *185 0.000530438
*CONN
*I *1733:A I *D BUFx3_ASAP7_75t_SL
*I *1167:B I *D AND2x4_ASAP7_75t_SL
*I *1050:B I *D NAND2x2_ASAP7_75t_SL
*I *1049:Y O *D AND2x2_ASAP7_75t_SL
*CAP
1 *1733:A 3.54997e-05
2 *1167:B 1.20056e-05
3 *1050:B 1.08017e-05
4 *1049:Y 1.24784e-05
5 *185:42 3.7158e-05
6 *185:36 9.89164e-05
7 *185:12 3.34455e-05
8 *185:10 0.000120375
9 *1050:B *192:12 1.12894e-06
10 *1050:B *738:6 3.48165e-06
11 *1167:B *1289:A 1.08639e-05
12 *1733:A *819:54 2.77216e-06
13 *185:10 *478:10 0
14 *185:36 *287:68 0
15 *185:36 *388:24 1.10955e-06
16 *185:36 *825:37 0
17 *185:36 *846:51 0
18 *185:42 *1392:B2 2.00142e-07
19 *1050:A *1050:B 2.01651e-05
20 *1050:A *185:12 1.10128e-05
21 *33:29 *1050:B 2.63229e-05
22 *33:29 *185:12 4.59143e-05
23 *183:20 *185:10 1.01618e-05
24 *183:20 *185:12 3.66246e-05
*RES
1 *1049:Y *185:10 41.8044 
2 *185:10 *185:12 16.6134 
3 *185:12 *1050:B 46.0848 
4 *185:12 *1167:B 41.8876 
5 *185:10 *185:36 45.5534 
6 *185:36 *185:42 35.2447 
7 *185:42 *1733:A 34.8492 
*END

*D_NET *186 0.00112271
*CONN
*I *1060:B I *D OR5x1_ASAP7_75t_SL
*I *1193:B I *D OR5x1_ASAP7_75t_SL
*I *1149:A I *D OR3x2_ASAP7_75t_SL
*I *1147:D I *D OR4x2_ASAP7_75t_SL
*I *1165:A I *D OR3x2_ASAP7_75t_SL
*I *1707:A I *D BUFx3_ASAP7_75t_SL
*I *1050:Y O *D NAND2x2_ASAP7_75t_SL
*CAP
1 *1060:B 7.16524e-06
2 *1193:B 3.0194e-06
3 *1149:A 0
4 *1147:D 0
5 *1165:A 0
6 *1707:A 0
7 *1050:Y 1.33052e-05
8 *186:76 3.6721e-05
9 *186:74 8.34433e-05
10 *186:68 5.0982e-05
11 *186:55 2.73841e-05
12 *186:46 3.84173e-05
13 *186:44 3.84173e-05
14 *186:42 2.1943e-05
15 *186:35 1.41628e-05
16 *186:29 7.06534e-05
17 *186:25 7.76167e-05
18 *186:12 1.81617e-05
19 *186:10 1.33052e-05
20 *1060:B *1060:A 1.35684e-06
21 *186:10 *192:12 1.88358e-05
22 *186:10 *287:28 1.35422e-05
23 *186:10 *738:6 1.72815e-05
24 *186:25 *1305:C 2.50577e-05
25 *186:25 *285:24 2.38207e-06
26 *186:25 *430:18 1.09447e-05
27 *186:25 *733:10 3.3921e-06
28 *186:25 *739:10 2.70503e-06
29 *186:29 *733:10 3.95329e-05
30 *186:29 *733:25 6.81681e-05
31 *186:35 *189:37 3.90258e-06
32 *186:35 *330:8 4.47771e-05
33 *186:35 *731:57 3.64442e-05
34 *186:35 *885:29 2.83874e-07
35 *186:42 *189:37 7.80516e-06
36 *186:46 *1172:D 0
37 *186:46 *189:52 0
38 *186:46 *282:22 1.10745e-05
39 *186:46 *284:46 8.2174e-07
40 *186:46 *731:47 2.54196e-07
41 *186:46 *731:57 2.7612e-05
42 *186:46 *733:35 0
43 *186:46 *825:25 1.76736e-05
44 *186:46 *863:117 5.96995e-05
45 *186:55 *1149:B 2.35847e-05
46 *186:55 *189:37 1.95129e-06
47 *186:55 *189:44 3.59133e-05
48 *186:55 *268:8 7.46759e-06
49 *186:68 *1149:B 7.80516e-06
50 *186:68 *195:33 2.19448e-07
51 *186:68 *264:39 2.20179e-07
52 *186:68 *268:8 2.03526e-06
53 *186:68 *707:23 1.36169e-05
54 *186:74 *189:71 1.10955e-06
55 *186:74 *195:33 2.75588e-06
56 *186:74 *195:45 0
57 *186:74 *304:8 0
58 *186:76 *189:71 7.47402e-07
59 *186:76 *189:75 5.68573e-06
60 *186:76 *268:94 8.06436e-06
61 *186:76 *298:34 0
62 *186:76 *304:8 0
63 *186:76 *663:106 3.32257e-05
64 *186:76 *717:39 4.83558e-05
65 *186:76 *717:47 1.09067e-06
66 *186:76 *770:42 0
67 *33:29 *186:10 5.79724e-07
68 *180:37 *186:74 3.74016e-08
*RES
1 *1050:Y *186:10 45.9714 
2 *186:10 *186:12 17.2 
3 *186:12 *1707:A 17.2 
4 *186:12 *186:25 47.4342 
5 *186:25 *186:29 48.7547 
6 *186:29 *186:35 33.4751 
7 *186:35 *1165:A 17.2 
8 *186:35 *186:42 2.1393 
9 *186:42 *186:44 17.2 
10 *186:44 *186:46 39.4216 
11 *186:46 *1147:D 34.4 
12 *186:42 *186:55 18.184 
13 *186:55 *1149:A 17.2 
14 *186:55 *186:68 41.3262 
15 *186:68 *186:74 31.3778 
16 *186:74 *186:76 34.3531 
17 *186:76 *1193:B 35.4697 
18 *186:74 *1060:B 37.0741 
*END

*D_NET *187 0.000228426
*CONN
*I *1732:A I *D BUFx3_ASAP7_75t_SL
*I *1168:A I *D AND2x2_ASAP7_75t_SL
*I *1053:A I *D NAND2x1_ASAP7_75t_SL
*I *1051:Y O *D AND3x1_ASAP7_75t_SL
*CAP
1 *1732:A 0
2 *1168:A 1.45811e-05
3 *1053:A 0
4 *1051:Y 1.51171e-05
5 *187:38 1.93415e-05
6 *187:27 2.65003e-05
7 *187:14 4.11125e-05
8 *187:8 6.3652e-05
9 *1168:A *1168:B 1.49313e-05
10 *1168:A *188:12 1.24225e-05
11 *1168:A *189:6 1.51653e-06
12 *187:27 *188:12 5.25794e-06
13 *187:27 *393:10 0
14 *44:23 *187:14 1.94788e-06
15 *45:30 *187:38 1.20458e-05
16 *49:8 *187:14 0
17 *49:8 *187:38 0
18 *49:23 *187:38 0
*RES
1 *1051:Y *187:8 42.4224 
2 *187:8 *187:14 35.8375 
3 *187:14 *1053:A 17.2 
4 *187:14 *187:27 42.6208 
5 *187:27 *1168:A 26.8269 
6 *187:8 *187:38 34.6581 
7 *187:38 *1732:A 17.2 
*END

*D_NET *188 7.50751e-05
*CONN
*I *1168:B I *D AND2x2_ASAP7_75t_SL
*I *1053:B I *D NAND2x1_ASAP7_75t_SL
*I *1052:Y O *D AND3x1_ASAP7_75t_SL
*CAP
1 *1168:B 2.74225e-06
2 *1053:B 0
3 *1052:Y 7.90404e-06
4 *188:12 1.07575e-05
5 *188:8 1.59193e-05
6 *1168:B *189:6 2.0895e-06
7 *188:8 *393:10 3.05074e-06
8 *1168:A *1168:B 1.49313e-05
9 *1168:A *188:12 1.24225e-05
10 *187:27 *188:12 5.25794e-06
*RES
1 *1052:Y *188:8 40.0317 
2 *188:8 *188:12 23.6179 
3 *188:12 *1053:B 17.2 
4 *188:12 *1168:B 20.9438 
*END

*D_NET *189 0.00167408
*CONN
*I *1149:B I *D OR3x2_ASAP7_75t_SL
*I *1060:C I *D OR5x1_ASAP7_75t_SL
*I *1193:C I *D OR5x1_ASAP7_75t_SL
*I *1147:B I *D OR4x2_ASAP7_75t_SL
*I *1165:B I *D OR3x2_ASAP7_75t_SL
*I *1657:A I *D BUFx3_ASAP7_75t_SL
*I *1053:Y O *D NAND2x1_ASAP7_75t_SL
*CAP
1 *1149:B 7.43333e-06
2 *1060:C 0
3 *1193:C 0
4 *1147:B 1.73188e-05
5 *1165:B 0
6 *1657:A 2.83908e-06
7 *1053:Y 4.12258e-05
8 *189:92 9.18912e-06
9 *189:75 2.87931e-05
10 *189:71 4.94073e-05
11 *189:63 5.1541e-05
12 *189:52 5.01444e-05
13 *189:48 8.34387e-05
14 *189:44 2.32508e-05
15 *189:37 4.78578e-05
16 *189:35 4.56444e-05
17 *189:29 9.08886e-05
18 *189:27 0.000104437
19 *189:12 1.9494e-05
20 *189:10 4.0634e-05
21 *189:8 4.0634e-05
22 *189:6 4.12258e-05
23 *1147:B *1147:A 6.92634e-06
24 *1147:B *1853:A 5.0551e-07
25 *1149:B *195:25 2.35847e-05
26 *189:6 *285:6 7.34229e-06
27 *189:10 *1317:A2 2.99621e-05
28 *189:10 *193:18 0
29 *189:10 *386:10 6.51415e-06
30 *189:10 *412:8 1.22514e-06
31 *189:10 *880:33 0
32 *189:27 *193:18 5.13755e-06
33 *189:27 *412:8 3.3563e-07
34 *189:27 *689:10 5.0551e-07
35 *189:29 *800:34 1.85761e-06
36 *189:29 *865:39 7.95681e-05
37 *189:29 *867:14 0.000286482
38 *189:29 *880:25 0
39 *189:29 *885:12 0
40 *189:35 *430:18 4.35576e-08
41 *189:35 *885:8 2.20179e-07
42 *189:37 *195:14 5.88755e-05
43 *189:37 *350:21 2.42632e-05
44 *189:37 *867:8 7.92271e-06
45 *189:44 *195:14 6.92634e-06
46 *189:44 *195:25 3.0511e-05
47 *189:48 *268:10 4.88493e-06
48 *189:48 *707:10 1.37455e-06
49 *189:48 *707:23 0
50 *189:48 *733:35 1.37068e-05
51 *189:52 *1172:D 1.14198e-05
52 *189:52 *707:10 4.36269e-06
53 *189:52 *733:35 2.00556e-05
54 *189:52 *809:79 2.63749e-05
55 *189:63 *869:14 2.89374e-05
56 *189:71 *304:8 3.13755e-07
57 *189:75 *1188:A 2.98814e-06
58 *189:75 *1193:E 1.07573e-06
59 *189:75 *264:61 4.1009e-06
60 *189:75 *298:34 0
61 *189:75 *663:106 2.43404e-05
62 *189:75 *717:39 5.533e-05
63 *189:75 *792:21 1.91241e-06
64 *189:92 *663:106 4.97876e-07
65 *1168:A *189:6 1.51653e-06
66 *1168:B *189:6 2.0895e-06
67 *33:16 *189:29 6.18574e-06
68 *186:35 *189:37 3.90258e-06
69 *186:42 *189:37 7.80516e-06
70 *186:46 *189:52 0
71 *186:55 *1149:B 2.35847e-05
72 *186:55 *189:37 1.95129e-06
73 *186:55 *189:44 3.59133e-05
74 *186:68 *1149:B 7.80516e-06
75 *186:74 *189:71 1.10955e-06
76 *186:76 *189:71 7.47402e-07
77 *186:76 *189:75 5.68573e-06
*RES
1 *1053:Y *189:6 36.9885 
2 *189:6 *189:8 17.2 
3 *189:8 *189:10 33.2268 
4 *189:10 *189:12 17.2 
5 *189:12 *1657:A 18.8045 
6 *189:12 *189:27 44.3935 
7 *189:27 *189:29 48.4821 
8 *189:29 *189:35 35.8079 
9 *189:35 *189:37 32.6243 
10 *189:37 *1165:B 17.2 
11 *189:37 *189:44 11.2313 
12 *189:44 *189:48 28.4633 
13 *189:48 *189:52 47.0478 
14 *189:52 *1147:B 25.2224 
15 *189:48 *189:63 44.4761 
16 *189:63 *189:71 38.6503 
17 *189:71 *189:75 48.6434 
18 *189:75 *1193:C 34.4 
19 *189:71 *189:92 38.4213 
20 *189:92 *1060:C 17.2 
21 *189:44 *1149:B 26.292 
*END

*D_NET *190 8.02098e-05
*CONN
*P m_axis_tdata[7] O
*I *1054:Y O *D BUFx2_ASAP7_75t_SL
*CAP
1 m_axis_tdata[7] 3.86214e-05
2 *1054:Y 1.48347e-06
3 *190:8 4.01049e-05
4 *52:10 *190:8 0
5 *52:16 *190:8 0
*RES
1 *1054:Y *190:8 35.2447 
2 *190:8 m_axis_tdata[7] 37.3828 
*END

*D_NET *191 0.000335407
*CONN
*I *1060:D I *D OR5x1_ASAP7_75t_SL
*I *1055:Y O *D AOI21x1_ASAP7_75t_SL
*CAP
1 *1060:D 2.61741e-05
2 *1055:Y 6.31396e-06
3 *191:18 3.37565e-05
4 *191:10 6.08777e-05
5 *191:8 5.96093e-05
6 *1060:D *1654:A 1.79737e-06
7 *1060:D *195:45 3.46317e-06
8 *1060:D *686:10 5.19552e-07
9 *191:8 *720:21 4.56834e-06
10 *191:10 *298:18 8.48989e-05
11 *191:10 *686:10 0
12 *191:10 *686:136 3.54456e-05
13 *191:18 *686:10 6.05911e-06
14 *191:18 *686:136 5.25794e-06
15 *191:18 *846:83 6.6657e-06
*RES
1 *1055:Y *191:8 37.0741 
2 *191:8 *191:10 47.8691 
3 *191:10 *191:18 43.0989 
4 *191:18 *1060:D 49.9099 
*END

*D_NET *192 0.000359262
*CONN
*I *1059:A I *D OR4x1_ASAP7_75t_SL
*I *1145:B I *D OR4x1_ASAP7_75t_SL
*I *1056:Y O *D INVx1_ASAP7_75t_SL
*CAP
1 *1059:A 4.696e-06
2 *1145:B 1.69539e-06
3 *1056:Y 1.97342e-05
4 *192:16 5.56534e-05
5 *192:12 6.78009e-05
6 *192:8 3.82731e-05
7 *1059:A *284:16 3.51396e-06
8 *1145:B *284:16 9.93076e-07
9 *192:8 *1394:A2 1.07377e-06
10 *192:8 *350:29 1.36155e-06
11 *192:12 *287:28 1.1211e-07
12 *192:12 *377:10 8.02373e-06
13 *192:12 *377:23 5.42466e-05
14 *192:12 *820:197 1.49128e-05
15 *192:16 *268:26 0
16 *192:16 *285:14 1.87008e-07
17 *192:16 *286:12 3.32836e-05
18 *192:16 *287:12 6.63282e-06
19 *192:16 *287:20 8.0651e-06
20 *192:16 *825:37 0
21 *1050:A *192:12 3.16603e-07
22 *1050:B *192:12 1.12894e-06
23 *1145:A *1059:A 1.58828e-05
24 *1145:A *1145:B 7.31606e-07
25 *33:29 *192:12 1.25502e-06
26 *92:33 *1145:B 8.52654e-07
27 *186:10 *192:12 1.88358e-05
*RES
1 *1056:Y *192:8 42.4224 
2 *192:8 *192:12 38.8819 
3 *192:12 *192:16 36.463 
4 *192:16 *1145:B 35.8079 
5 *192:16 *1059:A 40.3132 
*END

*D_NET *193 0.000939201
*CONN
*I *1059:C I *D OR4x1_ASAP7_75t_SL
*I *1145:C I *D OR4x1_ASAP7_75t_SL
*I *1324:C I *D OR3x1_ASAP7_75t_SL
*I *1057:Y O *D NAND2x1_ASAP7_75t_SL
*CAP
1 *1059:C 1.09524e-05
2 *1145:C 4.82303e-06
3 *1324:C 0
4 *1057:Y 6.77081e-06
5 *193:57 2.38807e-05
6 *193:53 4.79787e-05
7 *193:45 9.47394e-05
8 *193:41 7.99172e-05
9 *193:30 2.73198e-05
10 *193:26 2.10888e-05
11 *193:18 6.05618e-05
12 *193:16 4.65638e-05
13 *193:10 1.1593e-05
14 *1059:C *284:16 0
15 *1059:C *865:65 2.15499e-05
16 *193:10 *423:8 8.06436e-06
17 *193:18 *1315:A2 1.01999e-05
18 *193:18 *1316:D 1.30863e-05
19 *193:18 *412:8 2.9732e-06
20 *193:18 *423:8 5.54059e-05
21 *193:18 *689:10 2.77657e-06
22 *193:18 *689:21 1.32107e-06
23 *193:18 *689:85 2.68462e-06
24 *193:18 *689:100 7.11252e-08
25 *193:18 *859:18 0
26 *193:18 *880:33 2.04581e-05
27 *193:26 *1324:A 2.28405e-06
28 *193:26 *285:14 0
29 *193:26 *377:25 0
30 *193:26 *739:20 1.10955e-06
31 *193:26 *800:40 8.08836e-06
32 *193:26 *885:12 0
33 *193:41 *418:8 3.29718e-05
34 *193:41 *418:18 1.62275e-05
35 *193:41 *420:16 1.44167e-06
36 *193:41 *420:22 0
37 *193:41 *859:8 6.85823e-06
38 *193:45 *286:12 9.97376e-08
39 *193:45 *287:20 3.28428e-07
40 *193:45 *287:28 1.96207e-05
41 *193:45 *287:32 0.00010594
42 *193:45 *739:14 1.01206e-05
43 *193:45 *739:20 3.89676e-06
44 *193:45 *846:31 3.83476e-05
45 *193:53 *287:12 3.08502e-05
46 *193:53 *287:20 1.66433e-06
47 *193:53 *287:28 3.36871e-06
48 *193:53 *846:27 2.13171e-05
49 *193:53 *846:67 2.155e-05
50 *193:57 *284:16 0
51 *193:57 *865:12 7.16068e-06
52 *193:57 *865:65 1.30566e-05
53 *1169:A *1145:C 3.65131e-06
54 *1824:A *193:18 1.67815e-06
55 *42:10 *193:18 1.64764e-06
56 *92:33 *1059:C 6.0034e-06
57 *189:10 *193:18 0
58 *189:27 *193:18 5.13755e-06
*RES
1 *1057:Y *193:10 38.8203 
2 *193:10 *193:16 37.0741 
3 *193:16 *193:18 41.7681 
4 *193:18 *193:26 42.7494 
5 *193:26 *193:30 18.2696 
6 *193:30 *1324:C 17.2 
7 *193:30 *193:41 35.7613 
8 *193:41 *193:45 45.391 
9 *193:45 *193:53 44.0059 
10 *193:53 *193:57 23.6764 
11 *193:57 *1145:C 37.609 
12 *193:57 *1059:C 43.8888 
*END

*D_NET *194 0.000242849
*CONN
*I *1059:D I *D OR4x1_ASAP7_75t_SL
*I *1145:D I *D OR4x1_ASAP7_75t_SL
*I *1058:Y O *D NAND2x1_ASAP7_75t_SL
*CAP
1 *1059:D 5.13418e-06
2 *1145:D 1.35808e-05
3 *1058:Y 0
4 *194:8 4.48381e-05
5 *194:6 2.6123e-05
6 *1145:D *195:8 1.02072e-05
7 *1145:D *865:65 1.98993e-05
8 *1145:D *867:98 0
9 *194:8 *699:52 3.20655e-06
10 *194:8 *860:122 2.36401e-05
11 *194:8 *865:65 9.1212e-05
12 *194:8 *867:98 0
13 *1169:A *1145:D 5.00816e-06
*RES
1 *1058:Y *194:6 34.4 
2 *194:6 *194:8 30.9741 
3 *194:8 *1145:D 44.9018 
4 *194:8 *1059:D 36.5393 
*END

*D_NET *195 0.000586744
*CONN
*I *1706:A I *D BUFx3_ASAP7_75t_SL
*I *1060:E I *D OR5x1_ASAP7_75t_SL
*I *1165:C I *D OR3x2_ASAP7_75t_SL
*I *1059:Y O *D OR4x1_ASAP7_75t_SL
*CAP
1 *1706:A 1.13947e-05
2 *1060:E 0
3 *1165:C 0
4 *1059:Y 7.33023e-06
5 *195:45 1.35028e-05
6 *195:37 4.43642e-05
7 *195:33 4.17887e-05
8 *195:25 3.22191e-05
9 *195:14 4.51767e-05
10 *195:12 5.03211e-05
11 *195:8 4.51611e-05
12 *1706:A *738:6 6.78445e-06
13 *195:8 *865:65 3.47058e-06
14 *195:8 *867:98 0
15 *195:12 *264:8 1.90012e-05
16 *195:12 *285:28 8.68182e-06
17 *195:12 *351:23 1.31932e-05
18 *195:12 *865:12 1.50408e-05
19 *195:12 *865:65 2.98532e-06
20 *195:12 *867:98 0
21 *195:25 *707:23 6.89935e-06
22 *195:25 *825:31 9.08513e-06
23 *195:33 *264:39 2.25196e-06
24 *195:33 *846:67 0
25 *195:37 *1844:A 2.0895e-06
26 *195:37 *264:39 2.03526e-06
27 *195:37 *268:8 3.56177e-06
28 *195:37 *699:23 5.51397e-07
29 *195:37 *869:12 3.56648e-06
30 *195:37 *869:25 1.88316e-05
31 *1060:D *195:45 3.46317e-06
32 *1145:D *195:8 1.02072e-05
33 *1149:B *195:25 2.35847e-05
34 *1169:A *1706:A 4.09128e-05
35 *186:68 *195:33 2.19448e-07
36 *186:74 *195:33 2.75588e-06
37 *186:74 *195:45 0
38 *189:37 *195:14 5.88755e-05
39 *189:44 *195:14 6.92634e-06
40 *189:44 *195:25 3.0511e-05
*RES
1 *1059:Y *195:8 41.158 
2 *195:8 *195:12 40.853 
3 *195:12 *195:14 19.2537 
4 *195:14 *1165:C 17.2 
5 *195:14 *195:25 35.779 
6 *195:25 *195:33 38.2749 
7 *195:33 *195:37 42.3368 
8 *195:37 *195:45 41.1013 
9 *195:45 *1060:E 17.2 
10 *195:8 *1706:A 46.701 
*END

*D_NET *196 2.87948e-05
*CONN
*I *1654:A I *D BUFx6f_ASAP7_75t_SL
*I *1060:Y O *D OR5x1_ASAP7_75t_SL
*CAP
1 *1654:A 1.34987e-05
2 *1060:Y 1.34987e-05
3 *1060:D *1654:A 1.79737e-06
*RES
1 *1060:Y *1654:A 40.2831 
*END

*D_NET *197 7.9617e-05
*CONN
*P m_axis_tdata[6] O
*I *1061:Y O *D BUFx2_ASAP7_75t_SL
*CAP
1 m_axis_tdata[6] 3.86214e-05
2 *1061:Y 1.18706e-06
3 *197:8 3.98085e-05
*RES
1 *1061:Y *197:8 35.057 
2 *197:8 m_axis_tdata[6] 37.3828 
*END

*D_NET *198 2.42109e-05
*CONN
*I *1816:A I *D BUFx6f_ASAP7_75t_SL
*I *1062:Y O *D NOR2x1_ASAP7_75t_SL
*CAP
1 *1816:A 0
2 *1062:Y 1.06841e-05
3 *198:10 1.06841e-05
4 *198:10 *846:77 2.84274e-06
*RES
1 *1062:Y *198:10 41.5795 
2 *198:10 *1816:A 34.4 
*END

*D_NET *199 0.000239713
*CONN
*I *1853:A I *D BUFx3_ASAP7_75t_SL
*I *1081:B I *D OR3x2_ASAP7_75t_SL
*I *1063:Y O *D INVx4_ASAP7_75t_SL
*CAP
1 *1853:A 1.73846e-05
2 *1081:B 0
3 *1063:Y 0
4 *199:12 3.28525e-05
5 *199:6 5.02372e-05
6 *1853:A *265:10 0
7 *1853:A *809:79 1.0143e-05
8 *1853:A *863:117 0
9 *199:12 *1081:A 6.92634e-06
10 *199:12 *1713:A 0
11 *199:12 *212:22 9.26072e-05
12 *199:12 *281:6 5.0551e-07
13 *199:12 *289:12 1.75355e-05
14 *199:12 *744:31 5.51397e-07
15 *199:12 *744:43 0
16 *199:12 *809:79 5.37569e-06
17 *199:12 *878:16 5.08828e-06
18 *1147:B *1853:A 5.0551e-07
*RES
1 *1063:Y *199:6 34.4 
2 *199:6 *199:12 49.5162 
3 *199:12 *1081:B 17.2 
4 *199:6 *1853:A 46.1415 
*END

*D_NET *200 0.000796542
*CONN
*I *1679:A I *D BUFx6f_ASAP7_75t_SL
*I *1680:A I *D BUFx6f_ASAP7_75t_SL
*I *1396:B I *D OA211x2_ASAP7_75t_SL
*I *1683:A I *D BUFx3_ASAP7_75t_SL
*I *1064:Y O *D AND2x4_ASAP7_75t_SL
*CAP
1 *1679:A 0
2 *1680:A 0
3 *1396:B 4.0972e-06
4 *1683:A 0
5 *1064:Y 1.26648e-05
6 *200:47 2.71456e-05
7 *200:36 3.88361e-05
8 *200:30 0.000129393
9 *200:28 0.000113605
10 *200:26 1.98857e-05
11 *200:20 3.12885e-05
12 *200:16 3.35608e-05
13 *200:12 2.58255e-05
14 *200:8 1.63322e-05
15 *200:8 *282:87 0
16 *200:8 *430:10 2.98814e-08
17 *200:12 *270:12 1.23408e-05
18 *200:16 *270:12 7.08556e-05
19 *200:16 *272:106 3.00838e-05
20 *200:16 *719:6 5.01287e-06
21 *200:16 *878:46 2.74751e-05
22 *200:20 *1384:B1 0
23 *200:20 *272:20 1.07514e-05
24 *200:26 *270:20 1.51001e-05
25 *200:26 *456:6 2.83783e-05
26 *200:26 *468:10 1.66587e-05
27 *200:26 *476:18 7.09459e-06
28 *200:26 *863:6 2.20493e-06
29 *200:26 *863:98 1.72202e-05
30 *200:30 *1327:C 0
31 *200:30 *1369:A1 3.71728e-05
32 *200:30 *745:32 2.78209e-05
33 *200:30 *763:45 0
34 *200:36 *421:10 0
35 *200:36 *810:27 1.55612e-05
36 *200:36 *844:128 0
37 *200:36 *844:150 0
38 *200:47 *1686:A 5.09299e-06
39 *200:47 *335:24 0
40 *200:47 *415:18 1.5053e-05
41 *200:47 *421:10 0
42 *200:47 *844:150 0
*RES
1 *1064:Y *200:8 41.158 
2 *200:8 *200:12 20.9438 
3 *200:12 *200:16 43.4064 
4 *200:16 *200:20 26.2107 
5 *200:20 *200:26 41.5505 
6 *200:26 *200:28 17.2 
7 *200:28 *200:30 54.0173 
8 *200:30 *200:36 47.3528 
9 *200:36 *1683:A 17.2 
10 *200:36 *200:47 33.3334 
11 *200:47 *1396:B 36.0045 
12 *200:20 *1680:A 17.2 
13 *200:12 *1679:A 17.2 
*END

*D_NET *201 7.9401e-05
*CONN
*P m_axis_tdata[5] O
*I *1065:Y O *D BUFx2_ASAP7_75t_SL
*CAP
1 m_axis_tdata[5] 3.86214e-05
2 *1065:Y 7.58687e-07
3 *201:8 3.93801e-05
4 m_axis_tdata[5] m_axis_tdata[4] 0
5 *201:8 *642:8 6.40748e-07
*RES
1 *1065:Y *201:8 35.057 
2 *201:8 m_axis_tdata[5] 37.3828 
*END

*D_NET *202 0.00015376
*CONN
*I *1067:B I *D OAI21x1_ASAP7_75t_SL
*I *1066:Y O *D OR4x1_ASAP7_75t_SL
*CAP
1 *1067:B 0
2 *1066:Y 4.62567e-06
3 *202:14 3.04944e-05
4 *202:8 3.51201e-05
5 *202:14 *294:60 2.68933e-07
6 *202:14 *686:22 6.94376e-06
7 *202:14 *861:36 4.51374e-05
8 *202:14 *869:29 3.11702e-05
*RES
1 *1066:Y *202:8 36.0045 
2 *202:8 *202:14 44.7065 
3 *202:14 *1067:B 17.2 
*END

*D_NET *203 1.50348e-05
*CONN
*I *1069:B I *D OAI21x1_ASAP7_75t_SL
*I *1068:Y O *D OR4x1_ASAP7_75t_SL
*CAP
1 *1069:B 0
2 *1068:Y 6.0981e-06
3 *203:8 6.0981e-06
4 *203:8 *207:10 2.31409e-07
5 *203:8 *686:37 2.45021e-07
6 *203:8 *686:49 5.13209e-07
7 *203:8 *819:8 1.849e-06
*RES
1 *1068:Y *203:8 38.9053 
2 *203:8 *1069:B 34.4 
*END

*D_NET *204 1.74824e-05
*CONN
*I *1071:B I *D OAI21x1_ASAP7_75t_SL
*I *1070:Y O *D OR4x1_ASAP7_75t_SL
*CAP
1 *1071:B 8.74118e-06
2 *1070:Y 8.74118e-06
*RES
1 *1070:Y *1071:B 38.6786 
*END

*D_NET *205 1.52244e-05
*CONN
*I *1073:B I *D OAI21x1_ASAP7_75t_SL
*I *1072:Y O *D OR4x1_ASAP7_75t_SL
*CAP
1 *1073:B 6.85391e-06
2 *1072:Y 6.85391e-06
3 *1073:B *848:49 1.51653e-06
*RES
1 *1072:Y *1073:B 38.6786 
*END

*D_NET *206 0.000185179
*CONN
*I *1075:B I *D OAI21x1_ASAP7_75t_SL
*I *1074:Y O *D OR4x1_ASAP7_75t_SL
*CAP
1 *1075:B 0
2 *1074:Y 1.96741e-06
3 *206:18 1.86583e-05
4 *206:12 7.81877e-05
5 *206:8 6.14968e-05
6 *206:8 *207:10 9.82638e-06
7 *206:8 *686:76 9.77575e-06
8 *206:18 *1207:B 0
9 *206:18 *862:90 0
10 *206:18 *862:126 0
11 *66:25 *206:12 5.26714e-06
*RES
1 *1074:Y *206:8 37.779 
2 *206:8 *206:12 38.0582 
3 *206:12 *206:18 48.4791 
4 *206:18 *1075:B 17.2 
*END

*D_NET *207 0.000241618
*CONN
*I *1077:B I *D OAI21x1_ASAP7_75t_SL
*I *1076:Y O *D OR4x1_ASAP7_75t_SL
*CAP
1 *1077:B 3.9611e-06
2 *1076:Y 4.43068e-06
3 *207:10 4.12369e-05
4 *207:8 4.17064e-05
5 *1077:B *848:53 1.25483e-05
6 *207:10 *1070:D 0
7 *207:10 *1072:C 1.64764e-06
8 *207:10 *686:49 7.98765e-06
9 *207:10 *686:76 6.12368e-06
10 *207:10 *711:99 2.30443e-05
11 *207:10 *711:112 1.76445e-05
12 *207:10 *711:125 2.19685e-06
13 *207:10 *848:49 2.95616e-05
14 *1205:A *1077:B 1.64509e-05
15 *65:10 *1077:B 1.95129e-06
16 *65:10 *207:10 1.88253e-06
17 *65:16 *207:10 3.25708e-06
18 *66:25 *207:10 1.59293e-05
19 *203:8 *207:10 2.31409e-07
20 *206:8 *207:10 9.82638e-06
*RES
1 *1076:Y *207:8 36.0045 
2 *207:8 *207:10 38.2953 
3 *207:10 *1077:B 39.2134 
*END

*D_NET *208 6.35748e-05
*CONN
*I *1079:B I *D OAI21x1_ASAP7_75t_SL
*I *1078:Y O *D OR4x1_ASAP7_75t_SL
*CAP
1 *1079:B 1.91429e-05
2 *1078:Y 1.91429e-05
3 *1079:B *1078:D 2.12481e-06
4 *1079:B *686:22 3.73144e-06
5 *1079:B *711:68 1.95129e-06
6 *1079:B *711:74 7.36575e-06
7 *1078:A *1079:B 4.70139e-06
8 *106:10 *1079:B 5.41446e-06
*RES
1 *1078:Y *1079:B 47.7706 
*END

*D_NET *209 0.00050151
*CONN
*I *1731:A I *D BUFx3_ASAP7_75t_SL
*I *1081:C I *D OR3x2_ASAP7_75t_SL
*I *1080:Y O *D NAND2x2_ASAP7_75t_SL
*CAP
1 *1731:A 0
2 *1081:C 8.69293e-06
3 *1080:Y 1.112e-05
4 *209:28 4.40159e-05
5 *209:26 3.9348e-05
6 *209:22 3.75717e-05
7 *209:16 6.34619e-05
8 *209:10 4.10353e-05
9 *1081:C *1081:A 9.83747e-06
10 *209:10 *808:49 2.03526e-06
11 *209:10 *809:6 1.95129e-06
12 *209:16 *692:141 0
13 *209:22 *1182:B 0
14 *209:22 *680:8 3.80325e-05
15 *209:22 *680:12 3.68565e-06
16 *209:22 *692:133 9.41265e-07
17 *209:22 *763:6 7.55242e-06
18 *209:22 *808:12 1.26211e-05
19 *209:22 *808:25 1.05102e-05
20 *209:28 *1183:B 0
21 *209:28 *744:23 0
22 *209:28 *763:93 1.80267e-05
23 *209:28 *809:49 7.57772e-05
24 *209:28 *809:64 1.27282e-05
25 *209:28 *836:129 0
26 *209:28 *866:10 0
27 *209:28 *897:10 5.52807e-07
28 *1:12 *209:16 1.03247e-05
29 *1:16 *209:10 6.72662e-07
30 *1:27 *209:10 1.68165e-06
31 *70:33 *209:10 5.7096e-06
32 *85:23 *209:22 8.87763e-06
33 *85:23 *209:26 9.52454e-06
34 *97:20 *209:16 2.45879e-05
35 *179:26 *209:28 6.33206e-07
*RES
1 *1080:Y *209:10 40.6213 
2 *209:10 *209:16 46.5205 
3 *209:16 *209:22 48.8735 
4 *209:22 *209:26 19.8741 
5 *209:26 *209:28 34.3531 
6 *209:28 *1081:C 41.3527 
7 *209:22 *1731:A 17.2 
*END

*D_NET *210 8.15713e-05
*CONN
*I *1685:A I *D BUFx3_ASAP7_75t_SL
*I *1193:A I *D OR5x1_ASAP7_75t_SL
*I *1081:Y O *D OR3x2_ASAP7_75t_SL
*CAP
1 *1685:A 0
2 *1193:A 0
3 *1081:Y 1.34299e-05
4 *210:18 8.76317e-06
5 *210:12 1.38905e-05
6 *210:8 1.85573e-05
7 *210:8 *212:10 0
8 *210:8 *212:20 0
9 *210:8 *717:12 1.74049e-06
10 *210:8 *769:12 4.10928e-06
11 *210:12 *212:14 6.6195e-06
12 *210:12 *717:8 9.30483e-06
13 *210:18 *717:12 6.41585e-07
14 *210:18 *717:39 4.51473e-06
15 *210:18 *770:8 0
16 *210:18 *770:42 0
*RES
1 *1081:Y *210:8 42.2843 
2 *210:8 *210:12 22.0134 
3 *210:12 *210:18 40.0317 
4 *210:18 *1193:A 17.2 
5 *210:12 *1685:A 17.2 
*END

*D_NET *211 0.000111891
*CONN
*I *1086:A2 I *D OA21x2_ASAP7_75t_SL
*I *1082:Y O *D NAND2x1_ASAP7_75t_SL
*CAP
1 *1086:A2 0
2 *1082:Y 3.0889e-05
3 *211:6 3.0889e-05
4 *211:6 *298:24 4.54959e-06
5 *211:6 *686:138 3.28266e-05
6 *211:6 *686:149 1.27365e-05
*RES
1 *1082:Y *211:6 38.593 
2 *211:6 *1086:A2 17.2 
*END

*D_NET *212 0.000926366
*CONN
*I *1666:A I *D BUFx3_ASAP7_75t_SL
*I *1395:A I *D AND3x1_ASAP7_75t_SL
*I *1083:Y O *D NAND2x1_ASAP7_75t_SL
*CAP
1 *1666:A 2.50405e-05
2 *1395:A 0
3 *1083:Y 0
4 *212:30 1.28777e-05
5 *212:22 0.00019826
6 *212:20 0.00019637
7 *212:14 2.56368e-05
8 *212:10 4.09584e-05
9 *212:4 5.13502e-05
10 *212:10 *1083:B 1.20546e-05
11 *212:20 *770:12 3.05118e-08
12 *212:22 *769:48 0
13 *212:22 *820:146 0
14 *212:22 *820:167 2.30288e-06
15 *212:22 *820:173 1.0186e-05
16 *212:22 *878:16 1.16084e-05
17 *212:22 *878:32 5.65352e-05
18 *212:30 *1395:B 0
19 *212:30 *1395:C 1.25483e-05
20 *212:30 *442:10 1.85628e-06
21 *212:30 *480:10 2.89575e-06
22 *212:30 *769:48 2.29378e-05
23 *212:30 *820:181 8.58704e-06
24 *1688:A *212:10 6.33206e-07
25 *1:33 *1666:A 2.28964e-05
26 *1:33 *212:10 6.53981e-05
27 *176:14 *212:10 7.58265e-07
28 *176:14 *212:14 7.55242e-06
29 *179:32 *212:14 3.78646e-05
30 *199:12 *212:22 9.26072e-05
31 *210:8 *212:10 0
32 *210:8 *212:20 0
33 *210:12 *212:14 6.6195e-06
*RES
1 *1083:Y *212:4 17.2 
2 *212:4 *212:10 39.8044 
3 *212:10 *212:14 33.7796 
4 *212:14 *212:20 40.0317 
5 *212:20 *212:22 88.2461 
6 *212:22 *212:30 48.0257 
7 *212:30 *1395:A 17.2 
8 *212:4 *1666:A 31.6403 
*END

*D_NET *213 2.64402e-05
*CONN
*I *1085:A1 I *D OAI21x1_ASAP7_75t_SL
*I *1084:Y O *D INVx1_ASAP7_75t_SL
*CAP
1 *1085:A1 0
2 *1084:Y 1.32201e-05
3 *213:10 1.32201e-05
4 *213:10 *711:64 0
*RES
1 *1084:Y *213:10 41.6361 
2 *213:10 *1085:A1 34.4 
*END

*D_NET *214 6.5747e-05
*CONN
*I *1086:B I *D OA21x2_ASAP7_75t_SL
*I *1085:Y O *D OAI21x1_ASAP7_75t_SL
*CAP
1 *1086:B 1.54002e-05
2 *1085:Y 1.54002e-05
3 *1086:B *1787:A 3.65131e-06
4 *1086:B *686:149 1.72202e-05
5 *1086:B *819:126 3.68565e-06
6 *107:10 *1086:B 1.03895e-05
*RES
1 *1085:Y *1086:B 49.9099 
*END

*D_NET *215 8.84237e-05
*CONN
*P m_axis_tdata[4] O
*I *1087:Y O *D BUFx2_ASAP7_75t_SL
*CAP
1 m_axis_tdata[4] 4.28327e-05
2 *1087:Y 1.37916e-06
3 *215:8 4.42118e-05
4 m_axis_tdata[5] m_axis_tdata[4] 0
*RES
1 *1087:Y *215:8 35.2447 
2 *215:8 m_axis_tdata[4] 39.3308 
*END

*D_NET *216 0.00138348
*CONN
*I *1730:A I *D BUFx3_ASAP7_75t_SL
*I *1414:B I *D AND4x2_ASAP7_75t_SL
*I *1823:A I *D BUFx3_ASAP7_75t_SL
*I *1406:B I *D AND5x2_ASAP7_75t_SL
*I *1088:Y O *D AND4x2_ASAP7_75t_SL
*CAP
1 *1730:A 0
2 *1414:B 0
3 *1823:A 2.44485e-05
4 *1406:B 1.07146e-05
5 *1088:Y 7.20402e-06
6 *216:51 3.5531e-05
7 *216:34 2.1797e-05
8 *216:32 4.42272e-05
9 *216:30 5.71117e-05
10 *216:28 1.65857e-05
11 *216:22 7.20461e-05
12 *216:20 7.99657e-05
13 *216:14 9.85535e-05
14 *216:10 0.000141944
15 *216:8 6.22149e-05
16 *1406:B *217:74 3.3563e-06
17 *1406:B *827:12 6.11625e-06
18 *1823:A *1414:D 5.52043e-06
19 *1823:A *220:48 7.79295e-06
20 *1823:A *496:8 7.89369e-06
21 *1823:A *855:10 6.86929e-06
22 *216:8 *606:14 6.45454e-06
23 *216:10 *986:B 3.25708e-06
24 *216:10 *595:8 0
25 *216:10 *606:14 2.83874e-07
26 *216:10 *722:74 1.96231e-05
27 *216:10 *776:39 1.66659e-05
28 *216:10 *820:327 4.91373e-05
29 *216:10 *820:336 7.84037e-07
30 *216:10 *820:378 0
31 *216:10 *888:10 0
32 *216:10 *888:20 0
33 *216:14 *846:167 1.9257e-06
34 *216:14 *846:192 1.3592e-06
35 *216:20 *583:10 0
36 *216:20 *663:70 0
37 *216:20 *846:175 2.92601e-06
38 *216:22 *1849:A 1.36155e-06
39 *216:22 *220:20 0.000123579
40 *216:22 *220:30 1.90613e-05
41 *216:22 *529:14 7.68261e-05
42 *216:22 *663:64 8.93844e-06
43 *216:22 *762:8 5.22376e-07
44 *216:22 *823:8 6.7842e-07
45 *216:28 *220:36 0
46 *216:28 *762:10 7.73073e-06
47 *216:28 *846:129 3.76506e-07
48 *216:30 *220:38 2.74873e-05
49 *216:30 *663:37 7.80516e-06
50 *216:30 *762:8 2.25106e-05
51 *216:30 *823:8 2.54159e-06
52 *216:32 *220:38 0.000156873
53 *216:32 *663:37 7.37901e-05
54 *216:51 *1414:D 5.00787e-06
55 *216:51 *1831:A 3.73144e-06
56 *216:51 *219:45 1.49407e-08
57 *216:51 *220:38 2.0455e-05
58 *216:51 *220:48 6.36827e-06
59 *216:51 *827:12 1.74049e-06
60 *9:27 *216:10 0
61 *168:8 *216:10 3.76935e-06
*RES
1 *1088:Y *216:8 39.2134 
2 *216:8 *216:10 51.9051 
3 *216:10 *216:14 43.6054 
4 *216:14 *216:20 41.6273 
5 *216:20 *216:22 64.7138 
6 *216:22 *216:28 37.2158 
7 *216:28 *216:30 14.4403 
8 *216:30 *216:32 46.5298 
9 *216:32 *216:34 17.2 
10 *216:34 *1406:B 42.7058 
11 *216:34 *216:51 27.5034 
12 *216:51 *1823:A 35.384 
13 *216:51 *1414:B 17.2 
14 *216:30 *1730:A 17.2 
*END

*D_NET *217 0.00119093
*CONN
*I *1090:B I *D NAND2x1_ASAP7_75t_SL
*I *1406:C I *D AND5x2_ASAP7_75t_SL
*I *1414:C I *D AND4x2_ASAP7_75t_SL
*I *1728:A I *D BUFx3_ASAP7_75t_SL
*I *1089:Y O *D AND2x2_ASAP7_75t_SL
*CAP
1 *1090:B 0
2 *1406:C 7.92687e-06
3 *1414:C 2.75748e-06
4 *1728:A 3.04682e-05
5 *1089:Y 6.35866e-06
6 *217:74 2.60638e-05
7 *217:59 4.12946e-05
8 *217:46 6.82239e-05
9 *217:44 2.94299e-05
10 *217:38 4.31517e-05
11 *217:36 3.10773e-05
12 *217:34 2.50293e-05
13 *217:26 4.65131e-05
14 *217:20 3.28493e-05
15 *217:12 9.95971e-05
16 *217:10 8.82316e-05
17 *217:8 6.35866e-06
18 *1414:C *220:48 5.85387e-06
19 *1728:A *529:38 7.21408e-05
20 *1728:A *529:44 1.5804e-05
21 *217:8 *592:24 1.19507e-05
22 *217:8 *622:18 1.69273e-05
23 *217:8 *663:74 3.875e-06
24 *217:12 *1010:A3 1.99083e-05
25 *217:12 *1010:B1 5.62196e-06
26 *217:12 *1010:B2 1.44639e-06
27 *217:12 *728:37 2.12481e-06
28 *217:20 *501:57 1.12894e-06
29 *217:20 *524:94 1.70866e-06
30 *217:20 *592:12 3.68287e-06
31 *217:26 *1090:A 1.35684e-06
32 *217:26 *592:12 2.89992e-05
33 *217:26 *823:34 1.81002e-05
34 *217:26 *823:44 3.38681e-06
35 *217:26 *823:60 1.50458e-05
36 *217:34 *232:14 4.69545e-06
37 *217:34 *529:22 9.72228e-06
38 *217:34 *846:127 3.18516e-08
39 *217:34 *846:129 3.18516e-08
40 *217:38 *220:38 0.000156653
41 *217:38 *529:30 1.64617e-05
42 *217:38 *728:14 7.39976e-05
43 *217:38 *823:8 9.33789e-06
44 *217:44 *552:21 2.93976e-05
45 *217:44 *827:8 2.83874e-07
46 *217:44 *827:12 2.98814e-08
47 *217:44 *846:147 0
48 *217:46 *529:38 4.77737e-05
49 *217:59 *220:48 4.83862e-06
50 *217:59 *882:10 0
51 *217:59 *882:31 0
52 *217:74 *219:45 1.70708e-06
53 *217:74 *220:38 7.9549e-06
54 *217:74 *220:48 1.02586e-05
55 *217:74 *827:12 0
56 *1406:B *217:74 3.3563e-06
*RES
1 *1089:Y *217:8 43.4107 
2 *217:8 *217:10 17.2 
3 *217:10 *217:12 42.2512 
4 *217:12 *217:20 42.2276 
5 *217:20 *217:26 37.0205 
6 *217:26 *217:34 46.9844 
7 *217:34 *217:36 17.2 
8 *217:36 *217:38 46.5298 
9 *217:38 *217:44 44.537 
10 *217:44 *217:46 14.4403 
11 *217:46 *1728:A 42.3368 
12 *217:46 *217:59 46.7897 
13 *217:59 *1414:C 18.8045 
14 *217:59 *217:74 47.0977 
15 *217:74 *1406:C 20.9438 
16 *217:20 *1090:B 17.2 
*END

*D_NET *218 0.000214083
*CONN
*I *1105:E I *D OR5x1_ASAP7_75t_SL
*I *1705:A I *D BUFx3_ASAP7_75t_SL
*I *1090:Y O *D NAND2x1_ASAP7_75t_SL
*CAP
1 *1105:E 5.18739e-06
2 *1705:A 1.13042e-05
3 *1090:Y 0
4 *218:8 3.68844e-05
5 *218:6 2.03927e-05
6 *1105:E *221:14 2.09987e-05
7 *1105:E *514:22 4.20803e-06
8 *1705:A *1105:D 0
9 *1705:A *227:30 0
10 *1705:A *493:39 3.81627e-06
11 *1705:A *514:20 0
12 *1705:A *524:94 2.31101e-05
13 *218:8 *1090:A 6.94376e-06
14 *218:8 *220:30 4.88445e-06
15 *218:8 *524:94 6.56537e-05
16 *218:8 *762:10 1.06997e-05
*RES
1 *1090:Y *218:6 34.4 
2 *218:6 *218:8 22.5266 
3 *218:8 *1705:A 44.9585 
4 *218:8 *1105:E 40.8179 
*END

*D_NET *219 0.000903074
*CONN
*I *1704:A I *D BUFx3_ASAP7_75t_SL
*I *1414:D I *D AND4x2_ASAP7_75t_SL
*I *1406:A I *D AND5x2_ASAP7_75t_SL
*I *1091:Y O *D INVx2_ASAP7_75t_SL
*CAP
1 *1704:A 0
2 *1414:D 1.51776e-05
3 *1406:A 8.44647e-06
4 *1091:Y 2.7274e-05
5 *219:60 2.41528e-05
6 *219:45 4.25965e-05
7 *219:24 9.44913e-05
8 *219:20 5.94434e-05
9 *219:14 9.40295e-05
10 *219:12 9.3212e-05
11 *219:10 3.47284e-05
12 *219:8 3.78496e-05
13 *1406:A *552:21 1.09067e-06
14 *1406:A *827:12 1.19507e-05
15 *219:10 *1850:A 0
16 *219:10 *499:53 5.06314e-05
17 *219:10 *883:10 1.93842e-05
18 *219:14 *514:14 3.19082e-05
19 *219:14 *663:54 5.90718e-05
20 *219:14 *846:143 5.88452e-06
21 *219:14 *846:167 0
22 *219:20 *647:16 3.30589e-06
23 *219:24 *1684:A 5.0551e-07
24 *219:24 *716:6 9.42744e-06
25 *219:45 *552:21 5.67747e-07
26 *219:45 *827:12 1.12532e-05
27 *219:45 *846:143 8.62313e-06
28 *219:45 *846:147 2.00889e-06
29 *219:60 *499:53 5.11055e-05
30 *219:60 *685:19 0
31 *219:60 *889:8 3.8194e-05
32 *1823:A *1414:D 5.52043e-06
33 *29:32 *219:8 5.08628e-05
34 *84:10 *219:20 3.647e-06
35 *216:51 *1414:D 5.00787e-06
36 *216:51 *219:45 1.49407e-08
37 *217:74 *219:45 1.70708e-06
*RES
1 *1091:Y *219:8 49.9099 
2 *219:8 *219:10 16.8011 
3 *219:10 *219:12 17.2 
4 *219:12 *219:14 40.6903 
5 *219:14 *219:20 35.6202 
6 *219:20 *219:24 41.2671 
7 *219:24 *1406:A 41.0163 
8 *219:24 *219:45 48.9519 
9 *219:45 *1414:D 40.8179 
10 *219:10 *219:60 40.8618 
11 *219:60 *1704:A 17.2 
*END

*D_NET *220 0.001016
*CONN
*I *1729:A I *D BUFx3_ASAP7_75t_SL
*I *1414:A I *D AND4x2_ASAP7_75t_SL
*I *1406:D I *D AND5x2_ASAP7_75t_SL
*I *1092:Y O *D AND2x2_ASAP7_75t_SL
*CAP
1 *1729:A 0
2 *1414:A 0
3 *1406:D 0
4 *1092:Y 6.52246e-06
5 *220:48 2.14575e-05
6 *220:38 5.91874e-05
7 *220:36 4.12029e-05
8 *220:30 1.98404e-05
9 *220:20 4.69749e-05
10 *220:18 4.43979e-05
11 *220:12 5.80978e-05
12 *220:8 5.08299e-05
13 *220:8 *583:10 2.02304e-05
14 *220:12 *871:8 5.25794e-06
15 *220:18 *529:20 6.57356e-06
16 *220:18 *820:81 1.12055e-06
17 *220:20 *1864:A 1.36155e-06
18 *220:20 *663:64 2.60494e-05
19 *220:30 *663:54 3.52089e-05
20 *220:30 *762:10 5.0041e-06
21 *220:30 *846:123 3.74016e-08
22 *220:30 *846:143 4.10292e-06
23 *220:30 *846:165 7.85434e-07
24 *220:30 *846:167 4.44596e-06
25 *220:38 *1831:A 1.07377e-06
26 *220:38 *823:8 5.22376e-07
27 *220:48 *882:10 0
28 *1414:C *220:48 5.85387e-06
29 *1532:D *220:12 3.65663e-06
30 *1823:A *220:48 7.79295e-06
31 *11:14 *220:8 0
32 *11:21 *220:8 0
33 *216:22 *220:20 0.000123579
34 *216:22 *220:30 1.90613e-05
35 *216:28 *220:36 0
36 *216:30 *220:38 2.74873e-05
37 *216:32 *220:38 0.000156873
38 *216:51 *220:38 2.0455e-05
39 *216:51 *220:48 6.36827e-06
40 *217:38 *220:38 0.000156653
41 *217:59 *220:48 4.83862e-06
42 *217:74 *220:38 7.9549e-06
43 *217:74 *220:48 1.02586e-05
44 *218:8 *220:30 4.88445e-06
*RES
1 *1092:Y *220:8 41.158 
2 *220:8 *220:12 44.4761 
3 *220:12 *220:18 43.4107 
4 *220:18 *220:20 37.4378 
5 *220:20 *220:30 47.159 
6 *220:30 *220:36 36.1834 
7 *220:36 *220:38 59.3656 
8 *220:38 *220:48 48.6455 
9 *220:48 *1406:D 17.2 
10 *220:38 *1414:A 17.2 
11 *220:20 *1729:A 17.2 
*END

*D_NET *221 0.000138995
*CONN
*I *1105:B I *D OR5x1_ASAP7_75t_SL
*I *1093:Y O *D NAND2x1_ASAP7_75t_SL
*CAP
1 *1105:B 0
2 *1093:Y 7.136e-06
3 *221:14 1.84561e-05
4 *221:10 2.55921e-05
5 *221:10 *1093:B 1.56713e-06
6 *221:10 *233:6 1.40419e-08
7 *221:10 *501:57 1.17774e-05
8 *221:10 *514:22 1.25483e-05
9 *221:10 *524:94 0
10 *221:10 *736:20 5.52807e-07
11 *221:14 *227:30 3.89037e-06
12 *221:14 *233:6 3.44258e-05
13 *221:14 *514:22 2.03608e-06
14 *1105:E *221:14 2.09987e-05
*RES
1 *1093:Y *221:10 42.0859 
2 *221:10 *221:14 34.8492 
3 *221:14 *1105:B 17.2 
*END

*D_NET *222 5.94882e-05
*CONN
*I *1099:A1 I *D AO31x2_ASAP7_75t_SL
*I *1790:A I *D BUFx3_ASAP7_75t_SL
*I *1094:Y O *D INVx1_ASAP7_75t_SL
*CAP
1 *1099:A1 6.32658e-06
2 *1790:A 5.92872e-06
3 *1094:Y 0
4 *222:6 1.22553e-05
5 *1099:A1 *632:16 1.04475e-06
6 *1099:A1 *647:8 1.65126e-05
7 *1099:A1 *677:18 6.27284e-06
8 *1790:A *647:8 4.71862e-06
9 *1790:A *677:18 2.24968e-06
10 *1790:A *747:12 4.17909e-06
*RES
1 *1094:Y *222:6 34.4 
2 *222:6 *1790:A 38.7636 
3 *222:6 *1099:A1 41.6361 
*END

*D_NET *223 0.000128593
*CONN
*P m_axis_tdata[3] O
*I *1095:Y O *D BUFx2_ASAP7_75t_SL
*CAP
1 m_axis_tdata[3] 3.10571e-05
2 *1095:Y 0
3 *223:12 6.42965e-05
4 *223:6 3.32393e-05
*RES
1 *1095:Y *223:6 34.4 
2 *223:6 *223:12 42.3791 
3 *223:12 m_axis_tdata[3] 28.8181 
*END

*D_NET *224 0.000163751
*CONN
*I *1703:A I *D BUFx3_ASAP7_75t_SL
*I *1436:B I *D OR3x2_ASAP7_75t_SL
*I *1702:A I *D BUFx6f_ASAP7_75t_SL
*I *1099:A2 I *D AO31x2_ASAP7_75t_SL
*I *1096:Y O *D INVx4_ASAP7_75t_SL
*CAP
1 *1703:A 1.54939e-05
2 *1436:B 3.82101e-06
3 *1702:A 0
4 *1099:A2 1.93016e-05
5 *1096:Y 0
6 *224:26 2.91769e-05
7 *224:8 3.14384e-05
8 *224:6 2.19988e-05
9 *1099:A2 *552:10 0
10 *1099:A2 *632:22 0
11 *1099:A2 *677:18 0
12 *1436:B *1436:C 6.7842e-07
13 *1436:B *514:8 5.19552e-07
14 *1703:A *647:8 0
15 *1703:A *728:10 1.15945e-06
16 *1703:A *750:52 1.60917e-05
17 *224:8 *552:10 0
18 *224:8 *677:18 0
19 *224:8 *750:22 3.6269e-06
20 *224:8 *750:52 3.6269e-06
21 *224:26 *647:8 0
22 *224:26 *750:14 0
23 *224:26 *750:22 7.84037e-07
24 *224:26 *750:52 9.00506e-06
25 *76:28 *1703:A 7.02886e-06
*RES
1 *1096:Y *224:6 34.4 
2 *224:6 *224:8 9.01066 
3 *224:8 *1099:A2 46.7897 
4 *224:8 *1702:A 34.4 
5 *224:6 *224:26 7.88432 
6 *224:26 *1436:B 36.5393 
7 *224:26 *1703:A 48.4791 
*END

*D_NET *225 0.00104669
*CONN
*I *1108:A I *D NAND2x2_ASAP7_75t_SL
*I *1709:A I *D BUFx3_ASAP7_75t_SL
*I *1439:A I *D AND3x1_ASAP7_75t_SL
*I *1142:B I *D AND2x2_ASAP7_75t_SL
*I *1715:A I *D BUFx6f_ASAP7_75t_SL
*I *1097:Y O *D AND2x2_ASAP7_75t_SL
*CAP
1 *1108:A 0
2 *1709:A 1.47337e-05
3 *1439:A 1.84175e-06
4 *1142:B 1.42007e-05
5 *1715:A 4.35382e-06
6 *1097:Y 9.88235e-06
7 *225:94 1.21427e-05
8 *225:66 2.00066e-05
9 *225:58 4.63487e-05
10 *225:50 6.9878e-05
11 *225:39 7.73832e-05
12 *225:37 3.79557e-05
13 *225:31 3.35139e-05
14 *225:18 9.50175e-05
15 *225:14 0.000160569
16 *225:12 0.000137836
17 *225:8 9.74504e-05
18 *1142:B *1014:C 5.2818e-06
19 *1142:B *1142:A 2.96818e-06
20 *1142:B *262:10 2.12481e-06
21 *1142:B *262:46 5.09299e-06
22 *1142:B *647:14 5.19475e-06
23 *1439:A *231:8 5.22376e-07
24 *1709:A *591:8 0
25 *1709:A *741:8 7.72307e-07
26 *1715:A *630:8 2.02432e-06
27 *225:12 *820:22 6.83995e-06
28 *225:12 *820:39 4.98489e-06
29 *225:14 *820:10 0
30 *225:14 *820:22 6.49184e-07
31 *225:18 *1788:A 0
32 *225:31 *922:A 2.63431e-05
33 *225:31 *632:12 0
34 *225:31 *647:8 0
35 *225:31 *747:16 2.37482e-05
36 *225:31 *822:8 2.3276e-05
37 *225:37 *262:25 9.30483e-06
38 *225:37 *632:8 9.08513e-06
39 *225:39 *1861:A 6.33206e-07
40 *225:39 *262:10 5.52807e-07
41 *225:39 *631:14 2.6465e-05
42 *225:39 *654:8 1.64348e-06
43 *225:39 *727:29 0
44 *225:39 *823:18 0
45 *225:50 *969:A3 0
46 *225:50 *230:26 0
47 *225:50 *631:14 7.27531e-06
48 *225:50 *755:8 0
49 *225:50 *823:10 0
50 *225:58 *647:16 7.89181e-07
51 *225:58 *728:10 3.73518e-07
52 *225:66 *489:8 1.69875e-06
53 *225:66 *514:14 8.12745e-06
54 *225:66 *750:69 0
55 *225:94 *236:23 1.43515e-05
56 *225:94 *663:25 4.50962e-06
57 *969:B1 *1709:A 3.05118e-08
58 *969:B1 *225:50 1.64764e-06
59 *31:14 *225:8 9.49598e-06
60 *31:20 *225:8 5.10358e-06
61 *76:22 *225:39 1.19526e-06
62 *141:12 *225:12 1.47201e-06
*RES
1 *1097:Y *225:8 43.4107 
2 *225:8 *225:12 48.7547 
3 *225:12 *225:14 13.3706 
4 *225:14 *225:18 48.7547 
5 *225:18 *1715:A 37.779 
6 *225:14 *225:31 47.0478 
7 *225:31 *225:37 37.0741 
8 *225:37 *225:39 27.032 
9 *225:39 *1142:B 45.6313 
10 *225:39 *225:50 19.7108 
11 *225:50 *225:58 49.9294 
12 *225:58 *225:66 43.1955 
13 *225:66 *1439:A 35.4697 
14 *225:50 *1709:A 42.7058 
15 *225:12 *225:94 42.6491 
16 *225:94 *1108:A 17.2 
*END

*D_NET *226 0.000474297
*CONN
*I *1099:B I *D AO31x2_ASAP7_75t_SL
*I *941:B I *D AND4x1_ASAP7_75t_SL
*I *1098:Y O *D NAND2x1_ASAP7_75t_SL
*CAP
1 *1099:B 0
2 *941:B 0
3 *1098:Y 0
4 *226:31 5.25373e-05
5 *226:20 1.45817e-05
6 *226:12 0.000138894
7 *226:10 0.000157293
8 *226:6 8.55173e-05
9 *226:10 *827:124 1.13071e-05
10 *226:20 *817:24 0
11 *226:31 *632:16 2.6409e-06
12 *226:31 *747:31 5.17782e-06
13 *13:10 *226:10 1.70866e-06
14 *13:10 *226:31 1.09842e-06
15 *14:10 *226:12 0
16 *160:14 *226:12 0
17 *160:14 *226:20 3.54011e-06
*RES
1 *1098:Y *226:6 34.4 
2 *226:6 *226:10 44.232 
3 *226:10 *226:12 59.3656 
4 *226:12 *226:20 44.4803 
5 *226:20 *941:B 17.2 
6 *226:6 *226:31 48.3049 
7 *226:31 *1099:B 17.2 
*END

*D_NET *227 0.000490047
*CONN
*I *1105:C I *D OR5x1_ASAP7_75t_SL
*I *1099:Y O *D AO31x2_ASAP7_75t_SL
*CAP
1 *1105:C 0
2 *1099:Y 2.92587e-05
3 *227:30 2.01828e-05
4 *227:24 3.2619e-05
5 *227:18 4.24958e-05
6 *227:16 3.00597e-05
7 *227:14 2.28462e-05
8 *227:8 5.21049e-05
9 *227:8 *1012:C 1.0391e-06
10 *227:8 *236:14 9.75645e-06
11 *227:14 *499:14 0
12 *227:14 *654:8 5.254e-05
13 *227:14 *823:18 2.22278e-05
14 *227:18 *499:20 3.79923e-06
15 *227:18 *654:16 8.30525e-05
16 *227:18 *663:25 4.47523e-05
17 *227:18 *823:18 5.79312e-06
18 *227:18 *876:12 8.46363e-06
19 *227:24 *230:30 8.06588e-06
20 *227:30 *1105:D 1.53602e-05
21 *227:30 *232:14 5.79724e-07
22 *227:30 *663:25 1.15945e-06
23 *227:30 *663:33 0
24 *1705:A *227:30 0
25 *3:22 *227:14 0
26 *221:14 *227:30 3.89037e-06
*RES
1 *1099:Y *227:8 46.701 
2 *227:8 *227:14 38.4315 
3 *227:14 *227:16 17.2 
4 *227:16 *227:18 39.8909 
5 *227:18 *227:24 40.2831 
6 *227:24 *227:30 33.4751 
7 *227:30 *1105:C 17.2 
*END

*D_NET *228 0.000153822
*CONN
*I *1102:A I *D NAND2x1_ASAP7_75t_SL
*I *1416:A I *D AND2x2_ASAP7_75t_SL
*I *1100:Y O *D AND4x1_ASAP7_75t_SL
*CAP
1 *1102:A 9.87078e-06
2 *1416:A 0
3 *1100:Y 4.82454e-05
4 *228:6 5.81162e-05
5 *1102:A *229:23 5.77516e-06
6 *228:6 *1856:A 1.36155e-06
7 *228:6 *229:23 5.51397e-07
8 *228:6 *697:12 1.32437e-05
9 *228:6 *881:8 1.66584e-05
*RES
1 *1100:Y *228:6 48.2198 
2 *228:6 *1416:A 17.2 
3 *228:6 *1102:A 24.1527 
*END

*D_NET *229 0.000141329
*CONN
*I *1102:B I *D NAND2x1_ASAP7_75t_SL
*I *1416:B I *D AND2x2_ASAP7_75t_SL
*I *1101:Y O *D AND3x1_ASAP7_75t_SL
*CAP
1 *1102:B 0
2 *1416:B 6.21289e-06
3 *1101:Y 9.4039e-06
4 *229:23 3.73233e-05
5 *229:10 4.35362e-05
6 *229:8 9.4039e-06
7 *1416:B *881:8 2.20493e-06
8 *229:8 *498:8 0
9 *229:8 *499:114 0
10 *229:8 *881:10 2.01457e-05
11 *229:23 *230:8 5.49212e-07
12 *229:23 *230:12 5.09299e-06
13 *229:23 *499:114 0
14 *229:23 *572:10 0
15 *1102:A *229:23 5.77516e-06
16 *15:20 *229:8 1.12894e-06
17 *228:6 *229:23 5.51397e-07
*RES
1 *1101:Y *229:8 43.4107 
2 *229:8 *229:10 17.2 
3 *229:10 *1416:B 19.8741 
4 *229:10 *229:23 35.5824 
5 *229:23 *1102:B 34.4 
*END

*D_NET *230 0.000596421
*CONN
*I *1105:D I *D OR5x1_ASAP7_75t_SL
*I *1102:Y O *D NAND2x1_ASAP7_75t_SL
*CAP
1 *1105:D 1.59847e-05
2 *1102:Y 5.18766e-06
3 *230:30 4.05993e-05
4 *230:26 5.62596e-05
5 *230:18 3.63416e-05
6 *230:12 0.000116351
7 *230:10 0.000111655
8 *230:8 5.18766e-06
9 *1105:D *493:35 4.39947e-06
10 *1105:D *514:20 1.30746e-06
11 *1105:D *524:94 0
12 *1105:D *663:25 0
13 *230:8 *499:114 8.2174e-07
14 *230:8 *572:10 0
15 *230:12 *1865:A 3.85895e-06
16 *230:12 *891:25 5.81943e-05
17 *230:18 *969:A2 3.16603e-06
18 *230:18 *1142:A 2.20966e-06
19 *230:18 *728:10 1.65352e-05
20 *230:26 *1016:A1 0
21 *230:26 *754:13 2.14755e-06
22 *230:26 *755:8 5.19498e-06
23 *1705:A *1105:D 0
24 *29:40 *230:26 1.44167e-06
25 *29:40 *230:30 8.05089e-05
26 *225:50 *230:26 0
27 *227:24 *230:30 8.06588e-06
28 *227:30 *1105:D 1.53602e-05
29 *229:23 *230:8 5.49212e-07
30 *229:23 *230:12 5.09299e-06
*RES
1 *1102:Y *230:8 38.3422 
2 *230:8 *230:10 17.2 
3 *230:10 *230:12 65.7835 
4 *230:12 *230:18 40.0317 
5 *230:18 *230:26 49.5735 
6 *230:26 *230:30 41.2671 
7 *230:30 *1105:D 49.6055 
*END

*D_NET *231 6.04413e-05
*CONN
*I *1684:A I *D BUFx3_ASAP7_75t_SL
*I *1439:B I *D AND3x1_ASAP7_75t_SL
*I *1103:Y O *D INVx1_ASAP7_75t_SL
*CAP
1 *1684:A 1.01373e-05
2 *1439:B 2.55223e-06
3 *1103:Y 1.60021e-05
4 *231:8 2.86917e-05
5 *1439:B *489:8 5.49212e-07
6 *1439:B *750:69 0
7 *1684:A *489:8 5.38904e-07
8 *1684:A *516:12 9.41947e-07
9 *1439:A *231:8 5.22376e-07
10 *219:24 *1684:A 5.0551e-07
*RES
1 *1103:Y *231:8 40.2831 
2 *231:8 *1439:B 36.0895 
3 *231:8 *1684:A 40.5098 
*END

*D_NET *232 8.95113e-05
*CONN
*I *1105:A I *D OR5x1_ASAP7_75t_SL
*I *1104:Y O *D AO31x2_ASAP7_75t_SL
*CAP
1 *1105:A 0
2 *1104:Y 9.4427e-06
3 *232:14 2.5707e-05
4 *232:8 3.51497e-05
5 *232:8 *529:22 6.6195e-06
6 *232:14 *654:16 6.10236e-08
7 *232:14 *663:33 7.25627e-06
8 *232:14 *762:10 0
9 *217:34 *232:14 4.69545e-06
10 *227:30 *232:14 5.79724e-07
*RES
1 *1104:Y *232:8 39.2134 
2 *232:8 *232:14 33.4751 
3 *232:14 *1105:A 17.2 
*END

*D_NET *233 0.000155218
*CONN
*I *1653:A I *D BUFx6f_ASAP7_75t_SL
*I *1105:Y O *D OR5x1_ASAP7_75t_SL
*CAP
1 *1653:A 0
2 *1105:Y 5.61004e-05
3 *233:6 5.61004e-05
4 *233:6 *1093:B 5.41446e-06
5 *233:6 *514:22 0
6 *233:6 *853:12 3.16328e-06
7 *221:10 *233:6 1.40419e-08
8 *221:14 *233:6 3.44258e-05
*RES
1 *1105:Y *233:6 43.9412 
2 *233:6 *1653:A 17.2 
*END

*D_NET *234 0.000110961
*CONN
*P m_axis_tdata[2] O
*I *1106:Y O *D BUFx2_ASAP7_75t_SL
*CAP
1 m_axis_tdata[2] 5.28127e-05
2 *1106:Y 2.66765e-06
3 *234:8 5.54804e-05
*RES
1 *1106:Y *234:8 36.3711 
2 *234:8 m_axis_tdata[2] 42.5774 
*END

*D_NET *235 8.26905e-05
*CONN
*P m_axis_tdata[1] O
*I *1107:Y O *D BUFx2_ASAP7_75t_SL
*CAP
1 m_axis_tdata[1] 3.86214e-05
2 *1107:Y 2.72384e-06
3 *235:8 4.13453e-05
*RES
1 *1107:Y *235:8 36.5588 
2 *235:8 m_axis_tdata[1] 37.3828 
*END

*D_NET *236 0.000515151
*CONN
*I *1681:A I *D BUFx6f_ASAP7_75t_SL
*I *1682:A I *D BUFx3_ASAP7_75t_SL
*I *1012:A I *D OR3x1_ASAP7_75t_SL
*I *1108:Y O *D NAND2x2_ASAP7_75t_SL
*CAP
1 *1681:A 0
2 *1682:A 0
3 *1012:A 0
4 *1108:Y 0
5 *236:48 4.59248e-05
6 *236:42 4.97345e-05
7 *236:29 5.94098e-05
8 *236:27 7.33414e-05
9 *236:23 6.91833e-05
10 *236:14 1.69484e-05
11 *236:4 6.83905e-05
12 *236:14 *1108:B 1.98214e-05
13 *236:14 *654:8 2.94717e-05
14 *236:23 *502:12 5.82745e-07
15 *236:23 *504:12 1.76448e-06
16 *236:27 *820:39 7.49203e-06
17 *236:29 *714:10 8.67685e-06
18 *236:42 *714:10 6.1473e-07
19 *236:48 *714:10 6.07405e-06
20 *1097:B *236:29 6.20163e-07
21 *1759:A *236:29 1.54891e-05
22 *31:14 *236:29 6.5975e-06
23 *31:20 *236:29 1.885e-06
24 *141:8 *236:27 9.02011e-06
25 *225:94 *236:23 1.43515e-05
26 *227:8 *236:14 9.75645e-06
*RES
1 *1108:Y *236:4 17.2 
2 *236:4 *236:14 48.8156 
3 *236:14 *1012:A 17.2 
4 *236:4 *236:23 39.1278 
5 *236:23 *236:27 32.4055 
6 *236:27 *236:29 36.3681 
7 *236:29 *1682:A 17.2 
8 *236:29 *236:42 37.1591 
9 *236:42 *236:48 43.6898 
10 *236:48 *1681:A 34.4 
*END

*D_NET *237 7.9617e-05
*CONN
*P m_axis_tdata[0] O
*I *1109:Y O *D BUFx2_ASAP7_75t_SL
*CAP
1 m_axis_tdata[0] 3.86214e-05
2 *1109:Y 1.18706e-06
3 *237:8 3.98085e-05
*RES
1 *1109:Y *237:8 35.057 
2 *237:8 m_axis_tdata[0] 37.3828 
*END

*D_NET *238 0.000154338
*CONN
*I *1111:B I *D OA21x2_ASAP7_75t_SL
*I *1110:Y O *D NAND2x1_ASAP7_75t_SL
*CAP
1 *1111:B 8.84942e-06
2 *1110:Y 1.99941e-05
3 *238:10 2.88435e-05
4 *1111:B *1111:A2 3.09382e-05
5 *1111:B *243:8 5.77612e-06
6 *1111:B *713:181 1.07377e-06
7 *1111:B *875:59 5.62196e-06
8 *1111:B *875:68 1.73158e-06
9 *238:10 *678:43 0
10 *1116:A *1111:B 2.31575e-05
11 *1116:A *238:10 1.7743e-05
12 *28:10 *238:10 0
13 *28:14 *238:10 1.06092e-05
*RES
1 *1110:Y *238:10 45.2382 
2 *238:10 *1111:B 46.701 
*END

*D_NET *239 9.25243e-05
*CONN
*I *1113:A2 I *D OA21x2_ASAP7_75t_SL
*I *1111:Y O *D OA21x2_ASAP7_75t_SL
*CAP
1 *1113:A2 0
2 *1111:Y 9.79946e-06
3 *239:12 2.90289e-05
4 *239:8 3.88283e-05
5 *239:8 *1111:A2 6.53938e-06
6 *239:12 *1117:B 8.05934e-06
7 *239:12 *678:43 0
8 *239:12 *871:110 2.68933e-07
9 *239:12 *871:123 0
*RES
1 *1111:Y *239:8 39.2134 
2 *239:8 *239:12 39.7266 
3 *239:12 *1113:A2 17.2 
*END

*D_NET *240 6.05817e-05
*CONN
*I *1113:B I *D OA21x2_ASAP7_75t_SL
*I *1112:Y O *D NAND2x1p5_ASAP7_75t_SL
*CAP
1 *1113:B 0
2 *1112:Y 0
3 *240:10 2.85528e-05
4 *240:6 2.85528e-05
5 *240:10 *678:43 0
6 *240:10 *871:93 0
7 *240:10 *871:110 3.47607e-06
8 *240:10 *871:123 0
9 *29:10 *240:10 0
10 *29:14 *240:10 0
*RES
1 *1112:Y *240:6 34.4 
2 *240:6 *240:10 36.9108 
3 *240:10 *1113:B 17.2 
*END

*D_NET *241 7.04403e-05
*CONN
*I *1115:B I *D OA21x2_ASAP7_75t_SL
*I *1114:Y O *D NAND2x1_ASAP7_75t_SL
*CAP
1 *1115:B 6.01551e-06
2 *1114:Y 1.58915e-06
3 *241:8 7.60466e-06
4 *1115:B *242:10 3.65663e-06
5 *1115:B *713:171 3.0096e-05
6 *241:8 *875:74 8.19503e-06
7 *1114:A *1115:B 5.08828e-06
8 *1114:A *241:8 8.19503e-06
*RES
1 *1114:Y *241:8 37.2158 
2 *241:8 *1115:B 43.492 
*END

*D_NET *242 9.35968e-05
*CONN
*I *1117:A2 I *D OA21x2_ASAP7_75t_SL
*I *1115:Y O *D OA21x2_ASAP7_75t_SL
*CAP
1 *1117:A2 1.98787e-05
2 *1115:Y 1.87509e-05
3 *242:10 3.86296e-05
4 *1117:A2 *713:164 6.7842e-07
5 *242:10 *678:43 1.12894e-06
6 *242:10 *713:171 5.19552e-07
7 *242:10 *875:55 8.06436e-06
8 *1115:B *242:10 3.65663e-06
9 *145:10 *1117:A2 2.28976e-06
*RES
1 *1115:Y *242:10 44.1686 
2 *242:10 *1117:A2 45.6313 
*END

*D_NET *243 9.61554e-05
*CONN
*I *1117:B I *D OA21x2_ASAP7_75t_SL
*I *1116:Y O *D NAND2x1_ASAP7_75t_SL
*CAP
1 *1117:B 1.69964e-05
2 *1116:Y 1.64859e-05
3 *243:8 3.34823e-05
4 *1117:B *678:43 0
5 *1111:B *243:8 5.77612e-06
6 *1116:A *243:8 1.25483e-05
7 *145:10 *1117:B 2.80709e-06
8 *239:12 *1117:B 8.05934e-06
*RES
1 *1116:Y *243:8 42.4224 
2 *243:8 *1117:B 46.7897 
*END

*D_NET *244 5.76193e-05
*CONN
*I *1119:B I *D OA21x2_ASAP7_75t_SL
*I *1118:Y O *D NAND2x1_ASAP7_75t_SL
*CAP
1 *1119:B 6.09652e-06
2 *1118:Y 1.44047e-05
3 *244:10 2.05013e-05
4 *1119:B *245:8 4.70139e-06
5 *1119:B *670:12 1.1364e-05
6 *244:10 *1118:B 5.51397e-07
7 *244:10 *875:55 0
*RES
1 *1118:Y *244:10 41.6361 
2 *244:10 *1119:B 42.4224 
*END

*D_NET *245 9.61697e-05
*CONN
*I *1121:A2 I *D OA21x2_ASAP7_75t_SL
*I *1119:Y O *D OA21x2_ASAP7_75t_SL
*CAP
1 *1121:A2 1.23723e-05
2 *1119:Y 1.38308e-05
3 *245:8 2.62032e-05
4 *1121:A2 *875:55 3.88093e-05
5 *1121:A2 *875:74 0
6 *245:8 *1119:A2 2.52755e-07
7 *245:8 *670:12 0
8 *1119:B *245:8 4.70139e-06
*RES
1 *1119:Y *245:8 41.3527 
2 *245:8 *1121:A2 47.3528 
*END

*D_NET *246 3.33249e-05
*CONN
*I *1121:B I *D OA21x2_ASAP7_75t_SL
*I *1120:Y O *D NAND2x2_ASAP7_75t_SL
*CAP
1 *1121:B 0
2 *1120:Y 1.52894e-05
3 *246:10 1.52894e-05
4 *246:10 *875:55 2.74606e-06
5 *246:10 *875:74 0
*RES
1 *1120:Y *246:10 44.1686 
2 *246:10 *1121:B 34.4 
*END

*D_NET *247 2.11744e-05
*CONN
*I *1123:B I *D OA21x2_ASAP7_75t_SL
*I *1122:Y O *D NAND2x1_ASAP7_75t_SL
*CAP
1 *1123:B 0
2 *1122:Y 6.40669e-06
3 *247:8 6.40669e-06
4 *247:8 *713:124 7.57697e-06
5 *247:8 *713:133 7.84037e-07
6 *247:8 *875:42 0
*RES
1 *1122:Y *247:8 40.0317 
2 *247:8 *1123:B 34.4 
*END

*D_NET *248 8.53954e-05
*CONN
*I *1125:A2 I *D OA21x2_ASAP7_75t_SL
*I *1123:Y O *D OA21x2_ASAP7_75t_SL
*CAP
1 *1125:A2 1.31057e-05
2 *1123:Y 1.19527e-05
3 *248:10 2.50584e-05
4 *1125:A2 *249:12 2.66207e-05
5 *1125:A2 *678:31 3.46317e-06
6 *248:10 *671:6 5.19475e-06
7 *248:10 *713:133 0
*RES
1 *1123:Y *248:10 41.6361 
2 *248:10 *1125:A2 45.0965 
*END

*D_NET *249 0.000106459
*CONN
*I *1125:B I *D OA21x2_ASAP7_75t_SL
*I *1124:Y O *D NAND2x2_ASAP7_75t_SL
*CAP
1 *1125:B 0
2 *1124:Y 0
3 *249:12 3.28289e-05
4 *249:6 3.28289e-05
5 *249:12 *1118:B 0
6 *249:12 *713:133 0
7 *249:12 *713:156 0
8 *1124:A *249:12 3.6269e-06
9 *1125:A2 *249:12 2.66207e-05
10 *26:10 *249:12 5.37569e-06
11 *147:10 *249:12 5.17782e-06
*RES
1 *1124:Y *249:6 34.4 
2 *249:6 *249:12 43.7502 
3 *249:12 *1125:B 17.2 
*END

*D_NET *250 8.48205e-05
*CONN
*I *1127:B I *D OA21x2_ASAP7_75t_SL
*I *1126:Y O *D NAND2x1_ASAP7_75t_SL
*CAP
1 *1127:B 0
2 *1126:Y 3.00043e-05
3 *250:10 3.00043e-05
4 *250:10 *251:12 3.34577e-06
5 *250:10 *713:86 1.21348e-05
6 *250:10 *713:94 9.33147e-06
*RES
1 *1126:Y *250:10 48.4472 
2 *250:10 *1127:B 34.4 
*END

*D_NET *251 0.000117644
*CONN
*I *1129:A1 I *D OA21x2_ASAP7_75t_SL
*I *1127:Y O *D OA21x2_ASAP7_75t_SL
*CAP
1 *1129:A1 0
2 *1127:Y 1.52393e-05
3 *251:12 2.91999e-05
4 *251:8 4.44392e-05
5 *251:8 *713:86 1.7689e-06
6 *251:8 *713:94 4.7125e-06
7 *251:12 *672:8 1.53963e-06
8 *251:12 *713:86 4.90042e-07
9 *251:12 *871:74 0
10 *251:12 *874:51 1.69088e-05
11 *250:10 *251:12 3.34577e-06
*RES
1 *1127:Y *251:8 41.3527 
2 *251:8 *251:12 43.1056 
3 *251:12 *1129:A1 17.2 
*END

*D_NET *252 3.48997e-05
*CONN
*I *1129:B I *D OA21x2_ASAP7_75t_SL
*I *1128:Y O *D NAND2x2_ASAP7_75t_SL
*CAP
1 *1129:B 0
2 *1128:Y 1.57118e-05
3 *252:10 1.57118e-05
4 *252:10 *871:82 3.47607e-06
5 *252:10 *875:42 0
*RES
1 *1128:Y *252:10 44.1686 
2 *252:10 *1129:B 34.4 
*END

*D_NET *253 0.000142565
*CONN
*I *1131:B I *D OA21x2_ASAP7_75t_SL
*I *1130:Y O *D NAND2x1_ASAP7_75t_SL
*CAP
1 *1131:B 4.69977e-06
2 *1130:Y 0
3 *253:8 4.86811e-05
4 *253:6 4.39813e-05
5 *253:8 *254:10 0
6 *253:8 *713:50 1.26923e-05
7 *253:8 *713:65 2.82699e-06
8 *253:8 *713:221 1.07612e-05
9 *150:10 *253:8 1.89221e-05
*RES
1 *1130:Y *253:6 34.4 
2 *253:6 *253:8 39.4216 
3 *253:8 *1131:B 37.0741 
*END

*D_NET *254 0.000185275
*CONN
*I *1133:A2 I *D OA21x2_ASAP7_75t_SL
*I *1131:Y O *D OA21x2_ASAP7_75t_SL
*CAP
1 *1133:A2 5.65617e-06
2 *1131:Y 1.46699e-05
3 *254:10 4.99823e-05
4 *254:8 5.8996e-05
5 *1133:A2 *871:63 1.36155e-06
6 *1133:A2 *871:74 5.26266e-06
7 *254:10 *283:15 0
8 *254:10 *713:65 3.41635e-07
9 *254:10 *871:74 0
10 *254:10 *874:36 7.0931e-07
11 *23:12 *254:10 4.82951e-05
12 *149:8 *254:10 0
13 *253:8 *254:10 0
*RES
1 *1131:Y *254:8 41.3527 
2 *254:8 *254:10 37.7321 
3 *254:10 *1133:A2 38.6786 
*END

*D_NET *255 5.64247e-05
*CONN
*I *1133:B I *D OA21x2_ASAP7_75t_SL
*I *1132:Y O *D NAND2x2_ASAP7_75t_SL
*CAP
1 *1133:B 2.36854e-05
2 *1132:Y 2.36854e-05
3 *1133:B *871:74 2.20493e-06
4 *1133:B *874:57 6.84893e-06
*RES
1 *1132:Y *1133:B 49.9099 
*END

*D_NET *256 8.52625e-05
*CONN
*I *1135:B I *D OA21x2_ASAP7_75t_SL
*I *1134:Y O *D NAND2x1_ASAP7_75t_SL
*CAP
1 *1135:B 1.55017e-05
2 *1134:Y 6.11655e-06
3 *256:8 2.16183e-05
4 *1135:B *258:10 4.18905e-06
5 *1135:B *713:42 2.08701e-05
6 *256:8 *871:59 9.81412e-07
7 *150:10 *256:8 1.59854e-05
*RES
1 *1134:Y *256:8 40.0317 
2 *256:8 *1135:B 46.701 
*END

*D_NET *257 3.92086e-05
*CONN
*I *1137:A2 I *D OA21x2_ASAP7_75t_SL
*I *1135:Y O *D OA21x2_ASAP7_75t_SL
*CAP
1 *1137:A2 6.15299e-06
2 *1135:Y 8.85434e-06
3 *257:8 1.50073e-05
4 *1137:A2 *871:48 1.885e-06
5 *1137:A2 *871:59 6.58754e-06
6 *257:8 *871:59 7.21451e-07
*RES
1 *1135:Y *257:8 40.0317 
2 *257:8 *1137:A2 38.6786 
*END

*D_NET *258 5.46892e-05
*CONN
*I *1137:B I *D OA21x2_ASAP7_75t_SL
*I *1136:Y O *D NAND2x2_ASAP7_75t_SL
*CAP
1 *1137:B 0
2 *1136:Y 1.9671e-05
3 *258:10 1.9671e-05
4 *258:10 *713:42 5.96787e-07
5 *258:10 *713:59 2.90269e-07
6 *258:10 *871:59 8.78845e-06
7 *1135:B *258:10 4.18905e-06
8 *150:10 *258:10 1.4826e-06
*RES
1 *1136:Y *258:10 48.1674 
2 *258:10 *1137:B 34.4 
*END

*D_NET *259 6.49573e-05
*CONN
*I *1139:B I *D OA21x2_ASAP7_75t_SL
*I *1138:Y O *D NAND2x1_ASAP7_75t_SL
*CAP
1 *1139:B 3.38973e-06
2 *1138:Y 2.89771e-05
3 *259:10 3.23669e-05
4 *259:10 *714:61 1.94557e-07
5 *259:10 *874:12 0
6 *1138:A *259:10 2.90209e-08
7 *1140:A *259:10 0
*RES
1 *1138:Y *259:10 49.4071 
2 *259:10 *1139:B 36.0045 
*END

*D_NET *260 0.000115807
*CONN
*I *1141:A2 I *D OA21x2_ASAP7_75t_SL
*I *1139:Y O *D OA21x2_ASAP7_75t_SL
*CAP
1 *1141:A2 1.40759e-05
2 *1139:Y 4.71233e-06
3 *260:8 1.87882e-05
4 *1141:A2 *1141:B 2.26543e-05
5 *1141:A2 *871:40 3.51462e-05
6 *1141:A2 *874:24 3.41107e-06
7 *260:8 *871:40 1.98264e-06
8 *1140:A *1141:A2 1.04206e-05
9 *1140:A *260:8 4.6155e-06
*RES
1 *1139:Y *260:8 38.9053 
2 *260:8 *1141:A2 46.701 
*END

*D_NET *261 5.85259e-05
*CONN
*I *1141:B I *D OA21x2_ASAP7_75t_SL
*I *1140:Y O *D NAND2x2_ASAP7_75t_SL
*CAP
1 *1141:B 1.25844e-05
2 *1140:Y 3.83726e-06
3 *261:8 1.64216e-05
4 *261:8 *871:46 3.02834e-06
5 *1141:A2 *1141:B 2.26543e-05
*RES
1 *1140:Y *261:8 37.2158 
2 *261:8 *1141:B 42.4224 
*END

*D_NET *262 0.00104319
*CONN
*I *1431:A2 I *D AO21x1_ASAP7_75t_SL
*I *1144:A1 I *D OA21x2_ASAP7_75t_SL
*I *1411:B I *D OR3x1_ASAP7_75t_SL
*I *1013:A2 I *D OA211x2_ASAP7_75t_SL
*I *1017:B I *D OR3x1_ASAP7_75t_SL
*I *1142:Y O *D AND2x2_ASAP7_75t_SL
*CAP
1 *1431:A2 1.73686e-05
2 *1144:A1 1.50409e-05
3 *1411:B 0
4 *1013:A2 4.38434e-06
5 *1017:B 0
6 *1142:Y 0
7 *262:88 3.06128e-05
8 *262:71 3.78254e-05
9 *262:69 4.23536e-05
10 *262:58 3.01152e-05
11 *262:52 6.3512e-05
12 *262:46 9.08754e-05
13 *262:31 3.59971e-05
14 *262:25 4.53147e-05
15 *262:12 1.3702e-05
16 *262:10 2.84377e-05
17 *262:4 7.95914e-05
18 *1013:A2 *628:10 1.12439e-05
19 *1144:A1 *721:10 5.51397e-07
20 *1431:A2 *501:42 2.3365e-05
21 *262:10 *631:14 2.42254e-05
22 *262:10 *647:8 0
23 *262:10 *755:8 1.12894e-06
24 *262:10 *890:16 2.04644e-05
25 *262:25 *1861:A 1.91561e-05
26 *262:25 *631:14 1.52651e-06
27 *262:25 *632:8 3.05302e-06
28 *262:25 *654:8 1.63973e-05
29 *262:31 *552:6 2.52755e-07
30 *262:31 *663:25 1.12778e-05
31 *262:31 *823:18 6.65157e-06
32 *262:46 *1014:C 0
33 *262:46 *629:8 2.25196e-06
34 *262:46 *727:31 5.06448e-05
35 *262:46 *727:38 8.87763e-06
36 *262:52 *501:34 7.73911e-06
37 *262:52 *524:90 3.87941e-06
38 *262:52 *722:42 1.9257e-06
39 *262:58 *499:47 0
40 *262:58 *501:53 0
41 *262:58 *728:118 2.66207e-05
42 *262:58 *852:12 1.04765e-05
43 *262:58 *894:16 1.52651e-06
44 *262:69 *894:25 1.57869e-05
45 *262:71 *492:18 4.10928e-06
46 *262:71 *492:26 8.21855e-06
47 *262:71 *499:34 1.64764e-06
48 *262:71 *894:25 7.62338e-05
49 *262:88 *499:84 0
50 *262:88 *501:34 3.7812e-05
51 *262:88 *820:81 1.06688e-06
52 *1142:B *262:10 2.12481e-06
53 *1142:B *262:46 5.09299e-06
54 *1455:B *262:71 8.46363e-06
55 *1869:A *262:69 1.15587e-05
56 *3:30 *262:31 4.30517e-07
57 *72:29 *262:69 5.76364e-06
58 *72:29 *262:71 4.61688e-05
59 *73:24 *262:71 1.09842e-06
60 *75:12 *262:71 1.93842e-05
61 *225:37 *262:25 9.30483e-06
62 *225:39 *262:10 5.52807e-07
*RES
1 *1142:Y *262:4 17.2 
2 *262:4 *262:10 42.4574 
3 *262:10 *262:12 17.2 
4 *262:12 *1017:B 17.2 
5 *262:12 *262:25 48.054 
6 *262:25 *262:31 35.3594 
7 *262:31 *1013:A2 37.609 
8 *262:4 *262:46 44.2512 
9 *262:46 *262:52 49.1178 
10 *262:52 *262:58 36.2571 
11 *262:58 *1411:B 17.2 
12 *262:58 *262:69 24.7177 
13 *262:69 *262:71 36.3242 
14 *262:71 *1144:A1 41.8876 
15 *262:69 *262:88 42.0846 
16 *262:88 *1431:A2 46.701 
*END

*D_NET *263 7.08272e-05
*CONN
*I *1144:B I *D OA21x2_ASAP7_75t_SL
*I *1143:Y O *D NAND2x2_ASAP7_75t_SL
*CAP
1 *1144:B 1.10158e-05
2 *1143:Y 2.38599e-05
3 *263:10 3.48757e-05
4 *263:10 *818:30 1.07573e-06
*RES
1 *1143:Y *263:10 49.5168 
2 *263:10 *1144:B 40.2831 
*END

*D_NET *264 0.000875313
*CONN
*I *1691:A I *D BUFx3_ASAP7_75t_SL
*I *1193:D I *D OR5x1_ASAP7_75t_SL
*I *1149:C I *D OR3x2_ASAP7_75t_SL
*I *1145:Y O *D OR4x1_ASAP7_75t_SL
*CAP
1 *1691:A 0
2 *1193:D 0
3 *1149:C 0
4 *1145:Y 5.55787e-06
5 *264:70 4.73261e-05
6 *264:61 6.2068e-06
7 *264:53 3.00216e-05
8 *264:45 6.95142e-05
9 *264:39 0.000124631
10 *264:28 3.34815e-05
11 *264:24 3.86933e-05
12 *264:18 4.3042e-05
13 *264:12 1.72857e-05
14 *264:8 1.66185e-05
15 *264:8 *865:12 1.11752e-05
16 *264:8 *865:65 7.82603e-06
17 *264:12 *1225:D 5.85387e-06
18 *264:12 *733:25 5.51804e-05
19 *264:12 *862:22 6.64365e-05
20 *264:18 *731:57 5.37866e-07
21 *264:18 *733:25 3.05118e-08
22 *264:18 *825:33 2.27339e-05
23 *264:18 *885:29 1.57363e-05
24 *264:24 *699:23 0
25 *264:24 *707:23 1.00883e-05
26 *264:24 *731:63 1.24757e-05
27 *264:28 *268:8 5.0551e-07
28 *264:39 *268:54 4.34881e-05
29 *264:39 *663:83 0
30 *264:39 *663:93 5.49212e-07
31 *264:39 *707:10 0
32 *264:39 *707:23 1.49407e-08
33 *264:45 *289:12 1.0473e-06
34 *264:45 *663:83 0
35 *264:45 *692:109 0
36 *264:53 *692:113 1.22212e-05
37 *264:53 *770:42 4.10928e-06
38 *264:61 *1193:E 6.33206e-07
39 *264:61 *792:21 3.16603e-06
40 *264:70 *731:47 2.3365e-05
41 *264:70 *733:50 2.57949e-05
42 *180:16 *264:45 8.146e-06
43 *180:18 *264:39 2.17659e-05
44 *180:18 *264:45 4.94402e-05
45 *180:37 *264:39 1.30044e-05
46 *186:68 *264:39 2.20179e-07
47 *189:75 *264:61 4.1009e-06
48 *195:12 *264:8 1.90012e-05
49 *195:33 *264:39 2.25196e-06
50 *195:37 *264:39 2.03526e-06
*RES
1 *1145:Y *264:8 41.158 
2 *264:8 *264:12 36.9885 
3 *264:12 *264:18 42.2843 
4 *264:18 *264:24 42.7335 
5 *264:24 *264:28 18.2696 
6 *264:28 *1149:C 17.2 
7 *264:28 *264:39 45.2449 
8 *264:39 *264:45 46.9024 
9 *264:45 *264:53 46.871 
10 *264:53 *264:61 38.8486 
11 *264:61 *1193:D 17.2 
12 *264:39 *264:70 49.8243 
13 *264:70 *1691:A 17.2 
*END

*D_NET *265 6.20727e-05
*CONN
*I *1147:A I *D OR4x2_ASAP7_75t_SL
*I *1146:Y O *D AND3x1_ASAP7_75t_SL
*CAP
1 *1147:A 4.73448e-06
2 *1146:Y 1.8297e-05
3 *265:10 2.30315e-05
4 *265:10 *770:31 5.17782e-06
5 *265:10 *809:79 0
6 *265:10 *863:117 3.90551e-06
7 *1147:B *1147:A 6.92634e-06
8 *1853:A *265:10 0
*RES
1 *1146:Y *265:10 46.0281 
2 *265:10 *1147:A 37.609 
*END

*D_NET *266 0.000976403
*CONN
*I *1160:B I *D NAND2x1_ASAP7_75t_SL
*I *1664:A I *D BUFx3_ASAP7_75t_SL
*I *1329:C I *D AO211x2_ASAP7_75t_SL
*I *1147:Y O *D OR4x2_ASAP7_75t_SL
*CAP
1 *1160:B 0
2 *1664:A 1.92418e-05
3 *1329:C 0
4 *1147:Y 0
5 *266:49 2.9878e-05
6 *266:41 1.16654e-05
7 *266:37 4.38128e-05
8 *266:35 4.27837e-05
9 *266:28 5.72565e-06
10 *266:22 0.000105136
11 *266:20 0.000105421
12 *266:14 7.32147e-05
13 *266:10 0.000112418
14 *266:4 4.52138e-05
15 *1664:A *1160:A 1.06092e-05
16 *1664:A *703:10 5.0551e-07
17 *266:10 *1147:C 2.20493e-06
18 *266:10 *436:10 2.30873e-06
19 *266:10 *692:97 0
20 *266:14 *282:40 3.80508e-05
21 *266:20 *462:10 1.49407e-08
22 *266:22 *717:30 0.000177609
23 *266:28 *403:14 3.55046e-06
24 *266:28 *423:8 0
25 *266:37 *1163:C 1.17284e-05
26 *266:37 *282:28 3.79923e-06
27 *266:37 *693:66 0
28 *266:37 *693:78 1.02359e-06
29 *266:37 *717:18 3.05118e-08
30 *266:37 *769:28 1.12925e-05
31 *266:37 *771:31 4.77327e-05
32 *266:37 *811:10 4.83862e-06
33 *266:37 *820:146 3.18406e-05
34 *266:37 *863:106 1.43982e-06
35 *266:37 *863:117 4.87797e-06
36 *266:37 *878:16 8.98591e-06
37 *266:41 *1160:A 3.90258e-06
38 *266:49 *1160:A 1.47193e-05
39 *266:49 *278:10 6.33206e-07
40 *1:57 *266:14 0
41 *96:8 *266:37 1.94229e-07
*RES
1 *1147:Y *266:4 17.2 
2 *266:4 *266:10 37.8333 
3 *266:10 *266:14 42.9561 
4 *266:14 *266:20 37.4974 
5 *266:20 *266:22 51.878 
6 *266:22 *266:28 38.3422 
7 *266:28 *1329:C 17.2 
8 *266:4 *266:35 17.2 
9 *266:35 *266:37 40.548 
10 *266:37 *266:41 18.2696 
11 *266:41 *266:49 41.4944 
12 *266:49 *1664:A 29.501 
13 *266:41 *1160:B 17.2 
*END

*D_NET *267 0.000154621
*CONN
*I *1158:A1 I *D AOI21x1_ASAP7_75t_SL
*I *1148:Y O *D NAND2x1_ASAP7_75t_SL
*CAP
1 *1158:A1 0
2 *1148:Y 9.98917e-06
3 *267:12 8.68771e-06
4 *267:8 1.86769e-05
5 *267:8 *815:61 5.0551e-07
6 *267:12 *745:10 5.20272e-05
7 *267:12 *820:123 5.17586e-05
8 *95:12 *267:8 1.29755e-05
*RES
1 *1148:Y *267:8 41.3527 
2 *267:8 *267:12 34.6581 
3 *267:12 *1158:A1 17.2 
*END

*D_NET *268 0.00150848
*CONN
*I *1188:B I *D OR3x1_ASAP7_75t_SL
*I *1661:A I *D BUFx3_ASAP7_75t_SL
*I *1374:C I *D AO211x2_ASAP7_75t_SL
*I *1678:A I *D BUFx3_ASAP7_75t_SL
*I *1676:A I *D BUFx6f_ASAP7_75t_SL
*I *1149:Y O *D OR3x2_ASAP7_75t_SL
*CAP
1 *1188:B 2.20652e-05
2 *1661:A 4.36968e-06
3 *1374:C 1.48244e-05
4 *1678:A 0
5 *1676:A 0
6 *1149:Y 0
7 *268:94 4.05737e-05
8 *268:70 4.69049e-05
9 *268:64 6.58717e-05
10 *268:60 4.75672e-05
11 *268:56 7.13759e-05
12 *268:54 9.61273e-05
13 *268:38 3.75419e-05
14 *268:32 6.73616e-05
15 *268:26 8.89189e-05
16 *268:20 6.92927e-05
17 *268:12 1.01935e-05
18 *268:10 4.99103e-05
19 *268:8 7.30384e-05
20 *268:4 3.87773e-05
21 *1188:B *1188:A 1.59615e-06
22 *1188:B *663:106 5.22376e-07
23 *1374:C *1397:A1 3.70102e-05
24 *1374:C *717:30 3.05302e-06
25 *1661:A *723:18 2.27522e-06
26 *1661:A *723:22 5.85387e-06
27 *268:10 *1226:B 1.66387e-05
28 *268:10 *699:31 0
29 *268:10 *707:23 0
30 *268:10 *731:63 1.28723e-05
31 *268:10 *733:33 3.73518e-07
32 *268:10 *733:35 2.18135e-06
33 *268:20 *699:44 0
34 *268:20 *710:14 1.04611e-05
35 *268:20 *825:33 0
36 *268:26 *825:37 8.52138e-05
37 *268:32 *284:12 1.22784e-05
38 *268:32 *708:8 0
39 *268:38 *284:8 0
40 *268:38 *430:18 8.30732e-06
41 *268:38 *708:8 1.23489e-06
42 *268:54 *304:8 0
43 *268:54 *663:93 3.16603e-06
44 *268:54 *699:8 0
45 *268:54 *869:12 0
46 *268:56 *1248:C 1.09133e-05
47 *268:56 *284:35 3.68287e-06
48 *268:56 *663:95 2.71368e-06
49 *268:56 *863:123 6.28016e-06
50 *268:60 *436:10 0
51 *268:60 *706:8 1.1648e-05
52 *268:60 *706:12 1.56807e-06
53 *268:60 *723:18 8.46363e-06
54 *268:64 *282:38 1.30997e-06
55 *268:64 *436:10 0
56 *268:64 *482:12 4.07882e-06
57 *268:64 *706:12 7.75768e-06
58 *268:64 *723:18 4.83862e-06
59 *268:64 *769:36 7.5755e-06
60 *268:70 *282:40 0.00010373
61 *268:94 *304:8 0
62 *268:94 *663:93 1.96943e-05
63 *268:94 *663:95 3.56648e-06
64 *268:94 *663:106 2.68282e-05
65 *1:57 *268:70 0
66 *137:8 *268:56 1.15918e-05
67 *180:22 *268:56 0.000148238
68 *180:37 *268:54 6.24249e-06
69 *186:55 *268:8 7.46759e-06
70 *186:68 *268:8 2.03526e-06
71 *186:76 *268:94 8.06436e-06
72 *189:48 *268:10 4.88493e-06
73 *192:16 *268:26 0
74 *195:37 *268:8 3.56177e-06
75 *264:28 *268:8 5.0551e-07
76 *264:39 *268:54 4.34881e-05
*RES
1 *1149:Y *268:4 17.2 
2 *268:4 *268:8 28.4313 
3 *268:8 *268:10 38.8585 
4 *268:10 *268:12 17.2 
5 *268:12 *268:20 40.9224 
6 *268:20 *268:26 37.6832 
7 *268:26 *268:32 47.7706 
8 *268:32 *268:38 37.1302 
9 *268:38 *1676:A 17.2 
10 *268:12 *1678:A 17.2 
11 *268:4 *268:54 49.6055 
12 *268:54 *268:56 55.087 
13 *268:56 *268:60 27.337 
14 *268:60 *268:64 42.0732 
15 *268:64 *268:70 35.1721 
16 *268:70 *1374:C 47.7706 
17 *268:60 *1661:A 37.0741 
18 *268:54 *268:94 35.5258 
19 *268:94 *1188:B 46.1661 
*END

*D_NET *269 0.000224002
*CONN
*P s_axis_tvalid I
*I *1150:A I *D BUFx2_ASAP7_75t_SL
*CAP
1 s_axis_tvalid 1.08564e-05
2 *1150:A 0
3 *269:23 6.18213e-06
4 *269:17 5.52214e-05
5 *269:13 8.78363e-05
6 *269:11 4.96534e-05
7 *269:13 *676:10 0
8 *269:17 *1041:A 1.4252e-05
9 *269:23 *333:15 0
*RES
1 s_axis_tvalid *269:11 34.1973 
2 *269:11 *269:13 33.5084 
3 *269:13 *269:17 40.1975 
4 *269:17 *269:23 38.9053 
5 *269:23 *1150:A 17.2 
*END

*D_NET *270 0.00103853
*CONN
*I *1174:B I *D AND3x1_ASAP7_75t_SL
*I *1307:A I *D AND2x4_ASAP7_75t_SL
*I *1677:A I *D BUFx3_ASAP7_75t_SL
*I *1373:A1 I *D AO31x2_ASAP7_75t_SL
*I *1358:A I *D AND3x1_ASAP7_75t_SL
*I *1155:B I *D NAND2x1p5_ASAP7_75t_SL
*I *1151:Y O *D NAND2x2_ASAP7_75t_SL
*CAP
1 *1174:B 7.65834e-06
2 *1307:A 0
3 *1677:A 1.1681e-05
4 *1373:A1 0
5 *1358:A 1.22509e-05
6 *1155:B 1.33892e-06
7 *1151:Y 1.82109e-05
8 *270:79 4.37907e-05
9 *270:75 4.6425e-05
10 *270:69 2.31615e-05
11 *270:54 1.10162e-05
12 *270:46 2.75846e-05
13 *270:33 3.66104e-05
14 *270:22 2.7955e-05
15 *270:20 4.81794e-05
16 *270:18 5.12482e-05
17 *270:12 4.13825e-05
18 *270:10 3.59932e-05
19 *270:8 1.82109e-05
20 *1155:B *1155:A 6.92634e-06
21 *1155:B *272:44 3.68287e-06
22 *1155:B *456:6 1.06092e-05
23 *1174:B *1174:A 3.90258e-06
24 *1174:B *1174:C 3.67067e-06
25 *1174:B *695:42 2.01337e-05
26 *1174:B *711:10 1.04475e-06
27 *1358:A *272:40 2.03526e-06
28 *1358:A *745:22 4.66887e-05
29 *1358:A *763:30 5.03183e-05
30 *1677:A *709:6 1.78333e-06
31 *270:8 *1174:A 2.98814e-07
32 *270:8 *436:10 1.57874e-05
33 *270:8 *820:167 2.83874e-07
34 *270:12 *695:42 6.47554e-05
35 *270:12 *878:40 1.56984e-05
36 *270:18 *1395:B 3.05118e-08
37 *270:18 *272:20 1.15945e-06
38 *270:18 *442:10 0
39 *270:18 *470:8 4.83862e-06
40 *270:18 *878:46 1.52942e-06
41 *270:20 *272:44 1.40502e-05
42 *270:20 *456:6 7.72911e-05
43 *270:20 *470:14 4.09005e-05
44 *270:20 *769:66 1.10364e-05
45 *270:20 *769:72 9.31704e-06
46 *270:20 *863:98 7.58265e-07
47 *270:22 *272:44 1.00654e-05
48 *270:22 *456:6 8.30736e-06
49 *270:33 *1372:C 5.09995e-06
50 *270:33 *272:40 0
51 *270:33 *460:10 0
52 *270:33 *763:45 9.67723e-06
53 *270:46 *272:55 2.22736e-06
54 *270:46 *460:10 0
55 *270:54 *457:10 0
56 *270:69 *1307:B 2.19685e-06
57 *270:69 *272:55 1.09842e-06
58 *270:75 *1307:B 2.1695e-05
59 *270:75 *1363:A2 0
60 *270:75 *844:156 0
61 *270:79 *452:10 6.74311e-06
62 *270:79 *844:156 1.89747e-06
63 *200:12 *270:12 1.23408e-05
64 *200:16 *270:12 7.08556e-05
65 *200:26 *270:20 1.51001e-05
*RES
1 *1151:Y *270:8 48.4791 
2 *270:8 *270:10 17.2 
3 *270:10 *270:12 33.694 
4 *270:12 *270:18 42.2843 
5 *270:18 *270:20 37.9726 
6 *270:20 *270:22 2.67412 
7 *270:22 *1155:B 20.409 
8 *270:22 *270:33 34.6581 
9 *270:33 *1358:A 48.3055 
10 *270:20 *270:46 22.8317 
11 *270:46 *270:54 40.9596 
12 *270:54 *1373:A1 34.4 
13 *270:46 *270:69 41.0163 
14 *270:69 *270:75 27.8151 
15 *270:75 *270:79 39.7266 
16 *270:79 *1677:A 41.3527 
17 *270:75 *1307:A 17.2 
18 *270:10 *1174:B 24.1527 
*END

*D_NET *271 0.000281605
*CONN
*I *1727:A I *D BUFx3_ASAP7_75t_SL
*I *1153:B I *D AO21x2_ASAP7_75t_SL
*I *1152:Y O *D OR2x2_ASAP7_75t_SL
*CAP
1 *1727:A 0
2 *1153:B 3.75767e-06
3 *1152:Y 0
4 *271:27 1.71124e-05
5 *271:10 7.31434e-05
6 *271:4 8.64981e-05
7 *1153:B *272:6 1.49512e-05
8 *1153:B *809:43 1.10486e-05
9 *271:10 *294:16 9.75645e-06
10 *271:10 *299:8 1.62312e-05
11 *271:10 *692:129 9.75645e-06
12 *271:10 *808:25 1.60683e-05
13 *271:10 *809:41 4.83862e-06
14 *271:27 *808:49 5.00816e-06
15 *271:27 *809:10 4.57497e-06
16 *70:33 *271:10 6.6145e-06
17 *176:10 *271:10 2.24484e-06
*RES
1 *1152:Y *271:4 17.2 
2 *271:4 *271:10 47.9684 
3 *271:10 *1153:B 38.6786 
4 *271:4 *271:27 43.7188 
5 *271:27 *1727:A 17.2 
*END

*D_NET *272 0.00119512
*CONN
*I *1663:A I *D BUFx6f_ASAP7_75t_SL
*I *1395:B I *D AND3x1_ASAP7_75t_SL
*I *1369:B1 I *D AO32x1_ASAP7_75t_SL
*I *1358:B I *D AND3x1_ASAP7_75t_SL
*I *1307:B I *D AND2x4_ASAP7_75t_SL
*I *1373:A2 I *D AO31x2_ASAP7_75t_SL
*I *1155:A I *D NAND2x1p5_ASAP7_75t_SL
*I *1153:Y O *D AO21x2_ASAP7_75t_SL
*CAP
1 *1663:A 0
2 *1395:B 1.87362e-05
3 *1369:B1 6.14666e-06
4 *1358:B 0
5 *1307:B 1.29176e-05
6 *1373:A2 0
7 *1155:A 9.72828e-06
8 *1153:Y 3.36274e-05
9 *272:106 1.45783e-05
10 *272:55 1.98994e-05
11 *272:44 3.3323e-05
12 *272:40 6.52555e-05
13 *272:34 5.9617e-05
14 *272:32 2.24691e-05
15 *272:26 3.18853e-05
16 *272:20 5.06154e-05
17 *272:18 7.33674e-05
18 *272:14 0.000139465
19 *272:12 9.73275e-05
20 *272:6 3.66217e-05
21 *1155:A *456:6 4.4994e-06
22 *1307:B *1363:A2 0
23 *1307:B *403:8 2.71839e-06
24 *1307:B *447:16 0
25 *1369:B1 *441:27 3.70102e-05
26 *1369:B1 *456:14 3.46317e-06
27 *1395:B *1395:C 5.62196e-06
28 *1395:B *442:10 0
29 *1395:B *769:54 9.81516e-06
30 *272:6 *1153:A2 3.80843e-05
31 *272:6 *744:23 2.88806e-06
32 *272:6 *809:43 6.70433e-06
33 *272:6 *809:47 3.65131e-06
34 *272:6 *897:10 1.59615e-06
35 *272:12 *663:83 0
36 *272:14 *291:14 3.06777e-05
37 *272:14 *636:18 4.73754e-07
38 *272:14 *711:31 3.38749e-05
39 *272:14 *809:64 1.04306e-05
40 *272:14 *820:228 3.39905e-05
41 *272:14 *846:109 3.04745e-06
42 *272:14 *863:102 0
43 *272:18 *863:102 0
44 *272:20 *470:8 2.18135e-06
45 *272:20 *863:98 2.95693e-06
46 *272:32 *441:10 3.73518e-07
47 *272:32 *441:23 2.25787e-06
48 *272:32 *468:10 0
49 *272:32 *828:8 0
50 *272:34 *1358:C 2.79851e-06
51 *272:34 *441:23 5.94108e-06
52 *272:34 *476:16 3.68287e-06
53 *272:40 *1372:C 0
54 *272:40 *457:10 0
55 *272:40 *476:16 5.62196e-06
56 *272:40 *476:18 0
57 *272:40 *745:22 2.62652e-05
58 *272:55 *447:16 0
59 *272:55 *460:10 0
60 *272:106 *442:10 0
61 *272:106 *695:42 1.48586e-06
62 *1153:B *272:6 1.49512e-05
63 *1155:B *1155:A 6.92634e-06
64 *1155:B *272:44 3.68287e-06
65 *1358:A *272:40 2.03526e-06
66 *1712:A *272:6 2.20493e-06
67 *1:57 *272:14 1.65938e-05
68 *1:57 *272:18 5.02428e-06
69 *176:22 *272:6 3.76449e-05
70 *179:12 *272:6 5.00816e-06
71 *200:16 *272:106 3.00838e-05
72 *200:20 *272:20 1.07514e-05
73 *212:30 *1395:B 0
74 *270:18 *1395:B 3.05118e-08
75 *270:18 *272:20 1.15945e-06
76 *270:20 *272:44 1.40502e-05
77 *270:22 *272:44 1.00654e-05
78 *270:33 *272:40 0
79 *270:46 *272:55 2.22736e-06
80 *270:69 *1307:B 2.19685e-06
81 *270:69 *272:55 1.09842e-06
82 *270:75 *1307:B 2.1695e-05
*RES
1 *1153:Y *272:6 48.7547 
2 *272:6 *272:12 35.8079 
3 *272:12 *272:14 41.989 
4 *272:14 *272:18 27.3726 
5 *272:18 *272:20 17.7397 
6 *272:20 *272:26 33.3298 
7 *272:26 *272:32 42.2843 
8 *272:32 *272:34 8.02238 
9 *272:34 *272:40 48.1988 
10 *272:40 *272:44 24.1527 
11 *272:44 *1155:A 22.5483 
12 *272:44 *272:55 22.8317 
13 *272:55 *1373:A2 34.4 
14 *272:55 *1307:B 45.55 
15 *272:34 *1358:B 17.2 
16 *272:20 *1369:B1 49.9099 
17 *272:18 *1395:B 45.8599 
18 *272:14 *272:106 45.4631 
19 *272:106 *1663:A 17.2 
*END

*D_NET *273 0.000173308
*CONN
*P s_axis_tdata[7] I
*I *1154:A I *D BUFx2_ASAP7_75t_SL
*CAP
1 s_axis_tdata[7] 1.55283e-05
2 *1154:A 2.57282e-05
3 *273:15 5.32152e-05
4 *273:11 4.30154e-05
5 *1154:A *276:17 3.56648e-06
6 *1154:A *675:8 5.1503e-06
7 *273:11 *276:9 2.71041e-05
8 *273:11 *280:9 0
*RES
1 s_axis_tdata[7] *273:11 39.8839 
2 *273:11 *273:15 39.4451 
3 *273:15 *1154:A 32.7099 
*END

*D_NET *274 1.29223e-05
*CONN
*I *1838:A I *D BUFx6f_ASAP7_75t_SL
*I *1155:Y O *D NAND2x1p5_ASAP7_75t_SL
*CAP
1 *1838:A 5.86014e-06
2 *1155:Y 5.86014e-06
3 *1838:A *456:6 1.20203e-06
*RES
1 *1155:Y *1838:A 36.5393 
*END

*D_NET *275 6.08676e-05
*CONN
*I *1158:A2 I *D AOI21x1_ASAP7_75t_SL
*I *1156:Y O *D OR3x1_ASAP7_75t_SL
*CAP
1 *1158:A2 1.15742e-05
2 *1156:Y 9.59127e-06
3 *275:8 2.11654e-05
4 *1158:A2 *820:129 6.6195e-06
5 *1158:A2 *820:228 4.33445e-06
6 *275:8 *745:10 0
7 *275:8 *820:123 3.73518e-07
8 *275:8 *820:228 0
9 *275:8 *863:106 6.57603e-06
10 *275:8 *863:117 6.33206e-07
*RES
1 *1156:Y *275:8 41.158 
2 *275:8 *1158:A2 42.4224 
*END

*D_NET *276 0.000120408
*CONN
*P s_axis_tdata[6] I
*I *1157:A I *D BUFx2_ASAP7_75t_SL
*CAP
1 s_axis_tdata[6] 3.67173e-05
2 *1157:A 0
3 *276:17 8.15116e-06
4 *276:9 4.48685e-05
5 *276:9 *280:9 0
6 *1154:A *276:17 3.56648e-06
7 *273:11 *276:9 2.71041e-05
*RES
1 s_axis_tdata[6] *276:9 34.4275 
2 *276:9 *276:17 38.8008 
3 *276:17 *1157:A 17.2 
*END

*D_NET *277 9.88729e-06
*CONN
*I *1163:A2 I *D OA211x2_ASAP7_75t_SL
*I *1159:Y O *D AO21x1_ASAP7_75t_SL
*CAP
1 *1163:A2 3.63771e-06
2 *1159:Y 3.63771e-06
3 *88:22 *1163:A2 2.61188e-06
*RES
1 *1159:Y *1163:A2 37.0741 
*END

*D_NET *278 7.80266e-05
*CONN
*I *1163:B I *D OA211x2_ASAP7_75t_SL
*I *1160:Y O *D NAND2x1_ASAP7_75t_SL
*CAP
1 *1163:B 0
2 *1160:Y 1.46939e-05
3 *278:10 1.46939e-05
4 *278:10 *1159:B 0
5 *278:10 *1160:A 1.32196e-05
6 *278:10 *693:78 8.24135e-06
7 *278:10 *771:31 2.65447e-05
8 *266:49 *278:10 6.33206e-07
*RES
1 *1160:Y *278:10 47.1544 
2 *278:10 *1163:B 34.4 
*END

*D_NET *279 0.000200443
*CONN
*I *1788:A I *D BUFx6f_ASAP7_75t_SL
*I *1785:A I *D BUFx3_ASAP7_75t_SL
*I *1161:Y O *D INVx1_ASAP7_75t_SL
*CAP
1 *1788:A 7.43172e-06
2 *1785:A 0
3 *1161:Y 0
4 *279:16 7.44916e-05
5 *279:10 7.74535e-05
6 *279:4 1.03937e-05
7 *279:10 *647:8 9.43723e-06
8 *279:10 *677:14 9.49598e-06
9 *279:16 *630:8 7.21596e-07
10 *279:16 *663:12 1.36155e-06
11 *279:16 *677:6 6.02341e-06
12 *279:16 *817:8 1.12894e-06
13 *279:16 *817:12 2.50424e-06
14 *279:16 *817:18 0
15 *2:23 *279:16 0
16 *225:18 *1788:A 0
*RES
1 *1161:Y *279:4 17.2 
2 *279:4 *279:10 37.779 
3 *279:10 *279:16 49.2648 
4 *279:16 *1785:A 34.4 
5 *279:4 *1788:A 19.8741 
*END

*D_NET *280 8.96782e-05
*CONN
*P s_axis_tdata[5] I
*I *1162:A I *D BUFx2_ASAP7_75t_SL
*CAP
1 s_axis_tdata[5] 4.3652e-05
2 *1162:A 0
3 *280:15 1.18706e-06
4 *280:9 4.48391e-05
5 *273:11 *280:9 0
6 *276:9 *280:9 0
*RES
1 s_axis_tdata[5] *280:9 34.8604 
2 *280:9 *280:15 35.057 
3 *280:15 *1162:A 17.2 
*END

*D_NET *281 4.73659e-05
*CONN
*I *1173:A1 I *D AO21x1_ASAP7_75t_SL
*I *1175:A2 I *D AO32x1_ASAP7_75t_SL
*I *1164:Y O *D INVx1_ASAP7_75t_SL
*CAP
1 *1173:A1 0
2 *1175:A2 0
3 *1164:Y 6.75271e-06
4 *281:14 9.91412e-06
5 *281:6 1.66668e-05
6 *281:14 *1175:A3 7.63254e-07
7 *281:14 *290:8 0
8 *281:14 *707:10 1.27635e-05
9 *199:12 *281:6 5.0551e-07
*RES
1 *1164:Y *281:6 19.8741 
2 *281:6 *281:14 41.0446 
3 *281:14 *1175:A2 17.2 
4 *281:6 *1173:A1 17.2 
*END

*D_NET *282 0.00198598
*CONN
*I *1675:A I *D BUFx6f_ASAP7_75t_SL
*I *1338:B I *D AO21x1_ASAP7_75t_SL
*I *1671:A I *D BUFx3_ASAP7_75t_SL
*I *1247:A I *D NAND2x1_ASAP7_75t_SL
*I *1251:A1 I *D OA211x2_ASAP7_75t_SL
*I *1295:B I *D AO21x1_ASAP7_75t_SL
*I *1165:Y O *D OR3x2_ASAP7_75t_SL
*CAP
1 *1675:A 2.3794e-06
2 *1338:B 9.72782e-06
3 *1671:A 7.16221e-06
4 *1247:A 0
5 *1251:A1 4.94939e-06
6 *1295:B 4.63994e-06
7 *1165:Y 3.78681e-06
8 *282:87 5.35564e-05
9 *282:85 3.66664e-05
10 *282:78 1.51362e-05
11 *282:63 2.34222e-05
12 *282:59 6.62939e-05
13 *282:55 9.68379e-05
14 *282:42 3.85206e-05
15 *282:40 0.000192603
16 *282:38 0.000204077
17 *282:30 4.65912e-05
18 *282:28 4.79195e-05
19 *282:22 4.22607e-05
20 *282:16 4.75895e-05
21 *282:8 2.42982e-05
22 *1251:A1 *1251:B 1.95129e-06
23 *1295:B *335:24 1.44639e-06
24 *1295:B *385:8 5.90849e-06
25 *1338:B *430:8 4.57952e-06
26 *1671:A *430:10 0
27 *1671:A *436:10 4.83862e-06
28 *1675:A *869:14 1.44167e-06
29 *282:8 *733:35 1.12894e-06
30 *282:8 *825:25 1.67815e-06
31 *282:16 *733:35 2.25787e-06
32 *282:16 *825:25 2.80709e-06
33 *282:16 *869:14 1.08691e-05
34 *282:22 *284:16 5.52807e-07
35 *282:22 *706:14 1.66706e-05
36 *282:22 *723:72 1.12894e-06
37 *282:22 *731:47 3.74953e-05
38 *282:22 *863:117 4.43533e-05
39 *282:28 *693:66 7.75e-06
40 *282:28 *723:72 2.71199e-05
41 *282:28 *863:117 0
42 *282:30 *769:32 6.34111e-05
43 *282:38 *769:32 1.30071e-05
44 *282:40 *384:68 7.63088e-05
45 *282:40 *481:14 0.000140847
46 *282:55 *1292:B 2.63359e-05
47 *282:55 *385:8 7.53952e-05
48 *282:55 *389:10 9.8079e-06
49 *282:55 *392:10 1.49813e-05
50 *282:55 *415:37 2.83874e-07
51 *282:55 *415:43 8.46363e-06
52 *282:59 *1251:B 4.73041e-06
53 *282:59 *349:12 1.52651e-06
54 *282:59 *392:16 2.61188e-06
55 *282:59 *865:53 8.65792e-06
56 *282:59 *867:30 4.17901e-06
57 *282:63 *349:12 8.3257e-06
58 *282:63 *372:10 1.55612e-05
59 *282:78 *349:12 4.13889e-05
60 *282:78 *372:10 4.02987e-05
61 *282:87 *430:10 0
62 *282:87 *436:10 0.000110803
63 *282:87 *636:18 0
64 *282:87 *769:36 0
65 *282:87 *820:173 2.0917e-07
66 *282:87 *846:15 2.0915e-06
67 *282:87 *878:26 1.63973e-05
68 *1:57 *282:40 0
69 *186:46 *282:22 1.10745e-05
70 *200:8 *282:87 0
71 *266:14 *282:40 3.80508e-05
72 *266:37 *282:28 3.79923e-06
73 *268:64 *282:38 1.30997e-06
74 *268:70 *282:40 0.00010373
*RES
1 *1165:Y *282:8 37.779 
2 *282:8 *282:16 47.4909 
3 *282:16 *282:22 46.7927 
4 *282:22 *282:28 48.4791 
5 *282:28 *282:30 19.7885 
6 *282:30 *282:38 40.678 
7 *282:38 *282:40 78.9999 
8 *282:40 *282:42 17.2 
9 *282:42 *1295:B 37.4407 
10 *282:42 *282:55 39.14 
11 *282:55 *282:59 48.7547 
12 *282:59 *282:63 22.2685 
13 *282:63 *1251:A1 36.5393 
14 *282:63 *282:78 35.0229 
15 *282:78 *1247:A 17.2 
16 *282:30 *282:85 17.2 
17 *282:85 *282:87 37.7321 
18 *282:87 *1671:A 40.9029 
19 *282:87 *1338:B 44.5617 
20 *282:8 *1675:A 35.4697 
*END

*D_NET *283 0.000107317
*CONN
*P s_axis_tdata[4] I
*I *1166:A I *D BUFx2_ASAP7_75t_SL
*CAP
1 s_axis_tdata[4] 4.23963e-05
2 *1166:A 0
3 *283:15 1.12622e-05
4 *283:9 5.36585e-05
5 *254:10 *283:15 0
*RES
1 s_axis_tdata[4] *283:9 34.5358 
2 *283:9 *283:15 43.3168 
3 *283:15 *1166:A 17.2 
*END

*D_NET *284 0.00069565
*CONN
*I *1172:C I *D AND5x2_ASAP7_75t_SL
*I *1248:A I *D AND4x2_ASAP7_75t_SL
*I *1699:A I *D BUFx3_ASAP7_75t_SL
*I *1167:Y O *D AND2x4_ASAP7_75t_SL
*CAP
1 *1172:C 3.50261e-06
2 *1248:A 0
3 *1699:A 9.87917e-07
4 *1167:Y 1.00757e-05
5 *284:46 3.11498e-05
6 *284:35 1.50622e-05
7 *284:20 2.06247e-05
8 *284:18 3.22218e-05
9 *284:16 8.61047e-05
10 *284:14 8.61047e-05
11 *284:12 3.34564e-05
12 *284:8 4.35322e-05
13 *1172:C *1172:D 1.5804e-05
14 *1172:C *706:14 1.99018e-05
15 *1699:A *723:10 8.65792e-06
16 *1699:A *733:50 8.87763e-06
17 *284:8 *436:10 9.21329e-07
18 *284:12 *699:46 1.9285e-05
19 *284:16 *1227:C 3.31794e-05
20 *284:16 *287:8 6.34287e-05
21 *284:16 *330:8 1.1946e-05
22 *284:16 *693:94 8.32972e-06
23 *284:16 *731:47 5.79724e-07
24 *284:16 *731:57 0
25 *284:16 *865:12 0
26 *284:20 *723:10 3.50589e-05
27 *284:20 *733:50 3.74374e-05
28 *284:35 *693:94 0
29 *284:35 *723:10 5.37866e-07
30 *284:35 *733:56 3.47607e-06
31 *284:46 *1172:D 5.52807e-07
32 *284:46 *723:10 3.68287e-06
33 *284:46 *733:50 3.83162e-05
34 *1059:A *284:16 3.51396e-06
35 *1059:C *284:16 0
36 *1145:A *284:16 9.66472e-07
37 *1145:B *284:16 9.93076e-07
38 *92:10 *284:16 4.48222e-08
39 *186:46 *284:46 8.2174e-07
40 *193:57 *284:16 0
41 *268:32 *284:12 1.22784e-05
42 *268:38 *284:8 0
43 *268:56 *284:35 3.68287e-06
44 *282:22 *284:16 5.52807e-07
*RES
1 *1167:Y *284:8 40.0317 
2 *284:8 *284:12 39.1278 
3 *284:12 *284:14 17.2 
4 *284:14 *284:16 69.2694 
5 *284:16 *284:18 17.2 
6 *284:18 *284:20 11.2313 
7 *284:20 *1699:A 19.8741 
8 *284:20 *284:35 44.4803 
9 *284:35 *1248:A 17.2 
10 *284:18 *284:46 36.3156 
11 *284:46 *1172:C 40.2831 
*END

*D_NET *285 0.000906559
*CONN
*I *1701:A I *D BUFx3_ASAP7_75t_SL
*I *1248:B I *D AND4x2_ASAP7_75t_SL
*I *1168:Y O *D AND2x2_ASAP7_75t_SL
*CAP
1 *1701:A 3.3816e-06
2 *1248:B 2.98259e-06
3 *1168:Y 4.3754e-05
4 *285:28 2.38151e-05
5 *285:24 5.67325e-05
6 *285:18 5.99517e-05
7 *285:14 0.000113202
8 *285:12 9.40016e-05
9 *285:6 4.52234e-05
10 *1701:A *733:10 5.51397e-07
11 *285:6 *689:100 5.17782e-06
12 *285:14 *286:12 3.74473e-06
13 *285:14 *346:32 7.66024e-07
14 *285:14 *377:25 0.000215162
15 *285:14 *723:50 8.30941e-05
16 *285:14 *825:37 5.37321e-06
17 *285:18 *286:8 1.93482e-06
18 *285:18 *430:18 8.69705e-06
19 *285:18 *436:10 0
20 *285:24 *430:18 6.59178e-06
21 *285:24 *436:10 0
22 *285:24 *862:28 7.76918e-07
23 *285:24 *865:12 1.35938e-05
24 *285:24 *867:14 2.08041e-06
25 *285:24 *885:8 6.76625e-06
26 *285:24 *885:29 1.89282e-07
27 *285:28 *351:10 4.30991e-05
28 *285:28 *351:23 5.60838e-06
29 *285:28 *693:94 0
30 *285:28 *825:12 0
31 *33:16 *285:24 3.94093e-05
32 *137:12 *285:28 1.49407e-08
33 *180:22 *1248:B 2.28976e-06
34 *186:25 *285:24 2.38207e-06
35 *189:6 *285:6 7.34229e-06
36 *192:16 *285:14 1.87008e-07
37 *193:26 *285:14 0
38 *195:12 *285:28 8.68182e-06
*RES
1 *1168:Y *285:6 42.3368 
2 *285:6 *285:12 35.057 
3 *285:12 *285:14 44.5862 
4 *285:14 *285:18 33.438 
5 *285:18 *285:24 40.3485 
6 *285:24 *285:28 36.0661 
7 *285:28 *1248:B 36.0045 
8 *285:18 *1701:A 36.0045 
*END

*D_NET *286 0.00029424
*CONN
*I *1859:A I *D BUFx3_ASAP7_75t_SL
*I *1171:A I *D AND5x2_ASAP7_75t_SL
*I *1169:Y O *D INVx1_ASAP7_75t_SL
*CAP
1 *1859:A 8.53768e-06
2 *1171:A 0
3 *1169:Y 4.36953e-07
4 *286:20 3.80385e-05
5 *286:14 4.65762e-05
6 *286:12 3.89202e-05
7 *286:8 3.93571e-05
8 *1859:A *388:12 3.56648e-06
9 *1859:A *462:10 4.72148e-06
10 *1859:A *756:10 6.10236e-08
11 *1859:A *884:8 3.66013e-06
12 *286:8 *430:18 7.84772e-07
13 *286:12 *287:20 1.4556e-06
14 *286:12 *377:25 1.56539e-05
15 *286:12 *846:31 1.04046e-07
16 *286:20 *462:10 2.34802e-05
17 *286:20 *756:10 2.05027e-06
18 *286:20 *756:16 4.34318e-06
19 *286:20 *800:8 9.46253e-06
20 *286:20 *865:20 2.12481e-06
21 *286:20 *880:23 9.78222e-06
22 *286:20 *884:8 2.05956e-06
23 *192:16 *286:12 3.32836e-05
24 *193:45 *286:12 9.97376e-08
25 *285:14 *286:12 3.74473e-06
26 *285:18 *286:8 1.93482e-06
*RES
1 *1169:Y *286:8 35.057 
2 *286:8 *286:12 33.8657 
3 *286:12 *286:14 17.2 
4 *286:14 *286:20 47.0566 
5 *286:20 *1171:A 17.2 
6 *286:14 *1859:A 41.4856 
*END

*D_NET *287 0.00132875
*CONN
*I *1305:D I *D AND5x1_ASAP7_75t_SL
*I *1716:A I *D BUFx3_ASAP7_75t_SL
*I *1302:B I *D NAND2x1_ASAP7_75t_SL
*I *1171:E I *D AND5x2_ASAP7_75t_SL
*I *1170:Y O *D AND2x2_ASAP7_75t_SL
*CAP
1 *1305:D 0
2 *1716:A 0
3 *1302:B 1.02608e-05
4 *1171:E 0
5 *1170:Y 0
6 *287:89 3.50936e-06
7 *287:78 1.02594e-05
8 *287:72 3.60025e-05
9 *287:68 5.52096e-05
10 *287:60 4.31084e-05
11 *287:49 6.17485e-05
12 *287:38 2.25325e-05
13 *287:32 8.23117e-05
14 *287:28 3.86088e-05
15 *287:20 3.06608e-05
16 *287:12 5.92544e-05
17 *287:8 8.06955e-05
18 *287:6 3.89358e-05
19 *1302:B *398:10 6.36827e-06
20 *1302:B *398:25 5.65425e-06
21 *1302:B *398:59 6.7842e-07
22 *287:8 *329:10 2.63947e-07
23 *287:8 *330:8 2.25337e-05
24 *287:8 *807:14 1.19496e-05
25 *287:8 *807:25 0
26 *287:8 *865:65 0
27 *287:12 *846:67 7.0179e-06
28 *287:20 *377:23 1.49407e-08
29 *287:20 *430:18 9.91667e-06
30 *287:28 *739:14 7.16111e-06
31 *287:28 *846:27 1.84643e-06
32 *287:32 *739:14 0.000105444
33 *287:38 *398:46 6.34404e-06
34 *287:38 *399:12 4.62468e-05
35 *287:38 *417:8 2.35211e-06
36 *287:38 *689:45 1.13052e-05
37 *287:38 *802:14 1.94526e-06
38 *287:38 *802:25 1.09646e-05
39 *287:38 *802:33 6.22816e-06
40 *287:38 *857:25 7.35354e-06
41 *287:49 *398:46 2.58742e-05
42 *287:49 *398:59 6.47843e-06
43 *287:49 *417:8 1.25811e-06
44 *287:49 *471:16 4.91588e-06
45 *287:49 *692:18 0
46 *287:49 *723:44 2.98316e-06
47 *287:49 *802:33 2.68255e-06
48 *287:60 *388:37 3.05118e-08
49 *287:60 *388:54 3.88115e-06
50 *287:60 *471:16 5.04548e-05
51 *287:60 *477:10 2.29684e-05
52 *287:60 *819:54 4.66977e-06
53 *287:68 *346:24 1.49407e-08
54 *287:68 *388:24 0
55 *287:68 *705:22 5.70209e-06
56 *287:72 *1392:A1 2.87605e-06
57 *287:72 *378:14 1.56089e-05
58 *287:72 *452:16 1.66706e-05
59 *287:72 *765:12 9.40277e-06
60 *287:78 *1282:A 0
61 *287:78 *1283:B 0
62 *287:78 *452:18 0
63 *287:89 *400:10 4.87677e-06
64 *287:89 *478:10 1.30795e-06
65 *287:89 *689:64 9.51027e-06
66 *33:29 *287:28 2.6552e-06
67 *45:12 *287:78 0
68 *92:10 *287:8 0
69 *119:8 *287:8 3.42309e-05
70 *185:36 *287:68 0
71 *186:10 *287:28 1.35422e-05
72 *192:12 *287:28 1.1211e-07
73 *192:16 *287:12 6.63282e-06
74 *192:16 *287:20 8.0651e-06
75 *193:45 *287:20 3.28428e-07
76 *193:45 *287:28 1.96207e-05
77 *193:45 *287:32 0.00010594
78 *193:53 *287:12 3.08502e-05
79 *193:53 *287:20 1.66433e-06
80 *193:53 *287:28 3.36871e-06
81 *284:16 *287:8 6.34287e-05
82 *286:12 *287:20 1.4556e-06
*RES
1 *1170:Y *287:6 34.4 
2 *287:6 *287:8 44.584 
3 *287:8 *287:12 35.8137 
4 *287:12 *287:20 42.9448 
5 *287:20 *287:28 43.1479 
6 *287:28 *287:32 35.1644 
7 *287:32 *287:38 39.7071 
8 *287:38 *1171:E 17.2 
9 *287:32 *287:49 45.0094 
10 *287:49 *1302:B 23.0831 
11 *287:49 *287:60 34.3766 
12 *287:60 *287:68 43.2971 
13 *287:68 *287:72 39.1278 
14 *287:72 *287:78 41.158 
15 *287:78 *1716:A 17.2 
16 *287:28 *287:89 37.8729 
17 *287:89 *1305:D 17.2 
*END

*D_NET *288 0.000178067
*CONN
*I *1674:A I *D BUFx6f_ASAP7_75t_SL
*I *1248:C I *D AND4x2_ASAP7_75t_SL
*I *1171:Y O *D AND5x2_ASAP7_75t_SL
*CAP
1 *1674:A 0
2 *1248:C 1.30899e-05
3 *1171:Y 1.32508e-05
4 *288:22 2.31425e-05
5 *288:16 3.97866e-05
6 *288:10 4.29849e-05
7 *288:10 *689:53 3.31686e-06
8 *288:10 *756:16 6.7842e-07
9 *288:10 *820:197 1.09842e-06
10 *288:10 *865:20 0
11 *288:16 *1399:B 3.47607e-06
12 *288:16 *483:8 3.56648e-06
13 *288:16 *689:53 5.19498e-06
14 *288:16 *820:193 5.08828e-06
15 *288:16 *820:197 5.79724e-07
16 *288:22 *1860:A 2.19685e-06
17 *288:22 *350:8 1.09067e-06
18 *288:22 *706:8 5.79724e-07
19 *1279:A *288:10 6.7842e-07
20 *180:22 *1248:C 7.35354e-06
21 *268:56 *1248:C 1.09133e-05
*RES
1 *1171:Y *288:10 41.5228 
2 *288:10 *288:16 36.6521 
3 *288:16 *288:22 41.158 
4 *288:22 *1248:C 26.8269 
5 *288:10 *1674:A 34.4 
*END

*D_NET *289 0.000122072
*CONN
*I *1173:B I *D AO21x1_ASAP7_75t_SL
*I *1172:Y O *D AND5x2_ASAP7_75t_SL
*CAP
1 *1173:B 0
2 *1172:Y 0
3 *289:12 3.11766e-05
4 *289:6 3.11766e-05
5 *289:12 *663:83 0
6 *289:12 *692:109 3.36331e-07
7 *289:12 *707:10 0
8 *289:12 *744:31 7.54771e-06
9 *289:12 *744:37 0
10 *289:12 *770:27 2.19482e-06
11 *1044:B *289:12 1.34532e-06
12 *1:51 *289:12 0
13 *174:8 *289:12 0
14 *174:27 *289:12 1.96744e-05
15 *176:22 *289:12 6.6421e-06
16 *180:10 *289:12 2.84286e-06
17 *180:18 *289:12 5.52807e-07
18 *199:12 *289:12 1.75355e-05
19 *264:45 *289:12 1.0473e-06
*RES
1 *1172:Y *289:6 34.4 
2 *289:6 *289:12 45.0749 
3 *289:12 *1173:B 17.2 
*END

*D_NET *290 3.5686e-05
*CONN
*I *1175:B1 I *D AO32x1_ASAP7_75t_SL
*I *1173:Y O *D AO21x1_ASAP7_75t_SL
*CAP
1 *1175:B1 5.44773e-06
2 *1173:Y 8.31457e-06
3 *290:8 1.37623e-05
4 *1175:B1 *291:22 5.62196e-06
5 *290:8 *744:31 2.52452e-06
6 *176:22 *290:8 1.49407e-08
7 *281:14 *290:8 0
*RES
1 *1173:Y *290:8 38.9053 
2 *290:8 *1175:B1 37.609 
*END

*D_NET *291 0.000206922
*CONN
*I *1175:B2 I *D AO32x1_ASAP7_75t_SL
*I *1174:Y O *D AND3x1_ASAP7_75t_SL
*CAP
1 *1175:B2 0
2 *1174:Y 4.53424e-05
3 *291:22 4.59082e-06
4 *291:14 1.04211e-05
5 *291:6 5.11727e-05
6 *291:6 *1156:B 1.66706e-05
7 *291:6 *1156:C 5.22376e-07
8 *291:6 *693:70 9.30483e-06
9 *291:14 *707:10 2.68255e-06
10 *291:14 *809:64 2.99145e-05
11 *1175:B1 *291:22 5.62196e-06
12 *272:14 *291:14 3.06777e-05
*RES
1 *1174:Y *291:6 43.4064 
2 *291:6 *291:14 40.4105 
3 *291:14 *291:22 37.2247 
4 *291:22 *1175:B2 17.2 
*END

*D_NET *292 0.000538396
*CONN
*I *1660:A I *D BUFx6f_ASAP7_75t_SL
*I *1363:B I *D OA21x2_ASAP7_75t_SL
*I *1397:C I *D OA211x2_ASAP7_75t_SL
*I *1176:Y O *D AND3x4_ASAP7_75t_SL
*CAP
1 *1660:A 0
2 *1363:B 0
3 *1397:C 1.5693e-06
4 *1176:Y 7.22467e-06
5 *292:43 2.70885e-05
6 *292:39 7.05511e-05
7 *292:33 5.23449e-05
8 *292:20 1.84557e-05
9 *292:10 3.62386e-05
10 *292:8 1.76947e-05
11 *1397:C *717:30 3.90258e-06
12 *1397:C *820:181 6.7842e-07
13 *292:8 *1176:C 2.66797e-07
14 *292:10 *462:10 0
15 *292:10 *692:10 3.55835e-05
16 *292:10 *820:187 5.20818e-05
17 *292:20 *442:10 7.63095e-06
18 *292:20 *462:10 0
19 *292:20 *717:30 1.2768e-05
20 *292:20 *820:187 1.0745e-05
21 *292:33 *693:20 4.17901e-06
22 *292:39 *471:8 2.98814e-07
23 *292:39 *693:20 1.21017e-05
24 *292:39 *863:10 1.56953e-05
25 *292:43 *1374:A1 5.31101e-05
26 *292:43 *717:30 9.81862e-05
*RES
1 *1176:Y *292:8 37.0741 
2 *292:8 *292:10 17.4581 
3 *292:10 *292:20 44.3386 
4 *292:20 *1397:C 35.4697 
5 *292:10 *292:33 22.0134 
6 *292:33 *292:39 39.4112 
7 *292:39 *292:43 45.0109 
8 *292:43 *1363:B 17.2 
9 *292:33 *1660:A 17.2 
*END

*D_NET *293 0.000109914
*CONN
*P s_axis_tdata[3] I
*I *1177:A I *D BUFx2_ASAP7_75t_SL
*CAP
1 s_axis_tdata[3] 5.49568e-05
2 *1177:A 0
3 *293:9 5.49568e-05
*RES
1 s_axis_tdata[3] *293:9 46.8165 
2 *293:9 *1177:A 34.4 
*END

*D_NET *294 0.00139745
*CONN
*I *1659:A I *D BUFx3_ASAP7_75t_SL
*I *1180:A I *D OR2x2_ASAP7_75t_SL
*I *1343:C I *D OR3x1_ASAP7_75t_SL
*I *1178:Y O *D AOI21x1_ASAP7_75t_SL
*CAP
1 *1659:A 0
2 *1180:A 1.62709e-05
3 *1343:C 0
4 *1178:Y 3.96704e-06
5 *294:80 3.71417e-05
6 *294:76 5.82077e-05
7 *294:68 5.1064e-05
8 *294:60 9.18916e-05
9 *294:58 7.0483e-05
10 *294:52 2.71438e-05
11 *294:34 1.19875e-05
12 *294:26 0.000232944
13 *294:24 0.000238556
14 *294:20 6.20271e-05
15 *294:16 4.06814e-05
16 *294:6 3.50455e-05
17 *1180:A *1181:A1 2.34246e-06
18 *1180:A *815:61 2.19163e-06
19 *294:6 *1178:A1 1.3659e-05
20 *294:6 *711:58 7.58545e-06
21 *294:16 *1178:A1 1.95129e-06
22 *294:16 *711:58 9.08513e-06
23 *294:16 *759:6 1.07377e-06
24 *294:16 *820:363 6.10236e-08
25 *294:20 *298:12 0
26 *294:20 *300:8 0
27 *294:20 *301:8 7.16181e-07
28 *294:20 *301:16 1.08593e-05
29 *294:20 *815:59 4.79773e-06
30 *294:20 *836:120 0
31 *294:20 *861:104 4.73164e-07
32 *294:24 *815:59 1.37203e-05
33 *294:26 *771:12 0.000138724
34 *294:34 *712:33 3.32524e-06
35 *294:34 *745:12 4.05232e-06
36 *294:34 *835:16 1.89747e-06
37 *294:52 *720:21 1.09022e-05
38 *294:52 *820:363 7.33402e-05
39 *294:58 *306:6 2.11853e-06
40 *294:60 *1475:CLK 2.62902e-05
41 *294:60 *1837:A 9.30798e-06
42 *294:60 *686:22 5.37569e-06
43 *294:60 *819:8 0
44 *294:60 *820:363 6.24522e-06
45 *294:60 *861:36 0
46 *294:68 *846:83 7.95909e-07
47 *294:76 *298:34 1.16088e-06
48 *294:76 *303:8 2.78959e-06
49 *294:76 *846:67 2.11942e-06
50 *1:16 *294:20 3.71881e-06
51 *1:27 *294:16 1.57597e-05
52 *1:27 *294:20 9.6361e-06
53 *1:27 *294:52 8.29921e-06
54 *70:33 *294:16 9.52454e-06
55 *70:33 *294:20 4.37666e-07
56 *107:10 *294:60 5.67735e-06
57 *202:14 *294:60 2.68933e-07
58 *271:10 *294:16 9.75645e-06
*RES
1 *1178:Y *294:6 20.9438 
2 *294:6 *294:16 45.3799 
3 *294:16 *294:20 38.0371 
4 *294:20 *294:24 30.1528 
5 *294:24 *294:26 100.012 
6 *294:26 *294:34 43.354 
7 *294:34 *1343:C 17.2 
8 *294:20 *1180:A 42.4224 
9 *294:6 *294:52 41.9793 
10 *294:52 *294:58 38.1438 
11 *294:58 *294:60 52.3744 
12 *294:60 *294:68 48.8031 
13 *294:68 *294:76 43.0078 
14 *294:76 *294:80 39.1278 
15 *294:80 *1659:A 17.2 
*END

*D_NET *295 0.000153814
*CONN
*I *1182:B I *D NAND2x1_ASAP7_75t_SL
*I *1180:B I *D OR2x2_ASAP7_75t_SL
*I *1179:Y O *D AND3x1_ASAP7_75t_SL
*CAP
1 *1182:B 1.74872e-05
2 *1180:B 4.41284e-06
3 *1179:Y 1.76389e-05
4 *295:10 3.60764e-05
5 *295:8 3.18153e-05
6 *1180:B *815:61 0
7 *1182:B *692:133 2.22331e-05
8 *1182:B *808:12 0
9 *1182:B *836:120 0
10 *1182:B *861:108 1.02586e-05
11 *295:8 *808:10 1.1364e-05
12 *295:8 *836:75 2.52755e-06
13 *295:10 *808:12 0
14 *209:22 *1182:B 0
*RES
1 *1179:Y *295:8 47.7706 
2 *295:8 *295:10 7.88432 
3 *295:10 *1180:B 36.0045 
4 *295:10 *1182:B 48.3374 
*END

*D_NET *296 1.90977e-05
*CONN
*I *1181:A1 I *D AO21x1_ASAP7_75t_SL
*I *1180:Y O *D OR2x2_ASAP7_75t_SL
*CAP
1 *1181:A1 3.16734e-06
2 *1180:Y 3.16734e-06
3 *1181:A1 *815:61 1.04206e-05
4 *1180:A *1181:A1 2.34246e-06
*RES
1 *1180:Y *1181:A1 37.0741 
*END

*D_NET *297 4.24007e-05
*CONN
*I *1186:A1 I *D AOI21x1_ASAP7_75t_SL
*I *1181:Y O *D AO21x1_ASAP7_75t_SL
*CAP
1 *1186:A1 0
2 *1181:Y 9.30687e-06
3 *297:10 9.30687e-06
4 *297:10 *808:49 1.98844e-05
5 *297:10 *815:68 3.90258e-06
6 *297:10 *861:96 0
*RES
1 *1181:Y *297:10 42.2276 
2 *297:10 *1186:A1 34.4 
*END

*D_NET *298 0.000518839
*CONN
*I *1184:A2 I *D OAI21x1_ASAP7_75t_SL
*I *1188:C I *D OR3x1_ASAP7_75t_SL
*I *1187:B I *D NOR2x2_ASAP7_75t_SL
*I *1182:Y O *D NAND2x1_ASAP7_75t_SL
*CAP
1 *1184:A2 0
2 *1188:C 0
3 *1187:B 0
4 *1182:Y 6.1344e-06
5 *298:34 4.79615e-05
6 *298:32 5.15949e-05
7 *298:28 1.76411e-05
8 *298:24 4.09609e-05
9 *298:18 6.87875e-05
10 *298:16 4.54437e-05
11 *298:12 2.0163e-05
12 *298:8 2.26879e-05
13 *298:8 *861:108 1.48593e-05
14 *298:12 *1184:B 1.09067e-06
15 *298:12 *692:125 1.87371e-05
16 *298:12 *692:133 2.68623e-05
17 *298:12 *808:25 0
18 *298:18 *692:117 0
19 *298:18 *692:125 2.84286e-06
20 *298:18 *720:10 2.84286e-06
21 *298:18 *769:126 1.61287e-05
22 *298:18 *808:25 0
23 *298:18 *809:35 5.52807e-07
24 *298:24 *1082:B 2.88806e-06
25 *298:28 *1188:A 0
26 *298:28 *717:62 3.47607e-06
27 *298:28 *792:21 0
28 *298:34 *303:8 1.44321e-05
29 *298:34 *663:106 0
30 *298:34 *707:44 2.1416e-06
31 *1:33 *298:18 0
32 *186:76 *298:34 0
33 *189:75 *298:34 0
34 *191:10 *298:18 8.48989e-05
35 *211:6 *298:24 4.54959e-06
36 *294:20 *298:12 0
37 *294:76 *298:34 1.16088e-06
*RES
1 *1182:Y *298:8 38.1438 
2 *298:8 *298:12 32.4055 
3 *298:12 *298:16 18.8045 
4 *298:16 *298:18 40.548 
5 *298:18 *298:24 47.7706 
6 *298:24 *298:28 27.337 
7 *298:28 *298:32 18.8045 
8 *298:32 *298:34 35.4795 
9 *298:34 *1187:B 34.4 
10 *298:28 *1188:C 17.2 
11 *298:12 *1184:A2 17.2 
*END

*D_NET *299 0.000112971
*CONN
*I *1184:B I *D OAI21x1_ASAP7_75t_SL
*I *1183:Y O *D OR3x1_ASAP7_75t_SL
*CAP
1 *1184:B 8.93334e-06
2 *1183:Y 1.65613e-05
3 *299:8 2.54947e-05
4 *1184:B *692:133 3.05118e-08
5 *1184:B *808:25 2.25787e-06
6 *85:40 *299:8 1.26378e-06
7 *87:14 *299:8 9.08513e-06
8 *89:23 *299:8 2.68282e-05
9 *176:8 *299:8 5.19475e-06
10 *271:10 *299:8 1.62312e-05
11 *298:12 *1184:B 1.09067e-06
*RES
1 *1183:Y *299:8 49.9099 
2 *299:8 *1184:B 40.0317 
*END

*D_NET *300 1.67307e-05
*CONN
*I *1185:B I *D NAND2x1_ASAP7_75t_SL
*I *1184:Y O *D OAI21x1_ASAP7_75t_SL
*CAP
1 *1185:B 0
2 *1184:Y 7.84164e-06
3 *300:8 7.84164e-06
4 *300:8 *692:125 1.49407e-08
5 *300:8 *711:37 1.03251e-06
6 *1:27 *300:8 0
7 *294:20 *300:8 0
*RES
1 *1184:Y *300:8 38.9053 
2 *300:8 *1185:B 34.4 
*END

*D_NET *301 0.000103688
*CONN
*I *1186:A2 I *D AOI21x1_ASAP7_75t_SL
*I *1185:Y O *D NAND2x1_ASAP7_75t_SL
*CAP
1 *1186:A2 7.12473e-06
2 *1185:Y 7.06548e-06
3 *301:16 2.61588e-05
4 *301:8 2.60995e-05
5 *1186:A2 *836:120 1.73158e-06
6 *1186:A2 *861:104 3.3921e-06
7 *1186:A2 *861:108 9.30483e-06
8 *301:16 *861:104 1.89962e-06
9 *301:16 *861:108 9.33624e-06
10 *294:20 *301:8 7.16181e-07
11 *294:20 *301:16 1.08593e-05
*RES
1 *1185:Y *301:8 38.9053 
2 *301:8 *301:16 44.2252 
3 *301:16 *1186:A2 39.2134 
*END

*D_NET *302 0.000275096
*CONN
*I *1189:A1 I *D OA211x2_ASAP7_75t_SL
*I *1187:Y O *D NOR2x2_ASAP7_75t_SL
*CAP
1 *1189:A1 0
2 *1187:Y 0
3 *302:16 2.41388e-05
4 *302:8 7.49064e-05
5 *302:6 5.07676e-05
6 *302:8 *303:8 0
7 *302:8 *425:10 3.32429e-06
8 *302:8 *691:8 0
9 *302:8 *819:24 8.67509e-05
10 *302:8 *819:108 2.73812e-05
11 *302:8 *862:16 5.49212e-07
12 *302:16 *303:8 6.79293e-06
13 *129:8 *302:8 4.84697e-07
*RES
1 *1187:Y *302:6 34.4 
2 *302:6 *302:8 51.2481 
3 *302:8 *302:16 46.9844 
4 *302:16 *1189:A1 34.4 
*END

*D_NET *303 0.000297198
*CONN
*I *1189:B I *D OA211x2_ASAP7_75t_SL
*I *1188:Y O *D OR3x1_ASAP7_75t_SL
*CAP
1 *1189:B 2.05281e-06
2 *1188:Y 0
3 *303:8 0.000112971
4 *303:6 0.000110919
5 *1189:B *819:108 2.52755e-07
6 *303:8 *1062:A 1.51765e-05
7 *303:8 *1062:B 4.48222e-07
8 *303:8 *664:12 0
9 *303:8 *686:10 2.18135e-06
10 *303:8 *686:136 0
11 *303:8 *707:44 7.90032e-06
12 *303:8 *819:20 9.97906e-07
13 *303:8 *819:114 8.46363e-06
14 *303:8 *846:77 0
15 *303:8 *846:95 0
16 *303:8 *862:140 0
17 *303:8 *862:151 0
18 *303:8 *862:164 0
19 *303:8 *869:25 1.182e-05
20 *294:76 *303:8 2.78959e-06
21 *298:34 *303:8 1.44321e-05
22 *302:8 *303:8 0
23 *302:16 *303:8 6.79293e-06
*RES
1 *1188:Y *303:6 34.4 
2 *303:6 *303:8 92.3592 
3 *303:8 *1189:B 35.4697 
*END

*D_NET *304 0.000393484
*CONN
*I *1191:B I *D AND3x1_ASAP7_75t_SL
*I *1190:Y O *D NOR2x1_ASAP7_75t_SL
*CAP
1 *1191:B 3.43588e-06
2 *1190:Y 0
3 *304:16 1.83473e-05
4 *304:8 0.000135374
5 *304:6 0.000120463
6 *304:8 *424:8 7.28642e-06
7 *304:8 *425:10 0
8 *304:8 *663:83 7.24542e-06
9 *304:8 *691:8 1.43018e-05
10 *304:8 *699:8 2.22736e-06
11 *304:8 *699:23 2.03106e-05
12 *304:8 *707:33 2.92669e-05
13 *304:8 *717:47 7.84037e-07
14 *304:8 *799:14 0
15 *304:8 *799:25 0
16 *304:8 *819:24 0
17 *304:8 *819:93 1.10453e-05
18 *304:8 *819:108 0
19 *304:8 *869:12 5.60929e-06
20 *304:8 *870:8 5.52807e-07
21 *304:16 *819:93 1.692e-05
22 *91:14 *304:8 0
23 *180:37 *304:8 0
24 *186:74 *304:8 0
25 *186:76 *304:8 0
26 *189:71 *304:8 3.13755e-07
27 *268:54 *304:8 0
28 *268:94 *304:8 0
*RES
1 *1190:Y *304:6 34.4 
2 *304:6 *304:8 101.933 
3 *304:8 *304:16 44.9585 
4 *304:16 *1191:B 36.0045 
*END

*D_NET *305 0.000104599
*CONN
*I *1197:A1 I *D OA211x2_ASAP7_75t_SL
*I *1192:Y O *D INVx1_ASAP7_75t_SL
*CAP
1 *1197:A1 1.01591e-05
2 *1192:Y 9.83834e-06
3 *305:8 1.99974e-05
4 *1197:A1 *1197:A2 5.22376e-07
5 *305:8 *324:18 1.42466e-05
6 *305:8 *690:21 2.21622e-06
7 *305:8 *690:40 4.92599e-06
8 *305:8 *819:132 2.68586e-05
9 *305:8 *819:142 4.83862e-06
10 *305:8 *819:164 1.09954e-05
*RES
1 *1192:Y *305:8 47.3528 
2 *305:8 *1197:A1 39.7482 
*END

*D_NET *306 0.000283901
*CONN
*I *1222:C I *D OR4x1_ASAP7_75t_SL
*I *1658:A I *D BUFx6f_ASAP7_75t_SL
*I *1193:Y O *D OR5x1_ASAP7_75t_SL
*CAP
1 *1222:C 2.34124e-06
2 *1658:A 0
3 *1193:Y 0
4 *306:17 2.93942e-05
5 *306:6 0.000129808
6 *306:4 0.000102755
7 *1222:C *1223:A 1.40419e-08
8 *306:6 *792:8 8.39579e-06
9 *306:17 *861:78 0
10 *1:37 *306:6 5.25794e-06
11 *1:45 *306:6 3.81627e-06
12 *294:58 *306:6 2.11853e-06
*RES
1 *1193:Y *306:4 17.2 
2 *306:4 *306:6 59.9004 
3 *306:6 *1658:A 17.2 
4 *306:6 *306:17 34.8812 
5 *306:17 *1222:C 35.4697 
*END

*D_NET *307 9.40809e-05
*CONN
*P s_axis_tdata[2] I
*I *1194:A I *D BUFx2_ASAP7_75t_SL
*CAP
1 s_axis_tdata[2] 4.70404e-05
2 *1194:A 0
3 *307:9 4.70404e-05
4 *307:9 *1118:B 0
*RES
1 s_axis_tdata[2] *307:9 42.1235 
2 *307:9 *1194:A 34.4 
*END

*D_NET *308 0.000169357
*CONN
*P s_axis_tdata[1] I
*I *1195:A I *D BUFx2_ASAP7_75t_SL
*CAP
1 s_axis_tdata[1] 3.61575e-05
2 *1195:A 0
3 *308:13 4.24603e-05
4 *308:9 7.86178e-05
5 *308:13 *669:8 1.21211e-05
*RES
1 s_axis_tdata[1] *308:9 36.5844 
2 *308:9 *308:13 44.4761 
3 *308:13 *1195:A 17.2 
*END

*D_NET *309 6.71459e-05
*CONN
*I *1197:C I *D OA211x2_ASAP7_75t_SL
*I *1196:Y O *D NAND2x1p5_ASAP7_75t_SL
*CAP
1 *1197:C 9.07779e-06
2 *1196:Y 1.84198e-05
3 *309:8 2.74976e-05
4 *1197:C *324:10 2.20493e-06
5 *309:8 *690:10 0
6 *309:8 *861:72 0
7 *109:8 *309:8 9.94583e-06
*RES
1 *1196:Y *309:8 49.6055 
2 *309:8 *1197:C 39.7482 
*END

*D_NET *310 8.42837e-06
*CONN
*I *1201:A2 I *D OA211x2_ASAP7_75t_SL
*I *1198:Y O *D INVx1_ASAP7_75t_SL
*CAP
1 *1201:A2 4.21418e-06
2 *1198:Y 4.21418e-06
*RES
1 *1198:Y *1201:A2 36.5393 
*END

*D_NET *311 0.000133345
*CONN
*I *1201:B I *D OA211x2_ASAP7_75t_SL
*I *1199:Y O *D NAND2x1_ASAP7_75t_SL
*CAP
1 *1201:B 0
2 *1199:Y 2.78905e-05
3 *311:14 1.56339e-05
4 *311:6 4.35243e-05
5 *311:6 *1199:B 5.25278e-06
6 *311:14 *1201:A1 2.28976e-06
7 *311:14 *1201:C 2.14259e-05
8 *311:14 *690:97 0
9 *311:14 *819:183 8.58704e-06
10 *311:14 *819:198 4.83862e-06
11 *1199:A *311:6 3.90258e-06
*RES
1 *1199:Y *311:6 34.8492 
2 *311:6 *311:14 47.4342 
3 *311:14 *1201:B 17.2 
*END

*D_NET *312 0.000116202
*CONN
*P s_axis_tdata[0] I
*I *1200:A I *D BUFx2_ASAP7_75t_SL
*CAP
1 s_axis_tdata[0] 5.7811e-05
2 *1200:A 0
3 *312:9 5.7811e-05
4 *312:9 *1110:B 5.79724e-07
*RES
1 s_axis_tdata[0] *312:9 45.4009 
2 *312:9 *1200:A 34.4 
*END

*D_NET *313 4.99705e-05
*CONN
*I *1204:A2 I *D OA211x2_ASAP7_75t_SL
*I *1202:Y O *D INVx1_ASAP7_75t_SL
*CAP
1 *1204:A2 2.49853e-05
2 *1202:Y 2.49853e-05
*RES
1 *1202:Y *1204:A2 47.7706 
*END

*D_NET *314 9.6052e-05
*CONN
*I *1204:B I *D OA211x2_ASAP7_75t_SL
*I *1203:Y O *D NAND2x1_ASAP7_75t_SL
*CAP
1 *1204:B 1.45614e-05
2 *1203:Y 1.45351e-05
3 *314:10 2.90965e-05
4 *1204:B *1204:C 1.36155e-06
5 *1204:B *690:135 1.75044e-06
6 *1204:B *690:238 1.1455e-05
7 *314:10 *1203:B 1.81012e-06
8 *314:10 *690:238 1.45556e-05
9 *314:10 *819:217 0
10 *57:12 *1204:B 6.92634e-06
*RES
1 *1203:Y *314:10 44.2252 
2 *314:10 *1204:B 45.6313 
*END

*D_NET *315 3.90181e-05
*CONN
*I *1207:A2 I *D OA211x2_ASAP7_75t_SL
*I *1205:Y O *D INVx1_ASAP7_75t_SL
*CAP
1 *1207:A2 1.07454e-05
2 *1205:Y 6.00462e-06
3 *315:8 1.675e-05
4 *315:8 *1207:B 0
5 *315:8 *848:64 5.51814e-06
*RES
1 *1205:Y *315:8 38.9053 
2 *315:8 *1207:A2 40.2831 
*END

*D_NET *316 0.000104452
*CONN
*I *1207:B I *D OA211x2_ASAP7_75t_SL
*I *1206:Y O *D NAND2x1_ASAP7_75t_SL
*CAP
1 *1207:B 1.44931e-05
2 *1206:Y 8.02913e-06
3 *316:14 2.18146e-05
4 *316:8 1.53506e-05
5 *1207:B *1207:A1 7.79295e-06
6 *1207:B *848:64 0
7 *1207:B *862:126 3.33246e-05
8 *316:8 *862:126 0
9 *316:14 *1210:A2 2.96818e-06
10 *1208:A *316:14 6.7842e-07
11 *64:8 *316:8 0
12 *64:18 *316:8 0
13 *206:18 *1207:B 0
14 *315:8 *1207:B 0
*RES
1 *1206:Y *316:8 40.0317 
2 *316:8 *316:14 39.2134 
3 *316:14 *1207:B 47.8026 
*END

*D_NET *317 8.88823e-06
*CONN
*I *1210:A2 I *D OA211x2_ASAP7_75t_SL
*I *1208:Y O *D INVx1_ASAP7_75t_SL
*CAP
1 *1210:A2 2.96002e-06
2 *1208:Y 2.96002e-06
3 *316:14 *1210:A2 2.96818e-06
*RES
1 *1208:Y *1210:A2 36.5393 
*END

*D_NET *318 8.07056e-05
*CONN
*I *1210:B I *D OA211x2_ASAP7_75t_SL
*I *1209:Y O *D NAND2x1_ASAP7_75t_SL
*CAP
1 *1210:B 0
2 *1209:Y 0
3 *318:12 2.97537e-05
4 *318:6 2.97537e-05
5 *318:12 *1210:C 2.20493e-06
6 *318:12 *690:190 2.19685e-06
7 *318:12 *690:205 3.3563e-06
8 *55:29 *318:12 0
9 *56:18 *318:12 0
10 *112:10 *318:12 1.34402e-05
*RES
1 *1209:Y *318:6 34.4 
2 *318:6 *318:12 38.9934 
3 *318:12 *1210:B 17.2 
*END

*D_NET *319 8.21932e-05
*CONN
*I *1213:A2 I *D OA211x2_ASAP7_75t_SL
*I *1211:Y O *D INVx1_ASAP7_75t_SL
*CAP
1 *1213:A2 0
2 *1211:Y 3.88148e-05
3 *319:6 3.88148e-05
4 *319:6 *862:96 4.56363e-06
*RES
1 *1211:Y *319:6 41.8019 
2 *319:6 *1213:A2 17.2 
*END

*D_NET *320 0.000158488
*CONN
*I *1213:B I *D OA211x2_ASAP7_75t_SL
*I *1212:Y O *D NAND2x1_ASAP7_75t_SL
*CAP
1 *1213:B 3.32443e-05
2 *1212:Y 0
3 *320:10 5.20803e-05
4 *320:6 1.8836e-05
5 *1213:B *641:8 2.52755e-07
6 *1213:B *690:150 5.0551e-07
7 *1213:B *819:217 4.41457e-06
8 *1213:B *819:225 1.36155e-06
9 *320:10 *641:12 2.77237e-05
10 *1030:A *1213:B 5.19475e-06
11 *1030:A *320:10 7.75e-06
12 *54:16 *320:10 3.79923e-06
13 *55:23 *320:10 3.32579e-06
*RES
1 *1212:Y *320:6 34.4 
2 *320:6 *320:10 38.6003 
3 *320:10 *1213:B 38.0582 
*END

*D_NET *321 4.42764e-05
*CONN
*I *1216:A2 I *D OA211x2_ASAP7_75t_SL
*I *1214:Y O *D INVx1_ASAP7_75t_SL
*CAP
1 *1216:A2 3.32822e-06
2 *1214:Y 6.76567e-06
3 *321:8 1.00939e-05
4 *1216:A2 *819:172 2.90209e-08
5 *1216:A2 *861:64 7.79295e-06
6 *321:8 *819:183 1.62666e-05
*RES
1 *1214:Y *321:8 40.0317 
2 *321:8 *1216:A2 36.5393 
*END

*D_NET *322 0.00010096
*CONN
*I *1216:B I *D OA211x2_ASAP7_75t_SL
*I *1215:Y O *D NAND2x1_ASAP7_75t_SL
*CAP
1 *1216:B 0
2 *1215:Y 1.0009e-05
3 *322:14 1.7842e-05
4 *322:10 2.7851e-05
5 *322:14 *1216:C 3.90258e-06
6 *322:14 *690:67 4.20803e-06
7 *322:14 *690:75 1.42799e-05
8 *322:14 *819:172 1.04475e-06
9 *322:14 *861:64 5.41446e-06
10 *1215:A *322:14 3.68287e-06
11 *53:18 *322:14 1.27255e-05
*RES
1 *1215:Y *322:10 39.9466 
2 *322:10 *322:14 34.8492 
3 *322:14 *1216:B 17.2 
*END

*D_NET *323 5.1641e-05
*CONN
*I *1219:A2 I *D OA211x2_ASAP7_75t_SL
*I *1217:Y O *D INVx1_ASAP7_75t_SL
*CAP
1 *1219:A2 0
2 *1217:Y 2.58205e-05
3 *323:6 2.58205e-05
*RES
1 *1217:Y *323:6 33.7796 
2 *323:6 *1219:A2 17.2 
*END

*D_NET *324 0.000120044
*CONN
*I *1219:B I *D OA211x2_ASAP7_75t_SL
*I *1218:Y O *D NAND2x1_ASAP7_75t_SL
*CAP
1 *1219:B 2.75748e-06
2 *1218:Y 1.38848e-05
3 *324:18 2.72673e-05
4 *324:10 3.83946e-05
5 *1219:B *1219:A1 5.85387e-06
6 *324:18 *690:21 1.39177e-05
7 *1197:C *324:10 2.20493e-06
8 *52:16 *324:10 1.51653e-06
9 *305:8 *324:18 1.42466e-05
*RES
1 *1218:Y *324:10 41.1278 
2 *324:10 *324:18 46.1129 
3 *324:18 *1219:B 36.0045 
*END

*D_NET *325 6.83573e-05
*CONN
*I *1221:B I *D NOR2x1_ASAP7_75t_SL
*I *1220:Y O *D OA21x2_ASAP7_75t_SL
*CAP
1 *1221:B 0
2 *1220:Y 2.43696e-05
3 *325:6 2.43696e-05
4 *325:6 *645:12 7.72307e-07
5 *325:6 *690:266 1.25483e-05
6 *1220:A2 *325:6 3.65663e-06
7 *117:10 *325:6 2.6409e-06
*RES
1 *1220:Y *325:6 34.3144 
2 *325:6 *1221:B 17.2 
*END

*D_NET *326 6.04493e-05
*CONN
*I *1223:A I *D INVx1_ASAP7_75t_SL
*I *1222:Y O *D OR4x1_ASAP7_75t_SL
*CAP
1 *1223:A 2.33484e-05
2 *1222:Y 2.33484e-05
3 *1223:A *698:14 5.34278e-06
4 *1222:B *1223:A 8.39579e-06
5 *1222:C *1223:A 1.40419e-08
*RES
1 *1222:Y *1223:A 46.701 
*END

*D_NET *327 3.53052e-05
*CONN
*I *1225:E I *D AND5x2_ASAP7_75t_SL
*I *1224:Y O *D INVx1_ASAP7_75t_SL
*CAP
1 *1225:E 6.82321e-06
2 *1224:Y 3.71454e-06
3 *327:8 1.05377e-05
4 *1225:E *862:22 4.41457e-06
5 *327:8 *330:8 9.81516e-06
6 *327:8 *825:33 0
*RES
1 *1224:Y *327:8 37.779 
2 *327:8 *1225:E 37.609 
*END

*D_NET *328 0.000117558
*CONN
*I *1226:B I *D AOI21x1_ASAP7_75t_SL
*I *1225:Y O *D AND5x2_ASAP7_75t_SL
*CAP
1 *1226:B 1.49402e-05
2 *1225:Y 2.43648e-05
3 *328:8 3.9305e-05
4 *1226:B *710:14 2.20493e-06
5 *1226:B *825:33 0
6 *328:8 *862:22 1.81531e-05
7 *328:8 *870:27 1.95129e-06
8 *268:10 *1226:B 1.66387e-05
*RES
1 *1225:Y *328:8 47.7706 
2 *328:8 *1226:B 48.9573 
*END

*D_NET *329 3.12721e-05
*CONN
*I *1228:A2 I *D AOI21x1_ASAP7_75t_SL
*I *1226:Y O *D AOI21x1_ASAP7_75t_SL
*CAP
1 *1228:A2 0
2 *1226:Y 1.39098e-05
3 *329:10 1.39098e-05
4 *329:10 *330:8 2.9097e-06
5 *329:10 *807:25 2.78888e-07
6 *287:8 *329:10 2.63947e-07
*RES
1 *1226:Y *329:10 41.6361 
2 *329:10 *1228:A2 34.4 
*END

*D_NET *330 0.000199617
*CONN
*I *1228:A1 I *D AOI21x1_ASAP7_75t_SL
*I *1227:Y O *D OR3x1_ASAP7_75t_SL
*CAP
1 *1228:A1 0
2 *1227:Y 0
3 *330:8 4.96366e-05
4 *330:6 4.96366e-05
5 *330:8 *1224:A 0
6 *330:8 *731:57 8.33112e-06
7 *330:8 *733:25 3.05118e-08
8 *330:8 *825:33 0
9 *186:35 *330:8 4.47771e-05
10 *284:16 *330:8 1.1946e-05
11 *287:8 *330:8 2.25337e-05
12 *327:8 *330:8 9.81516e-06
13 *329:10 *330:8 2.9097e-06
*RES
1 *1227:Y *330:6 34.4 
2 *330:6 *330:8 47.8691 
3 *330:8 *1228:A1 34.4 
*END

*D_NET *331 2.41466e-05
*CONN
*I *1784:A I *D BUFx6f_ASAP7_75t_SL
*I *1229:Y O *D OR4x1_ASAP7_75t_SL
*CAP
1 *1784:A 0
2 *1229:Y 1.14877e-05
3 *331:10 1.14877e-05
4 *331:10 *656:10 6.33206e-07
5 *331:10 *659:16 5.37866e-07
*RES
1 *1229:Y *331:10 40.4531 
2 *331:10 *1784:A 34.4 
*END

*D_NET *332 0.000135686
*CONN
*P rxd I
*I *1867:A I *D BUFx2_ASAP7_75t_SL
*CAP
1 rxd 3.75014e-05
2 *1867:A 0
3 *332:9 3.75014e-05
4 *332:9 *518:7 5.02071e-06
5 m_axis_tvalid *332:9 5.56625e-05
6 rx_overrun_error *332:9 0
*RES
1 rxd *332:9 42.1235 
2 *332:9 *1867:A 34.4 
*END

*D_NET *333 0.000141779
*CONN
*P rst I
*I *1231:A I *D BUFx2_ASAP7_75t_SL
*CAP
1 rst 4.44592e-05
2 *1231:A 0
3 *333:15 1.14085e-05
4 *333:9 5.58677e-05
5 *333:9 txd 0
6 *333:9 *427:11 2.67819e-05
7 *333:9 *517:11 0
8 *333:15 *654:8 3.26178e-06
9 *269:23 *333:15 0
*RES
1 rst *333:9 36.5919 
2 *333:9 *333:15 43.3168 
3 *333:15 *1231:A 17.2 
*END

*D_NET *334 0.000575547
*CONN
*I *1319:B I *D OR4x1_ASAP7_75t_SL
*I *1778:A I *D BUFx6f_ASAP7_75t_SL
*I *1780:A I *D BUFx3_ASAP7_75t_SL
*I *1232:Y O *D OR3x1_ASAP7_75t_SL
*CAP
1 *1319:B 0
2 *1778:A 4.37564e-06
3 *1780:A 4.70884e-06
4 *1232:Y 0
5 *334:42 2.30632e-05
6 *334:27 6.73219e-05
7 *334:14 4.45918e-05
8 *334:12 0.000136866
9 *334:10 0.000155121
10 *334:6 1.82553e-05
11 *1780:A *1445:B 1.23408e-05
12 *1780:A *812:8 4.79599e-06
13 *1780:A *843:28 5.34278e-06
14 *334:10 *984:B 0
15 *334:10 *469:8 2.44981e-05
16 *334:10 *602:8 6.35725e-06
17 *334:10 *655:22 1.09842e-06
18 *334:10 *724:27 0
19 *334:12 *655:22 1.31689e-05
20 *334:12 *812:79 1.64406e-05
21 *334:12 *843:47 0
22 *334:12 *844:14 1.14009e-05
23 *334:12 *844:71 7.13985e-06
24 *334:27 *838:20 3.00603e-06
25 *334:27 *844:114 0
26 *334:42 *1319:A 6.92634e-06
27 *334:42 *844:114 0
28 *84:39 *334:10 6.80131e-06
29 *84:47 *334:12 1.9257e-06
*RES
1 *1232:Y *334:6 34.4 
2 *334:6 *334:10 34.0011 
3 *334:10 *334:12 46.5342 
4 *334:12 *334:14 17.2 
5 *334:14 *1780:A 40.3026 
6 *334:14 *334:27 29.3785 
7 *334:27 *1778:A 36.5393 
8 *334:27 *334:42 32.9083 
9 *334:42 *1319:B 17.2 
*END

*D_NET *335 0.000346666
*CONN
*I *1725:A I *D BUFx3_ASAP7_75t_SL
*I *1396:A1 I *D OA211x2_ASAP7_75t_SL
*I *1233:Y O *D OA21x2_ASAP7_75t_SL
*CAP
1 *1725:A 1.08221e-05
2 *1396:A1 6.79759e-06
3 *1233:Y 1.25815e-05
4 *335:24 6.90248e-05
5 *335:18 6.56724e-05
6 *335:12 4.50782e-05
7 *335:8 6.50366e-05
8 *1396:A1 *1396:A2 1.38527e-05
9 *1396:A1 *415:12 4.57952e-06
10 *1725:A *338:8 0
11 *335:8 *338:8 0
12 *335:8 *813:21 0
13 *335:12 *1287:B 5.0551e-07
14 *335:12 *338:23 0
15 *335:12 *718:20 3.65131e-06
16 *335:18 *385:8 3.79923e-06
17 *335:18 *718:20 4.10928e-06
18 *335:24 *391:31 2.66797e-07
19 *335:24 *403:16 0
20 *335:24 *406:25 1.07377e-06
21 *335:24 *415:18 0
22 *335:24 *415:29 3.39742e-05
23 *335:24 *421:10 4.3937e-06
24 *1295:B *335:24 1.44639e-06
25 *200:47 *335:24 0
*RES
1 *1233:Y *335:8 43.4107 
2 *335:8 *335:12 34.8492 
3 *335:12 *335:18 37.779 
4 *335:18 *335:24 49.0948 
5 *335:24 *1396:A1 41.8876 
6 *335:8 *1725:A 41.5795 
*END

*D_NET *336 0.000184217
*CONN
*P prescale[9] I
*I *1234:A I *D BUFx2_ASAP7_75t_SL
*CAP
1 prescale[9] 2.03836e-05
2 *1234:A 0
3 *336:13 5.42553e-05
4 *336:9 7.46389e-05
5 *336:9 *352:9 0
6 *336:9 *455:9 2.22785e-05
7 *336:9 *509:9 4.71731e-06
8 *336:9 *511:9 7.94305e-06
9 *336:13 *352:13 0
10 *336:13 *511:13 0
*RES
1 prescale[9] *336:9 33.3774 
2 *336:9 *336:13 49.8243 
3 *336:13 *1234:A 17.2 
*END

*D_NET *337 0.000150061
*CONN
*P prescale[8] I
*I *1235:A I *D BUFx2_ASAP7_75t_SL
*CAP
1 prescale[8] 3.92971e-05
2 *1235:A 0
3 *337:13 2.44466e-05
4 *337:9 6.37437e-05
5 *337:9 *341:9 0
6 *337:9 *358:9 1.83848e-05
7 *337:13 *1239:A 4.18905e-06
8 *337:13 *352:13 0
9 *337:13 *382:13 0
*RES
1 prescale[8] *337:9 45.6501 
2 *337:9 *337:13 35.9189 
3 *337:13 *1235:A 17.2 
*END

*D_NET *338 0.000306567
*CONN
*I *1396:A2 I *D OA211x2_ASAP7_75t_SL
*I *1726:A I *D BUFx3_ASAP7_75t_SL
*I *1236:Y O *D NOR3x1_ASAP7_75t_SL
*CAP
1 *1396:A2 1.43609e-05
2 *1726:A 9.6161e-06
3 *1236:Y 0
4 *338:29 5.62861e-05
5 *338:23 7.76119e-05
6 *338:8 3.14324e-05
7 *338:4 5.75031e-05
8 *1396:A2 *391:20 1.45047e-06
9 *1396:A2 *407:8 7.58265e-07
10 *1396:A2 *415:8 5.60551e-07
11 *1396:A2 *415:12 3.89493e-05
12 *1396:A2 *415:29 8.89918e-07
13 *338:8 *344:12 0
14 *338:8 *757:8 0
15 *338:8 *813:21 3.29527e-06
16 *338:29 *384:68 0
17 *1396:A1 *1396:A2 1.38527e-05
18 *1725:A *338:8 0
19 *335:8 *338:8 0
20 *335:12 *338:23 0
*RES
1 *1236:Y *338:4 17.2 
2 *338:4 *338:8 35.7845 
3 *338:8 *1726:A 40.2831 
4 *338:4 *338:23 33.367 
5 *338:23 *338:29 49.1178 
6 *338:29 *1396:A2 49.9011 
*END

*D_NET *339 3.78252e-05
*CONN
*I *1243:A2 I *D OAI22x1_ASAP7_75t_SL
*I *1237:Y O *D NOR2x1_ASAP7_75t_SL
*CAP
1 *1243:A2 0
2 *1237:Y 1.51275e-05
3 *339:10 1.51275e-05
4 *339:10 *1237:A 5.34278e-06
5 *339:10 *356:8 2.22736e-06
*RES
1 *1237:Y *339:10 43.7754 
2 *339:10 *1243:A2 34.4 
*END

*D_NET *340 0.000122938
*CONN
*P prescale[7] I
*I *1238:A I *D BUFx2_ASAP7_75t_SL
*CAP
1 prescale[7] 1.98433e-05
2 *1238:A 3.49681e-05
3 *340:11 5.48115e-05
4 *340:11 *448:9 1.33146e-05
5 *340:11 *487:9 0
*RES
1 prescale[7] *340:11 48.0355 
2 *340:11 *1238:A 42.3368 
*END

*D_NET *341 0.000182319
*CONN
*P prescale[6] I
*I *1239:A I *D BUFx2_ASAP7_75t_SL
*CAP
1 prescale[6] 4.84344e-05
2 *1239:A 2.35706e-05
3 *341:9 7.2005e-05
4 *1239:A *661:8 1.00503e-05
5 *341:9 *358:9 2.40692e-05
6 *337:9 *341:9 0
7 *337:13 *1239:A 4.18905e-06
*RES
1 prescale[6] *341:9 42.6247 
2 *341:9 *1239:A 47.7706 
*END

*D_NET *342 0.000697059
*CONN
*I *900:B I *D OR2x2_ASAP7_75t_SL
*I *1286:B I *D OR3x1_ASAP7_75t_SL
*I *1697:A I *D BUFx3_ASAP7_75t_SL
*I *1262:E I *D OR5x1_ASAP7_75t_SL
*I *1240:Y O *D OR2x2_ASAP7_75t_SL
*CAP
1 *900:B 0
2 *1286:B 0
3 *1697:A 7.3841e-06
4 *1262:E 0
5 *1240:Y 0
6 *342:26 2.17352e-05
7 *342:20 5.60766e-05
8 *342:16 5.29311e-05
9 *342:10 4.93017e-05
10 *342:6 0.000116427
11 *342:4 9.30993e-05
12 *1697:A *404:14 0
13 *1697:A *810:100 0
14 *342:6 *413:34 1.3211e-05
15 *342:10 *413:34 1.73741e-05
16 *342:16 *1848:A 1.35684e-06
17 *342:16 *384:6 1.38527e-05
18 *342:16 *653:26 4.80385e-05
19 *342:16 *816:81 1.23408e-05
20 *342:16 *832:25 7.27031e-05
21 *342:16 *850:50 1.51529e-06
22 *342:20 *384:6 5.19475e-06
23 *342:20 *384:12 1.25483e-05
24 *342:20 *816:68 5.58518e-05
25 *342:20 *816:81 6.92634e-06
26 *342:26 *1262:D 1.08543e-05
27 *342:26 *1442:B 1.5876e-05
28 *342:26 *362:8 5.655e-06
29 *342:26 *404:14 0
30 *342:26 *810:100 0
31 *342:26 *810:108 0
32 *342:26 *816:53 3.91501e-06
33 *342:26 *816:68 1.35961e-06
34 *1240:A *342:6 1.01102e-06
35 *83:14 *342:6 5.19552e-07
*RES
1 *1240:Y *342:4 17.2 
2 *342:4 *342:6 34.7636 
3 *342:6 *342:10 27.3617 
4 *342:10 *342:16 49.4669 
5 *342:16 *342:20 39.6627 
6 *342:20 *342:26 34.8245 
7 *342:26 *1262:E 17.2 
8 *342:20 *1697:A 40.0317 
9 *342:16 *1286:B 17.2 
10 *342:6 *900:B 17.2 
*END

*D_NET *343 0.00016192
*CONN
*I *1242:B I *D XOR2x2_ASAP7_75t_SL
*I *1241:Y O *D OR3x1_ASAP7_75t_SL
*CAP
1 *1242:B 0
2 *1241:Y 4.24536e-06
3 *343:14 2.75287e-05
4 *343:8 3.17741e-05
5 *343:8 *814:19 1.21211e-05
6 *343:14 *404:10 0
7 *343:14 *810:58 5.85387e-06
8 *343:14 *810:66 7.12028e-06
9 *343:14 *810:100 6.66346e-05
10 *343:14 *814:19 0
11 *343:14 *840:147 6.6421e-06
*RES
1 *1241:Y *343:8 38.1438 
2 *343:8 *343:14 43.5271 
3 *343:14 *1242:B 17.2 
*END

*D_NET *344 0.000167201
*CONN
*I *1255:A2 I *D OAI22x1_ASAP7_75t_SL
*I *1243:B1 I *D OAI22x1_ASAP7_75t_SL
*I *1242:Y O *D XOR2x2_ASAP7_75t_SL
*CAP
1 *1255:A2 0
2 *1243:B1 0
3 *1242:Y 0
4 *344:20 1.13991e-05
5 *344:12 5.12871e-05
6 *344:6 3.9888e-05
7 *344:12 *363:10 0
8 *344:12 *758:8 0
9 *344:12 *810:66 3.95007e-06
10 *344:12 *813:21 1.64764e-06
11 *344:12 *840:147 5.67735e-06
12 *344:20 *1243:A1 1.35684e-06
13 *344:20 *1255:A1 1.96231e-05
14 *344:20 *1255:B2 2.53282e-06
15 *344:20 *356:8 1.65207e-05
16 *344:20 *709:22 9.75645e-06
17 *344:20 *863:58 3.56177e-06
18 *338:8 *344:12 0
*RES
1 *1242:Y *344:6 34.4 
2 *344:6 *344:12 48.6523 
3 *344:12 *344:20 47.1544 
4 *344:20 *1243:B1 17.2 
5 *344:12 *1255:A2 17.2 
*END

*D_NET *345 0.000122258
*CONN
*I *1251:A2 I *D OA211x2_ASAP7_75t_SL
*I *1243:Y O *D OAI22x1_ASAP7_75t_SL
*CAP
1 *1251:A2 1.42294e-05
2 *1243:Y 1.57116e-05
3 *345:8 2.99411e-05
4 *1251:A2 *1273:A1 4.81156e-06
5 *1251:A2 *356:8 3.80349e-05
6 *1251:A2 *364:8 0
7 *1251:A2 *709:57 2.83449e-06
8 *1251:A2 *863:37 1.30433e-05
9 *345:8 *1243:A1 3.65131e-06
10 *345:8 *709:22 0
*RES
1 *1243:Y *345:8 41.3527 
2 *345:8 *1251:A2 49.4921 
*END

*D_NET *346 0.00125156
*CONN
*I *1245:A I *D AND4x1_ASAP7_75t_SL
*I *1266:A I *D AND5x1_ASAP7_75t_SL
*I *1349:A I *D AND2x2_ASAP7_75t_SL
*I *1304:B I *D AO31x2_ASAP7_75t_SL
*I *1302:A I *D NAND2x1_ASAP7_75t_SL
*I *1244:Y O *D INVx1_ASAP7_75t_SL
*CAP
1 *1245:A 0
2 *1266:A 0
3 *1349:A 2.32303e-06
4 *1304:B 9.13435e-06
5 *1302:A 0
6 *1244:Y 6.23229e-05
7 *346:100 5.14025e-06
8 *346:87 7.47671e-06
9 *346:79 8.56972e-05
10 *346:77 8.04386e-05
11 *346:64 2.59429e-05
12 *346:51 4.31641e-05
13 *346:49 5.09828e-05
14 *346:40 4.9142e-06
15 *346:32 3.30492e-05
16 *346:28 2.34414e-05
17 *346:24 4.52243e-05
18 *346:18 5.45803e-05
19 *346:14 5.21449e-05
20 *346:12 4.97076e-05
21 *346:6 6.52395e-05
22 *1304:B *1304:A3 5.09299e-06
23 *1304:B *1325:A1 9.16822e-06
24 *346:6 *463:14 6.0212e-06
25 *346:6 *478:8 0
26 *346:6 *795:24 1.1364e-05
27 *346:24 *1388:A1 0
28 *346:24 *1388:B 3.70657e-05
29 *346:24 *378:10 0
30 *346:24 *705:10 0
31 *346:24 *705:22 0
32 *346:24 *794:33 2.33715e-05
33 *346:28 *1392:A1 3.32204e-06
34 *346:28 *388:24 9.34542e-06
35 *346:28 *452:10 5.44585e-05
36 *346:28 *705:22 0
37 *346:28 *705:28 0
38 *346:28 *819:60 1.25003e-05
39 *346:32 *388:24 7.73676e-06
40 *346:32 *723:50 2.73372e-06
41 *346:40 *398:10 1.89667e-07
42 *346:49 *388:24 9.12866e-06
43 *346:49 *723:50 4.17024e-06
44 *346:51 *1326:C 0
45 *346:51 *388:16 1.77514e-05
46 *346:51 *409:12 1.37633e-05
47 *346:51 *418:18 1.62643e-06
48 *346:51 *418:26 0
49 *346:51 *420:10 1.31528e-05
50 *346:51 *477:10 9.39338e-05
51 *346:77 *1349:B 5.52807e-07
52 *346:77 *452:18 5.52807e-07
53 *346:79 *379:10 7.80516e-06
54 *346:79 *748:14 3.6815e-05
55 *346:87 *379:10 5.41446e-06
56 *346:87 *766:20 4.82139e-06
57 *346:100 *379:10 4.65695e-07
58 *346:100 *766:20 8.06436e-06
59 *346:100 *766:30 4.9888e-06
60 *1244:A *346:6 5.57057e-06
61 *1735:A *346:24 8.2174e-07
62 *46:12 *346:87 3.08086e-06
63 *46:12 *346:100 8.06799e-07
64 *132:10 *346:12 8.06436e-06
65 *183:10 *346:12 0
66 *183:44 *346:14 9.73457e-05
67 *183:44 *346:64 1.62312e-05
68 *183:61 *1349:A 2.20493e-06
69 *183:61 *346:64 1.03556e-05
70 *285:14 *346:32 7.66024e-07
71 *287:68 *346:24 1.49407e-08
*RES
1 *1244:Y *346:6 45.5457 
2 *346:6 *346:12 37.2158 
3 *346:12 *346:14 33.694 
4 *346:14 *346:18 20.0158 
5 *346:18 *346:24 43.9924 
6 *346:24 *346:28 35.7845 
7 *346:28 *346:32 21.5288 
8 *346:32 *346:40 36.8492 
9 *346:40 *1302:A 17.2 
10 *346:32 *346:49 22.8274 
11 *346:49 *346:51 32.9452 
12 *346:51 *1304:B 41.3527 
13 *346:18 *346:64 29.501 
14 *346:64 *1349:A 18.8045 
15 *346:64 *346:77 38.9053 
16 *346:77 *346:79 35.8333 
17 *346:79 *346:87 40.5098 
18 *346:87 *1266:A 17.2 
19 *346:79 *346:100 39.4118 
20 *346:100 *1245:A 17.2 
*END

*D_NET *347 0.000340185
*CONN
*I *1281:C I *D AND3x1_ASAP7_75t_SL
*I *1246:B I *D XOR2x2_ASAP7_75t_SL
*I *1245:Y O *D AND4x1_ASAP7_75t_SL
*CAP
1 *1281:C 0
2 *1246:B 6.25895e-06
3 *1245:Y 3.79442e-06
4 *347:42 1.55437e-05
5 *347:36 3.61012e-05
6 *347:30 4.13633e-05
7 *347:22 1.99919e-05
8 *347:18 2.66069e-05
9 *347:10 2.49563e-05
10 *1246:B *366:14 2.20493e-06
11 *1246:B *366:20 0
12 *1246:B *805:12 1.15587e-05
13 *347:10 *748:14 2.12481e-06
14 *347:10 *860:55 3.09718e-06
15 *347:18 *379:10 1.49407e-08
16 *347:18 *765:44 1.35892e-06
17 *347:18 *766:30 2.95693e-06
18 *347:22 *766:30 1.13523e-05
19 *347:30 *1281:A 3.89037e-06
20 *347:30 *1296:B 5.79724e-07
21 *347:30 *764:8 7.59847e-06
22 *347:30 *766:30 3.89037e-06
23 *347:30 *766:36 1.32074e-05
24 *347:36 *1259:B 5.17782e-06
25 *347:36 *1296:B 5.25794e-06
26 *347:36 *360:8 5.51397e-07
27 *347:36 *803:8 5.52807e-07
28 *347:36 *803:21 8.06799e-07
29 *347:42 *366:14 4.8486e-05
30 *347:42 *806:6 1.79628e-05
31 *347:42 *806:14 2.29378e-05
32 *1296:A *347:36 0
*RES
1 *1245:Y *347:10 37.0369 
2 *347:10 *347:18 41.7092 
3 *347:18 *347:22 21.4786 
4 *347:22 *347:30 45.4366 
5 *347:30 *347:36 35.246 
6 *347:36 *347:42 48.8403 
7 *347:42 *1246:B 39.9466 
8 *347:22 *1281:C 17.2 
*END

*D_NET *348 0.000223749
*CONN
*I *1247:B I *D NAND2x1_ASAP7_75t_SL
*I *1246:Y O *D XOR2x2_ASAP7_75t_SL
*CAP
1 *1247:B 0
2 *1246:Y 8.55987e-06
3 *348:16 4.22373e-05
4 *348:14 4.22373e-05
5 *348:12 2.83242e-05
6 *348:8 3.68841e-05
7 *348:8 *803:8 1.09493e-06
8 *348:8 *805:12 0
9 *348:12 *867:45 5.80001e-06
10 *348:16 *349:12 3.92018e-06
11 *348:16 *372:10 1.32586e-05
12 *348:16 *867:41 3.00678e-05
13 *348:16 *867:79 1.02642e-06
14 *1773:A *348:12 1.00935e-05
15 *49:23 *348:8 2.45021e-07
*RES
1 *1246:Y *348:8 40.0317 
2 *348:8 *348:12 33.7796 
3 *348:12 *348:14 17.2 
4 *348:14 *348:16 42.8006 
5 *348:16 *1247:B 34.4 
*END

*D_NET *349 0.000107451
*CONN
*I *1251:C I *D OA211x2_ASAP7_75t_SL
*I *1247:Y O *D NAND2x1_ASAP7_75t_SL
*CAP
1 *1251:C 0
2 *1247:Y 0
3 *349:12 2.05855e-05
4 *349:6 2.05855e-05
5 *349:12 *1251:B 3.89037e-06
6 *349:12 *372:10 6.12984e-06
7 *349:12 *867:41 0
8 *120:8 *349:12 1.09842e-06
9 *282:59 *349:12 1.52651e-06
10 *282:63 *349:12 8.3257e-06
11 *282:78 *349:12 4.13889e-05
12 *348:16 *349:12 3.92018e-06
*RES
1 *1247:Y *349:6 34.4 
2 *349:6 *349:12 39.1068 
3 *349:12 *1251:C 17.2 
*END

*D_NET *350 0.000275323
*CONN
*I *1394:A1 I *D OA211x2_ASAP7_75t_SL
*I *1249:B I *D NOR2x2_ASAP7_75t_SL
*I *1248:Y O *D AND4x2_ASAP7_75t_SL
*CAP
1 *1394:A1 0
2 *1249:B 0
3 *1248:Y 6.54446e-06
4 *350:29 8.85343e-06
5 *350:21 3.59444e-05
6 *350:8 3.36355e-05
7 *350:8 *1860:A 0
8 *350:8 *436:10 2.02764e-05
9 *350:21 *1860:A 2.52755e-07
10 *350:21 *377:10 5.62196e-06
11 *350:21 *430:16 3.3921e-06
12 *350:21 *436:10 2.97922e-05
13 *350:21 *865:20 5.75079e-05
14 *350:21 *867:10 4.40246e-06
15 *350:21 *867:96 1.11635e-05
16 *350:29 *820:197 6.57404e-06
17 *1279:A *350:21 3.73144e-06
18 *1279:A *350:29 1.31351e-05
19 *33:29 *350:29 7.77987e-06
20 *189:37 *350:21 2.42632e-05
21 *192:8 *350:29 1.36155e-06
22 *288:22 *350:8 1.09067e-06
*RES
1 *1248:Y *350:8 41.158 
2 *350:8 *1249:B 34.4 
3 *350:8 *350:21 46.0559 
4 *350:21 *350:29 42.2276 
5 *350:29 *1394:A1 17.2 
*END

*D_NET *351 0.000166169
*CONN
*I *1840:A I *D BUFx6f_ASAP7_75t_SL
*I *1842:A I *D BUFx6f_ASAP7_75t_SL
*I *1249:Y O *D NOR2x2_ASAP7_75t_SL
*CAP
1 *1840:A 0
2 *1842:A 0
3 *1249:Y 3.75138e-06
4 *351:23 2.63817e-05
5 *351:10 3.80436e-05
6 *351:8 1.54134e-05
7 *351:8 *1249:A 2.03526e-06
8 *351:23 *436:10 0
9 *351:23 *862:22 7.14604e-06
10 *351:23 *867:98 9.86088e-07
11 *33:12 *351:23 1.70708e-06
12 *137:12 *351:10 8.77358e-06
13 *137:12 *351:23 3.05118e-08
14 *195:12 *351:23 1.31932e-05
15 *285:28 *351:10 4.30991e-05
16 *285:28 *351:23 5.60838e-06
*RES
1 *1249:Y *351:8 36.0045 
2 *351:8 *351:10 14.6423 
3 *351:10 *1842:A 34.4 
4 *351:10 *351:23 35.6711 
5 *351:23 *1840:A 17.2 
*END

*D_NET *352 0.00017305
*CONN
*P prescale[5] I
*I *1250:A I *D BUFx2_ASAP7_75t_SL
*CAP
1 prescale[5] 2.95152e-05
2 *1250:A 0
3 *352:13 5.701e-05
4 *352:11 5.701e-05
5 *352:9 2.95152e-05
6 *352:9 *382:9 0
7 *352:9 *455:9 0
8 *336:9 *352:9 0
9 *336:13 *352:13 0
10 *337:13 *352:13 0
*RES
1 prescale[5] *352:9 35.7162 
2 *352:9 *352:11 17.2 
3 *352:11 *352:13 34.7636 
4 *352:13 *1250:A 17.2 
*END

*D_NET *353 0.000614297
*CONN
*I *1254:A I *D XNOR2x2_ASAP7_75t_SL
*I *908:A I *D AND5x1_ASAP7_75t_SL
*I *1252:Y O *D INVx1_ASAP7_75t_SL
*CAP
1 *1254:A 6.08481e-06
2 *908:A 0
3 *1252:Y 6.78079e-06
4 *353:21 0.000101727
5 *353:14 1.62637e-05
6 *353:8 0.000118687
7 *1254:A *355:8 0
8 *353:8 *840:46 3.48165e-06
9 *353:14 *916:E 3.56177e-06
10 *353:14 *533:51 1.25483e-05
11 *353:14 *550:8 2.95689e-05
12 *353:14 *837:28 1.80102e-05
13 *353:14 *837:40 0
14 *353:21 *1254:B 3.25708e-06
15 *353:21 *1263:B 4.46519e-06
16 *353:21 *371:8 1.83681e-05
17 *353:21 *413:18 0
18 *353:21 *550:8 5.93996e-05
19 *353:21 *821:8 1.64764e-06
20 *353:21 *829:14 8.33296e-06
21 *353:21 *831:19 5.51814e-06
22 *353:21 *833:12 1.35961e-06
23 *353:21 *837:28 5.7728e-05
24 *353:21 *837:65 3.88054e-05
25 *353:21 *839:74 3.82021e-06
26 *353:21 *840:18 1.12894e-06
27 *353:21 *840:26 7.11817e-05
28 *353:21 *840:34 2.25701e-05
29 *353:21 *840:137 0
*RES
1 *1252:Y *353:8 37.0741 
2 *353:8 *353:14 33.2201 
3 *353:14 *908:A 17.2 
4 *353:8 *353:21 96.3014 
5 *353:21 *1254:A 37.0741 
*END

*D_NET *354 0.000106943
*CONN
*I *1254:B I *D XNOR2x2_ASAP7_75t_SL
*I *1253:Y O *D OR4x1_ASAP7_75t_SL
*CAP
1 *1254:B 1.70142e-05
2 *1253:Y 1.45235e-05
3 *354:8 3.15377e-05
4 *1254:B *1781:A 0
5 *1254:B *371:8 0
6 *1254:B *810:76 9.67723e-06
7 *354:8 *1253:A 2.0895e-06
8 *354:8 *810:86 2.70601e-05
9 *354:8 *839:30 7.58265e-07
10 *354:8 *839:41 1.02506e-06
11 *353:21 *1254:B 3.25708e-06
*RES
1 *1253:Y *354:8 46.1661 
2 *354:8 *1254:B 48.4791 
*END

*D_NET *355 0.000104533
*CONN
*I *1264:A2 I *D OAI22x1_ASAP7_75t_SL
*I *1255:B1 I *D OAI22x1_ASAP7_75t_SL
*I *1254:Y O *D XNOR2x2_ASAP7_75t_SL
*CAP
1 *1264:A2 9.21443e-06
2 *1255:B1 7.1399e-06
3 *1254:Y 1.15236e-05
4 *355:10 3.71159e-05
5 *355:8 3.22852e-05
6 *1264:A2 *863:58 3.6269e-06
7 *1264:A2 *863:66 3.6269e-06
8 *355:10 *371:8 0
9 *1254:A *355:8 0
*RES
1 *1254:Y *355:8 39.2134 
2 *355:8 *355:10 16.3318 
3 *355:10 *1255:B1 38.1438 
4 *355:10 *1264:A2 41.158 
*END

*D_NET *356 0.000452744
*CONN
*I *1261:A2 I *D OA211x2_ASAP7_75t_SL
*I *1255:Y O *D OAI22x1_ASAP7_75t_SL
*CAP
1 *1261:A2 0
2 *1255:Y 0
3 *356:18 1.74233e-05
4 *356:12 7.57963e-05
5 *356:8 0.000110276
6 *356:6 5.19029e-05
7 *356:8 *1255:A1 2.84286e-06
8 *356:8 *364:8 0
9 *356:8 *371:16 1.84268e-06
10 *356:8 *372:10 0.000133034
11 *356:8 *863:37 2.84286e-06
12 *1251:A2 *356:8 3.80349e-05
13 *339:10 *356:8 2.22736e-06
14 *344:20 *356:8 1.65207e-05
*RES
1 *1255:Y *356:6 34.4 
2 *356:6 *356:8 60.8219 
3 *356:8 *356:12 41.2671 
4 *356:12 *356:18 47.3528 
5 *356:18 *1261:A2 17.2 
*END

*D_NET *357 0.00122653
*CONN
*I *1724:A I *D BUFx3_ASAP7_75t_SL
*I *1720:A I *D BUFx3_ASAP7_75t_SL
*I *1274:D I *D AND4x1_ASAP7_75t_SL
*I *1258:D I *D AND4x1_ASAP7_75t_SL
*I *1376:D I *D AND4x1_ASAP7_75t_SL
*I *1256:Y O *D AND4x1_ASAP7_75t_SL
*CAP
1 *1724:A 0
2 *1720:A 0
3 *1274:D 0
4 *1258:D 0
5 *1376:D 8.03484e-06
6 *1256:Y 0
7 *357:69 2.27147e-05
8 *357:59 3.40852e-05
9 *357:51 3.23296e-05
10 *357:47 4.94829e-05
11 *357:43 3.77211e-05
12 *357:35 9.18898e-05
13 *357:20 0.000108972
14 *357:18 2.72651e-05
15 *357:14 2.27152e-05
16 *357:12 1.84528e-05
17 *357:6 9.52996e-05
18 *357:4 9.05416e-05
19 *1376:D *1375:A2 4.41457e-06
20 *1376:D *1376:C 7.58545e-06
21 *1376:D *463:6 5.08828e-06
22 *357:6 *1256:D 4.57952e-06
23 *357:6 *1339:A1 1.52651e-06
24 *357:6 *428:22 1.04475e-06
25 *357:6 *430:30 1.35684e-06
26 *357:6 *798:20 7.72307e-07
27 *357:6 *865:69 1.96943e-05
28 *357:6 *865:75 6.92634e-06
29 *357:12 *708:19 0
30 *357:14 *466:12 7.22766e-05
31 *357:14 *756:44 2.88806e-06
32 *357:18 *466:12 4.17794e-05
33 *357:20 *1375:A1 4.59165e-06
34 *357:20 *692:27 2.63279e-05
35 *357:35 *864:27 0.000104655
36 *357:43 *708:55 8.31096e-06
37 *357:43 *752:48 0
38 *357:47 *708:55 3.07985e-05
39 *357:51 *374:10 2.22736e-06
40 *357:51 *375:10 0
41 *357:51 *804:10 0
42 *357:51 *804:12 0
43 *357:59 *1274:C 2.5569e-06
44 *357:59 *373:8 1.2768e-05
45 *357:59 *765:67 1.13885e-05
46 *357:59 *804:12 6.57356e-06
47 *357:69 *1258:B 1.30717e-05
48 *357:69 *1258:C 1.44167e-06
49 *357:69 *1281:A 1.59615e-06
50 *357:69 *765:50 4.89331e-06
51 *357:69 *766:36 1.26641e-06
52 *357:69 *766:46 8.33296e-06
53 *39:12 *357:6 2.11853e-06
54 *46:10 *357:51 5.00394e-06
55 *46:12 *357:51 1.67815e-06
56 *130:8 *357:6 0
57 *135:10 *357:20 7.68038e-05
58 *183:18 *357:14 6.01677e-05
59 *183:18 *357:18 3.05232e-05
*RES
1 *1256:Y *357:4 17.2 
2 *357:4 *357:6 42.2512 
3 *357:6 *357:12 37.2158 
4 *357:12 *357:14 24.0671 
5 *357:14 *357:18 29.501 
6 *357:18 *357:20 25.9056 
7 *357:20 *1376:D 40.8179 
8 *357:20 *357:35 48.7999 
9 *357:35 *357:43 41.5033 
10 *357:43 *357:47 39.1278 
11 *357:47 *357:51 32.4055 
12 *357:51 *357:59 44.9018 
13 *357:59 *357:69 47.4342 
14 *357:69 *1258:D 17.2 
15 *357:51 *1274:D 17.2 
16 *357:43 *1720:A 17.2 
17 *357:14 *1724:A 17.2 
*END

*D_NET *358 0.000190292
*CONN
*P prescale[4] I
*I *1257:A I *D BUFx2_ASAP7_75t_SL
*CAP
1 prescale[4] 1.86958e-05
2 *1257:A 0
3 *358:13 2.94934e-05
4 *358:9 4.81893e-05
5 *358:9 *382:9 5.14599e-05
6 *358:13 *382:13 0
7 *337:9 *358:9 1.83848e-05
8 *341:9 *358:9 2.40692e-05
*RES
1 prescale[4] *358:9 40.7847 
2 *358:9 *358:13 38.0582 
3 *358:13 *1257:A 17.2 
*END

*D_NET *359 4.0747e-05
*CONN
*I *1259:B I *D XOR2x2_ASAP7_75t_SL
*I *1258:Y O *D AND4x1_ASAP7_75t_SL
*CAP
1 *1259:B 1.16156e-05
2 *1258:Y 5.44511e-06
3 *359:8 1.70607e-05
4 *1259:B *360:8 0
5 *359:8 *1296:B 3.05118e-08
6 *359:8 *765:50 6.33206e-07
7 *359:8 *766:36 7.84037e-07
8 *359:8 *803:21 0
9 *347:36 *1259:B 5.17782e-06
*RES
1 *1258:Y *359:8 37.779 
2 *359:8 *1259:B 40.2831 
*END

*D_NET *360 0.000168739
*CONN
*I *1260:B I *D NAND2x1_ASAP7_75t_SL
*I *1259:Y O *D XOR2x2_ASAP7_75t_SL
*CAP
1 *1260:B 0
2 *1259:Y 3.57629e-05
3 *360:14 2.48287e-05
4 *360:8 6.05916e-05
5 *360:14 *367:8 1.99433e-05
6 *360:14 *708:81 7.63254e-06
7 *360:14 *805:12 1.94283e-05
8 *1259:B *360:8 0
9 *347:36 *360:8 5.51397e-07
*RES
1 *1259:Y *360:8 49.9099 
2 *360:8 *360:14 41.4088 
3 *360:14 *1260:B 17.2 
*END

*D_NET *361 0.000117911
*CONN
*I *1261:C I *D OA211x2_ASAP7_75t_SL
*I *1260:Y O *D NAND2x1_ASAP7_75t_SL
*CAP
1 *1261:C 0
2 *1260:Y 7.85624e-06
3 *361:20 2.88781e-05
4 *361:14 3.23332e-05
5 *361:8 1.13113e-05
6 *361:8 *1269:C 1.12894e-06
7 *361:8 *367:14 0
8 *361:8 *708:89 0
9 *361:8 *708:95 0
10 *361:14 *367:14 1.60115e-05
11 *361:14 *368:8 5.25794e-06
12 *361:20 *1261:A1 0
13 *361:20 *1269:C 0
14 *361:20 *364:8 3.92507e-06
15 *361:20 *708:95 0
16 *361:20 *708:97 0
17 *361:20 *867:70 1.02664e-05
18 *121:10 *361:20 9.425e-07
*RES
1 *1260:Y *361:8 40.0317 
2 *361:8 *361:14 39.2134 
3 *361:14 *361:20 39.5283 
4 *361:20 *1261:C 17.2 
*END

*D_NET *362 0.000105907
*CONN
*I *1263:B I *D XOR2x2_ASAP7_75t_SL
*I *1262:Y O *D OR5x1_ASAP7_75t_SL
*CAP
1 *1263:B 4.62377e-06
2 *1262:Y 2.95495e-05
3 *362:8 3.41733e-05
4 *1263:B *833:12 5.10048e-06
5 *362:8 *1262:D 8.77428e-07
6 *362:8 *1270:A 1.23489e-06
7 *362:8 *837:65 2.02277e-05
8 *342:26 *362:8 5.655e-06
9 *353:21 *1263:B 4.46519e-06
*RES
1 *1262:Y *362:8 46.701 
2 *362:8 *1263:B 38.9053 
*END

*D_NET *363 0.000560519
*CONN
*I *1273:A2 I *D OAI22x1_ASAP7_75t_SL
*I *1264:B1 I *D OAI22x1_ASAP7_75t_SL
*I *1263:Y O *D XOR2x2_ASAP7_75t_SL
*CAP
1 *1273:A2 5.25027e-06
2 *1264:B1 1.53623e-05
3 *1263:Y 5.04814e-06
4 *363:16 4.28841e-05
5 *363:10 0.000110303
6 *363:8 8.25788e-05
7 *1264:B1 *1264:B2 3.73144e-06
8 *1264:B1 *364:8 0
9 *1264:B1 *371:8 0
10 *1264:B1 *863:58 0
11 *1264:B1 *863:66 6.33206e-07
12 *1273:A2 *1273:B1 3.04903e-06
13 *1273:A2 *709:57 1.01709e-06
14 *363:8 *810:121 3.81627e-06
15 *363:10 *1255:B2 9.93746e-06
16 *363:10 *1273:B1 1.70708e-06
17 *363:10 *371:8 0.000237418
18 *363:10 *709:37 5.8198e-06
19 *363:10 *709:57 3.90659e-06
20 *363:10 *810:66 3.29527e-06
21 *363:10 *810:100 7.09684e-06
22 *363:10 *829:20 2.25787e-06
23 *363:10 *839:41 8.33296e-06
24 *363:10 *840:26 5.00394e-06
25 *363:16 *1273:B1 1.04475e-06
26 *363:16 *709:57 1.02506e-06
27 *344:12 *363:10 0
*RES
1 *1263:Y *363:8 37.0741 
2 *363:8 *363:10 87.8539 
3 *363:10 *363:16 46.701 
4 *363:16 *1264:B1 44.9018 
5 *363:10 *1273:A2 37.694 
*END

*D_NET *364 0.000300802
*CONN
*I *1269:A2 I *D OA211x2_ASAP7_75t_SL
*I *1264:Y O *D OAI22x1_ASAP7_75t_SL
*CAP
1 *1269:A2 3.03529e-06
2 *1264:Y 0
3 *364:8 8.08417e-05
4 *364:6 7.78064e-05
5 *1269:A2 *1269:A1 8.3281e-06
6 *364:8 *1273:B1 1.09067e-06
7 *364:8 *1490:CLK 1.60716e-05
8 *364:8 *371:8 5.37866e-07
9 *364:8 *859:73 0.000103995
10 *364:8 *867:62 4.9137e-07
11 *364:8 *867:70 1.13944e-06
12 *1251:A2 *364:8 0
13 *1264:B1 *364:8 0
14 *121:10 *364:8 3.54011e-06
15 *122:8 *364:8 0
16 *356:8 *364:8 0
17 *361:20 *364:8 3.92507e-06
*RES
1 *1264:Y *364:6 34.4 
2 *364:6 *364:8 72.0853 
3 *364:8 *1269:A2 36.5393 
*END

*D_NET *365 0.000129054
*CONN
*I *1266:D I *D AND5x1_ASAP7_75t_SL
*I *1265:Y O *D AND2x2_ASAP7_75t_SL
*CAP
1 *1266:D 0
2 *1265:Y 4.22353e-05
3 *365:6 4.22353e-05
4 *365:6 *1266:B 3.68287e-06
5 *365:6 *373:8 4.09005e-05
*RES
1 *1265:Y *365:6 37.5233 
2 *365:6 *1266:D 17.2 
*END

*D_NET *366 0.000405417
*CONN
*I *1267:B I *D XOR2x2_ASAP7_75t_SL
*I *1266:Y O *D AND5x1_ASAP7_75t_SL
*CAP
1 *1267:B 0
2 *1266:Y 1.55935e-05
3 *366:20 1.23195e-05
4 *366:14 8.43295e-05
5 *366:12 9.00941e-05
6 *366:8 3.36775e-05
7 *366:12 *379:10 2.63749e-05
8 *366:12 *765:16 1.98844e-05
9 *366:12 *765:27 2.13739e-05
10 *366:12 *765:42 2.51541e-05
11 *366:12 *766:20 4.74248e-06
12 *366:14 *764:36 6.53466e-06
13 *366:20 *867:79 1.26127e-05
14 *1246:B *366:14 2.20493e-06
15 *1246:B *366:20 0
16 *46:12 *366:12 0
17 *49:23 *366:14 2.03526e-06
18 *347:42 *366:14 4.8486e-05
*RES
1 *1266:Y *366:8 40.2831 
2 *366:8 *366:12 39.7266 
3 *366:12 *366:14 47.5994 
4 *366:14 *366:20 44.537 
5 *366:20 *1267:B 17.2 
*END

*D_NET *367 0.000157464
*CONN
*I *1268:B I *D NAND2x1_ASAP7_75t_SL
*I *1267:Y O *D XOR2x2_ASAP7_75t_SL
*CAP
1 *1268:B 0
2 *1267:Y 2.79558e-05
3 *367:14 2.72371e-05
4 *367:8 5.51929e-05
5 *367:14 *1269:C 0
6 *367:14 *368:8 2.61188e-06
7 *367:14 *372:10 8.51183e-06
8 *360:14 *367:8 1.99433e-05
9 *361:8 *367:14 0
10 *361:14 *367:14 1.60115e-05
*RES
1 *1267:Y *367:8 48.8403 
2 *367:8 *367:14 37.3286 
3 *367:14 *1268:B 17.2 
*END

*D_NET *368 7.59032e-05
*CONN
*I *1269:C I *D OA211x2_ASAP7_75t_SL
*I *1268:Y O *D NAND2x1_ASAP7_75t_SL
*CAP
1 *1269:C 1.8578e-05
2 *1268:Y 1.38542e-05
3 *368:8 3.24322e-05
4 *1269:C *1269:B 6.7842e-07
5 *1269:C *372:10 0
6 *1269:C *867:47 1.36155e-06
7 *361:8 *1269:C 1.12894e-06
8 *361:14 *368:8 5.25794e-06
9 *361:20 *1269:C 0
10 *367:14 *1269:C 0
11 *367:14 *368:8 2.61188e-06
*RES
1 *1268:Y *368:8 41.3527 
2 *368:8 *1269:C 46.733 
*END

*D_NET *369 0.000237372
*CONN
*I *1271:C I *D OR3x1_ASAP7_75t_SL
*I *919:C I *D OR3x1_ASAP7_75t_SL
*I *1270:Y O *D OR4x1_ASAP7_75t_SL
*CAP
1 *1271:C 5.72796e-06
2 *919:C 1.9084e-05
3 *1270:Y 3.85403e-06
4 *369:20 2.17584e-05
5 *369:14 3.20511e-05
6 *369:8 3.89587e-05
7 *919:C *919:A 1.86049e-06
8 *919:C *920:A 3.81087e-05
9 *919:C *519:16 8.53214e-06
10 *919:C *837:22 5.96787e-07
11 *919:C *840:34 1.3988e-05
12 *1271:C *1271:A 1.70866e-06
13 *1271:C *816:128 1.70866e-06
14 *369:8 *834:12 2.55346e-06
15 *369:14 *1271:A 2.53753e-06
16 *369:14 *816:10 3.18075e-06
17 *369:14 *816:16 1.88951e-06
18 *369:14 *834:23 2.89113e-05
19 *369:14 *837:14 4.71862e-06
20 *369:20 *833:12 2.19795e-06
21 *369:20 *839:68 3.44487e-06
*RES
1 *1270:Y *369:8 36.0045 
2 *369:8 *369:14 37.612 
3 *369:14 *369:20 37.2158 
4 *369:20 *919:C 32.7099 
5 *369:8 *1271:C 38.9053 
*END

*D_NET *370 7.50206e-05
*CONN
*I *1272:B I *D XOR2x2_ASAP7_75t_SL
*I *1271:Y O *D OR3x1_ASAP7_75t_SL
*CAP
1 *1272:B 0
2 *1271:Y 1.45241e-05
3 *370:10 1.45241e-05
4 *370:10 *413:18 2.28488e-05
5 *370:10 *810:121 4.16007e-06
6 *370:10 *816:128 4.10928e-06
7 *370:10 *834:38 1.95129e-06
8 *370:10 *839:54 1.2903e-05
*RES
1 *1271:Y *370:10 46.0281 
2 *370:10 *1272:B 34.4 
*END

*D_NET *371 0.000748574
*CONN
*I *1273:B1 I *D OAI22x1_ASAP7_75t_SL
*I *1288:A2 I *D OAI22x1_ASAP7_75t_SL
*I *1272:Y O *D XOR2x2_ASAP7_75t_SL
*CAP
1 *1273:B1 5.91943e-06
2 *1288:A2 0
3 *1272:Y 0
4 *371:26 2.86751e-06
5 *371:20 6.71254e-05
6 *371:18 6.42579e-05
7 *371:16 1.94452e-05
8 *371:8 9.11568e-05
9 *371:6 6.57922e-05
10 *1273:B1 *709:57 6.51288e-06
11 *371:8 *831:19 1.3295e-05
12 *371:8 *840:26 5.52652e-06
13 *371:8 *863:58 1.09067e-06
14 *371:20 *863:31 2.23047e-05
15 *371:20 *863:33 9.91275e-05
16 *371:26 *392:10 1.34257e-05
17 *371:26 *863:31 5.66897e-06
18 *1254:B *371:8 0
19 *1264:B1 *371:8 0
20 *1273:A2 *1273:B1 3.04903e-06
21 *353:21 *371:8 1.83681e-05
22 *355:10 *371:8 0
23 *356:8 *371:16 1.84268e-06
24 *363:10 *1273:B1 1.70708e-06
25 *363:10 *371:8 0.000237418
26 *363:16 *1273:B1 1.04475e-06
27 *364:8 *1273:B1 1.09067e-06
28 *364:8 *371:8 5.37866e-07
*RES
1 *1272:Y *371:6 34.4 
2 *371:6 *371:8 79.3125 
3 *371:8 *371:16 40.0351 
4 *371:16 *371:18 17.2 
5 *371:18 *371:20 36.9029 
6 *371:20 *371:26 38.9053 
7 *371:26 *1288:A2 17.2 
8 *371:8 *1273:B1 40.0405 
*END

*D_NET *372 0.000562777
*CONN
*I *1277:A2 I *D OA211x2_ASAP7_75t_SL
*I *1273:Y O *D OAI22x1_ASAP7_75t_SL
*CAP
1 *1277:A2 0
2 *1273:Y 2.46032e-06
3 *372:18 2.12084e-05
4 *372:10 0.000104838
5 *372:8 8.60898e-05
6 *372:8 *863:33 1.56713e-06
7 *372:10 *708:79 5.06565e-06
8 *372:10 *867:79 0.000116356
9 *372:18 *867:79 0
10 *1269:C *372:10 0
11 *122:8 *372:10 8.39766e-06
12 *282:63 *372:10 1.55612e-05
13 *282:78 *372:10 4.02987e-05
14 *348:16 *372:10 1.32586e-05
15 *349:12 *372:10 6.12984e-06
16 *356:8 *372:10 0.000133034
17 *367:14 *372:10 8.51183e-06
*RES
1 *1273:Y *372:8 36.0045 
2 *372:8 *372:10 103.059 
3 *372:10 *372:18 44.7884 
4 *372:18 *1277:A2 34.4 
*END

*D_NET *373 0.000107685
*CONN
*I *1275:B I *D XOR2x2_ASAP7_75t_SL
*I *1274:Y O *D AND4x1_ASAP7_75t_SL
*CAP
1 *1275:B 9.22769e-06
2 *1274:Y 1.77662e-05
3 *373:8 2.69939e-05
4 *1275:B *804:12 0
5 *373:8 *1274:A 2.90209e-08
6 *357:59 *373:8 1.2768e-05
7 *365:6 *373:8 4.09005e-05
*RES
1 *1274:Y *373:8 48.8403 
2 *373:8 *1275:B 40.0317 
*END

*D_NET *374 2.31983e-05
*CONN
*I *1276:B I *D NAND2x1_ASAP7_75t_SL
*I *1275:Y O *D XOR2x2_ASAP7_75t_SL
*CAP
1 *1276:B 0
2 *1275:Y 9.07163e-06
3 *374:10 9.07163e-06
4 *374:10 *375:10 5.37866e-07
5 *374:10 *708:61 0
6 *374:10 *804:8 2.28976e-06
7 *357:51 *374:10 2.22736e-06
*RES
1 *1275:Y *374:10 40.5098 
2 *374:10 *1276:B 34.4 
*END

*D_NET *375 0.000156516
*CONN
*I *1277:C I *D OA211x2_ASAP7_75t_SL
*I *1276:Y O *D NAND2x1_ASAP7_75t_SL
*CAP
1 *1277:C 0
2 *1276:Y 1.1323e-05
3 *375:14 3.57238e-05
4 *375:10 4.70468e-05
5 *375:10 *708:55 5.51397e-07
6 *375:10 *708:61 4.10928e-06
7 *375:10 *804:10 6.33206e-07
8 *375:14 *1275:A 7.63254e-07
9 *375:14 *1277:A1 1.96943e-05
10 *375:14 *1277:B 1.95129e-06
11 *375:14 *708:67 3.41815e-05
12 *357:51 *375:10 0
13 *374:10 *375:10 5.37866e-07
*RES
1 *1276:Y *375:10 41.6361 
2 *375:10 *375:14 48.7547 
3 *375:14 *1277:C 17.2 
*END

*D_NET *376 8.98733e-05
*CONN
*I *1283:B I *D AO21x1_ASAP7_75t_SL
*I *1282:A I *D NAND3x1_ASAP7_75t_SL
*I *1278:Y O *D INVx1_ASAP7_75t_SL
*CAP
1 *1283:B 1.47336e-05
2 *1282:A 1.15546e-05
3 *1278:Y 0
4 *376:6 2.62882e-05
5 *1282:A *378:14 1.2768e-05
6 *1282:A *765:12 7.72307e-07
7 *1283:B *381:8 3.56648e-06
8 *45:12 *1282:A 1.12894e-06
9 *45:12 *1283:B 1.09842e-06
10 *45:18 *1283:B 1.79628e-05
11 *287:78 *1282:A 0
12 *287:78 *1283:B 0
*RES
1 *1278:Y *376:6 34.4 
2 *376:6 *1282:A 42.6491 
3 *376:6 *1283:B 45.773 
*END

*D_NET *377 0.000571782
*CONN
*I *1280:A I *D OR3x1_ASAP7_75t_SL
*I *1394:C I *D OA211x2_ASAP7_75t_SL
*I *1279:Y O *D INVx1_ASAP7_75t_SL
*CAP
1 *1280:A 0
2 *1394:C 2.40692e-06
3 *1279:Y 1.3464e-05
4 *377:33 3.91418e-06
5 *377:25 8.27009e-05
6 *377:23 0.000110623
7 *377:10 4.77072e-05
8 *377:10 *430:18 0
9 *377:10 *479:12 2.98814e-08
10 *377:10 *820:197 5.11758e-06
11 *377:23 *430:18 0
12 *377:23 *733:10 4.03399e-07
13 *377:25 *418:18 1.10955e-07
14 *377:25 *739:20 0
15 *377:25 *846:31 0
16 *377:33 *378:8 2.90209e-08
17 *377:33 *689:100 3.46317e-06
18 *1050:A *377:23 3.08818e-06
19 *192:12 *377:10 8.02373e-06
20 *192:12 *377:23 5.42466e-05
21 *193:26 *377:25 0
22 *285:14 *377:25 0.000215162
23 *286:12 *377:25 1.56539e-05
24 *287:20 *377:23 1.49407e-08
25 *350:21 *377:10 5.62196e-06
*RES
1 *1279:Y *377:10 43.8888 
2 *377:10 *1394:C 35.4697 
3 *377:10 *377:23 42.6363 
4 *377:23 *377:25 38.0931 
5 *377:25 *377:33 36.5021 
6 *377:33 *1280:A 17.2 
*END

*D_NET *378 0.000358859
*CONN
*I *1388:A1 I *D AO21x1_ASAP7_75t_SL
*I *1282:B I *D NAND3x1_ASAP7_75t_SL
*I *1283:A1 I *D AO21x1_ASAP7_75t_SL
*I *1280:Y O *D OR3x1_ASAP7_75t_SL
*CAP
1 *1388:A1 8.47124e-06
2 *1282:B 0
3 *1283:A1 0
4 *1280:Y 2.08923e-05
5 *378:33 2.77292e-06
6 *378:22 1.5235e-05
7 *378:14 7.12637e-05
8 *378:10 9.33913e-05
9 *378:8 5.25566e-05
10 *1388:A1 *452:18 1.15587e-05
11 *378:8 *1280:C 3.49596e-06
12 *378:8 *689:100 1.01102e-06
13 *378:8 *800:48 0
14 *378:10 *452:10 1.05042e-05
15 *378:10 *452:18 1.15587e-05
16 *378:10 *765:8 9.68845e-06
17 *378:14 *765:12 0
18 *378:22 *379:20 5.97901e-06
19 *378:22 *381:14 0
20 *378:22 *752:16 0
21 *378:22 *765:12 0
22 *378:33 *379:20 0
23 *378:33 *381:14 1.20741e-05
24 *378:33 *860:55 0
25 *1282:A *378:14 1.2768e-05
26 *287:72 *378:14 1.56089e-05
27 *346:24 *1388:A1 0
28 *346:24 *378:10 0
29 *377:33 *378:8 2.90209e-08
*RES
1 *1280:Y *378:8 42.4224 
2 *378:8 *378:10 25.9056 
3 *378:10 *378:14 42.3368 
4 *378:14 *378:22 43.7188 
5 *378:22 *1283:A1 17.2 
6 *378:14 *378:33 38.3422 
7 *378:33 *1282:B 17.2 
8 *378:10 *1388:A1 40.5098 
*END

*D_NET *379 0.000204622
*CONN
*I *1283:A2 I *D AO21x1_ASAP7_75t_SL
*I *1282:C I *D NAND3x1_ASAP7_75t_SL
*I *1281:Y O *D AND3x1_ASAP7_75t_SL
*CAP
1 *1283:A2 6.48581e-06
2 *1282:C 0
3 *1281:Y 1.54316e-05
4 *379:20 8.89267e-06
5 *379:14 3.05627e-05
6 *379:10 3.06158e-05
7 *379:10 *1245:B 5.85387e-06
8 *379:10 *766:20 4.83862e-06
9 *379:10 *766:30 1.66706e-05
10 *379:14 *1296:D 1.04475e-06
11 *379:20 *752:16 0
12 *379:20 *860:55 2.19685e-06
13 *45:18 *1283:A2 1.75233e-05
14 *45:18 *379:14 5.85387e-06
15 *45:18 *379:20 1.15587e-05
16 *45:22 *379:14 1.0391e-06
17 *46:12 *379:10 0
18 *346:79 *379:10 7.80516e-06
19 *346:87 *379:10 5.41446e-06
20 *346:100 *379:10 4.65695e-07
21 *347:18 *379:10 1.49407e-08
22 *366:12 *379:10 2.63749e-05
23 *378:22 *379:20 5.97901e-06
24 *378:33 *379:20 0
*RES
1 *1281:Y *379:10 49.2937 
2 *379:10 *379:14 25.2224 
3 *379:14 *379:20 43.4107 
4 *379:20 *1282:C 17.2 
5 *379:14 *1283:A2 23.0831 
*END

*D_NET *380 7.53057e-05
*CONN
*I *1291:A2 I *D AO32x1_ASAP7_75t_SL
*I *1282:Y O *D NAND3x1_ASAP7_75t_SL
*CAP
1 *1291:A2 7.80456e-06
2 *1282:Y 1.5918e-05
3 *380:8 2.37226e-05
4 *1291:A2 *1291:A1 2.56342e-06
5 *1291:A2 *1291:B1 5.62196e-06
6 *380:8 *752:16 6.67371e-06
7 *45:12 *380:8 1.30015e-05
*RES
1 *1282:Y *380:8 48.4791 
2 *380:8 *1291:A2 39.2134 
*END

*D_NET *381 0.000107379
*CONN
*I *1291:A3 I *D AO32x1_ASAP7_75t_SL
*I *1283:Y O *D AO21x1_ASAP7_75t_SL
*CAP
1 *1291:A3 0
2 *1283:Y 5.73982e-06
3 *381:14 2.51723e-05
4 *381:8 3.09121e-05
5 *381:14 *752:16 2.9914e-05
6 *381:14 *860:55 0
7 *1283:B *381:8 3.56648e-06
8 *378:22 *381:14 0
9 *378:33 *381:14 1.20741e-05
*RES
1 *1283:Y *381:8 37.0741 
2 *381:8 *381:14 41.9226 
3 *381:14 *1291:A3 17.2 
*END

*D_NET *382 0.000187921
*CONN
*P prescale[3] I
*I *1284:A I *D BUFx2_ASAP7_75t_SL
*CAP
1 prescale[3] 2.40864e-05
2 *1284:A 0
3 *382:13 4.41441e-05
4 *382:9 6.82305e-05
5 *337:13 *382:13 0
6 *352:9 *382:9 0
7 *358:9 *382:9 5.14599e-05
8 *358:13 *382:13 0
*RES
1 prescale[3] *382:9 38.0705 
2 *382:9 *382:13 45.5457 
3 *382:13 *1284:A 17.2 
*END

*D_NET *383 0.000766365
*CONN
*I *1293:D I *D OR4x1_ASAP7_75t_SL
*I *1286:C I *D OR3x1_ASAP7_75t_SL
*I *1319:C I *D OR4x1_ASAP7_75t_SL
*I *952:C I *D OR4x1_ASAP7_75t_SL
*I *936:D I *D OR4x1_ASAP7_75t_SL
*I *1309:C I *D OR4x1_ASAP7_75t_SL
*I *1285:Y O *D OR5x1_ASAP7_75t_SL
*CAP
1 *1293:D 3.5436e-06
2 *1286:C 1.74937e-06
3 *1319:C 2.1594e-05
4 *952:C 4.31108e-06
5 *936:D 1.71402e-05
6 *1309:C 0
7 *1285:Y 0
8 *383:71 5.27554e-05
9 *383:43 4.53325e-05
10 *383:41 5.68659e-05
11 *383:37 2.88378e-05
12 *383:31 5.07665e-05
13 *383:22 7.61467e-06
14 *383:14 5.03591e-05
15 *383:6 8.25294e-05
16 *383:4 6.17427e-05
17 *936:D *384:22 2.60231e-05
18 *936:D *519:44 5.40024e-06
19 *936:D *564:8 3.1625e-06
20 *936:D *830:25 0
21 *936:D *842:12 1.52651e-06
22 *952:C *919:A 1.45556e-05
23 *952:C *519:33 4.26607e-06
24 *952:C *519:44 1.47272e-05
25 *952:C *578:6 1.36155e-06
26 *952:C *873:12 1.04611e-05
27 *1286:C *816:81 5.62196e-06
28 *1293:D *810:45 3.55279e-06
29 *1293:D *814:44 3.89037e-06
30 *1293:D *830:19 7.72297e-06
31 *1319:C *1319:A 5.77516e-06
32 *1319:C *1319:D 1.36155e-06
33 *1319:C *816:91 4.20803e-06
34 *383:6 *1272:A 3.65131e-06
35 *383:6 *649:35 1.94746e-05
36 *383:6 *833:8 7.12825e-06
37 *383:6 *839:22 1.62312e-05
38 *383:6 *839:54 1.32074e-05
39 *383:14 *405:8 1.67815e-06
40 *383:14 *729:14 1.22721e-05
41 *383:14 *810:100 3.6309e-06
42 *383:22 *1309:D 2.20493e-06
43 *383:22 *404:14 2.98961e-07
44 *383:22 *814:29 2.80839e-08
45 *383:37 *384:53 0
46 *383:37 *404:14 0
47 *383:37 *404:20 4.91861e-06
48 *383:37 *810:45 3.36331e-07
49 *383:37 *816:68 2.03535e-05
50 *383:37 *816:81 7.14604e-06
51 *383:37 *830:19 1.23312e-05
52 *383:37 *830:25 3.65431e-05
53 *383:41 *384:12 0
54 *383:41 *816:81 7.89181e-07
55 *383:43 *384:12 0
56 *383:43 *404:20 1.49407e-08
57 *383:43 *519:29 2.98814e-08
58 *383:43 *519:44 1.75741e-06
59 *383:43 *816:81 1.5963e-06
60 *383:43 *829:28 1.4864e-06
61 *383:43 *832:25 0
62 *383:71 *1848:A 4.97876e-07
*RES
1 *1285:Y *383:4 17.2 
2 *383:4 *383:6 42.2512 
3 *383:6 *383:14 45.6822 
4 *383:14 *383:22 38.4537 
5 *383:22 *1309:C 17.2 
6 *383:14 *383:31 24.7753 
7 *383:31 *383:37 41.2726 
8 *383:37 *383:41 18.7956 
9 *383:41 *383:43 16.4257 
10 *383:43 *936:D 49.5488 
11 *383:43 *952:C 40.2831 
12 *383:41 *383:71 43.931 
13 *383:71 *1319:C 47.7706 
14 *383:37 *1286:C 18.8045 
15 *383:31 *1293:D 38.5671 
*END

*D_NET *384 0.00085304
*CONN
*I *1328:A1 I *D OAI21x1_ASAP7_75t_SL
*I *1287:B I *D XOR2x2_ASAP7_75t_SL
*I *947:B I *D OR3x1_ASAP7_75t_SL
*I *1672:A I *D BUFx3_ASAP7_75t_SL
*I *931:A2 I *D OA21x2_ASAP7_75t_SL
*I *1286:Y O *D OR3x1_ASAP7_75t_SL
*CAP
1 *1328:A1 0
2 *1287:B 2.81977e-06
3 *947:B 0
4 *1672:A 2.29026e-06
5 *931:A2 1.7774e-05
6 *1286:Y 1.01561e-05
7 *384:74 8.47938e-07
8 *384:68 5.48538e-05
9 *384:53 0.000108179
10 *384:51 5.13529e-05
11 *384:22 3.91545e-05
12 *384:18 4.93983e-05
13 *384:12 4.87042e-05
14 *384:6 2.85523e-05
15 *931:A2 *522:14 2.90209e-08
16 *931:A2 *522:20 5.31897e-06
17 *931:A2 *832:31 2.46694e-05
18 *931:A2 *841:12 2.73322e-06
19 *931:A2 *872:56 0
20 *931:A2 *872:100 1.35684e-06
21 *1672:A *522:20 5.0551e-07
22 *384:12 *404:20 1.30731e-05
23 *384:12 *830:25 3.41808e-05
24 *384:18 *413:34 1.14503e-05
25 *384:18 *519:29 8.27998e-06
26 *384:18 *830:25 4.05395e-05
27 *384:22 *519:44 3.59465e-05
28 *384:22 *832:31 5.67747e-07
29 *384:22 *841:12 4.7341e-06
30 *384:22 *843:18 0
31 *384:22 *872:56 0
32 *384:53 *391:8 5.25035e-05
33 *384:53 *391:31 1.12121e-05
34 *384:53 *810:39 0
35 *384:53 *810:45 7.75e-06
36 *384:53 *810:56 0
37 *384:53 *829:28 0
38 *384:53 *830:25 1.89747e-06
39 *384:53 *832:12 1.68513e-05
40 *384:68 *391:31 3.01401e-05
41 *384:74 *421:10 7.84772e-07
42 *936:D *384:22 2.60231e-05
43 *282:40 *384:68 7.63088e-05
44 *335:12 *1287:B 5.0551e-07
45 *338:29 *384:68 0
46 *342:16 *384:6 1.38527e-05
47 *342:20 *384:6 5.19475e-06
48 *342:20 *384:12 1.25483e-05
49 *383:37 *384:53 0
50 *383:41 *384:12 0
51 *383:43 *384:12 0
*RES
1 *1286:Y *384:6 23.0831 
2 *384:6 *384:12 33.3334 
3 *384:12 *384:18 38.2319 
4 *384:18 *384:22 35.7845 
5 *384:22 *931:A2 48.982 
6 *384:22 *1672:A 36.0045 
7 *384:12 *947:B 34.4 
8 *384:6 *384:51 17.2 
9 *384:51 *384:53 46.7428 
10 *384:53 *1287:B 36.0045 
11 *384:53 *384:68 45.2075 
12 *384:68 *384:74 35.057 
13 *384:74 *1328:A1 17.2 
*END

*D_NET *385 0.000247482
*CONN
*I *1292:B I *D NOR2x1_ASAP7_75t_SL
*I *1288:B1 I *D OAI22x1_ASAP7_75t_SL
*I *1287:Y O *D XOR2x2_ASAP7_75t_SL
*CAP
1 *1292:B 1.45326e-05
2 *1288:B1 6.00983e-06
3 *1287:Y 0
4 *385:8 4.82962e-05
5 *385:6 2.77538e-05
6 *1292:B *389:10 7.63254e-07
7 *1292:B *863:31 3.48165e-06
8 *385:8 *1288:B2 4.97654e-06
9 *385:8 *406:25 1.63733e-06
10 *385:8 *709:18 2.68586e-05
11 *385:8 *718:20 5.37866e-07
12 *385:8 *718:33 1.19526e-06
13 *1295:B *385:8 5.90849e-06
14 *282:55 *1292:B 2.63359e-05
15 *282:55 *385:8 7.53952e-05
16 *335:18 *385:8 3.79923e-06
*RES
1 *1287:Y *385:6 34.4 
2 *385:6 *385:8 32.1005 
3 *385:8 *1288:B1 37.0741 
4 *385:8 *1292:B 46.0848 
*END

*D_NET *386 0.000351506
*CONN
*I *1291:B1 I *D AO32x1_ASAP7_75t_SL
*I *1288:Y O *D OAI22x1_ASAP7_75t_SL
*CAP
1 *1291:B1 1.28791e-06
2 *1288:Y 2.42323e-05
3 *386:10 8.19934e-05
4 *386:8 8.07054e-05
5 *386:6 2.42323e-05
6 *1291:B1 *1291:A1 6.02341e-06
7 *386:6 *863:14 3.5543e-05
8 *386:10 *1317:A2 7.48137e-06
9 *386:10 *402:28 0
10 *386:10 *412:8 0
11 *386:10 *752:16 6.9735e-05
12 *386:10 *859:26 0
13 *386:10 *865:39 3.73317e-06
14 *386:10 *867:20 4.40246e-06
15 *1291:A2 *1291:B1 5.62196e-06
16 *189:10 *386:10 6.51415e-06
*RES
1 *1288:Y *386:6 42.3368 
2 *386:6 *386:8 17.2 
3 *386:8 *386:10 69.2694 
4 *386:10 *1291:B1 36.0045 
*END

*D_NET *387 9.42855e-05
*CONN
*I *1353:B1 I *D OA22x2_ASAP7_75t_SL
*I *1290:B I *D NOR2x1_ASAP7_75t_SL
*I *1289:Y O *D OR4x1_ASAP7_75t_SL
*CAP
1 *1353:B1 3.3381e-06
2 *1290:B 0
3 *1289:Y 2.57088e-05
4 *387:10 2.90469e-05
5 *1353:B1 *462:10 2.50902e-06
6 *1353:B1 *756:10 5.64678e-06
7 *387:10 *388:8 9.49598e-06
8 *387:10 *388:12 2.52588e-06
9 *387:10 *462:10 3.95057e-06
10 *387:10 *738:18 3.91501e-06
11 *387:10 *756:10 5.94816e-06
12 *387:10 *825:45 2.20028e-06
*RES
1 *1289:Y *387:10 49.237 
2 *387:10 *1290:B 34.4 
3 *387:10 *1353:B1 38.9053 
*END

*D_NET *388 0.000637542
*CONN
*I *1385:B1 I *D AO22x1_ASAP7_75t_SL
*I *1392:B1 I *D AO22x1_ASAP7_75t_SL
*I *1291:B2 I *D AO32x1_ASAP7_75t_SL
*I *1290:Y O *D NOR2x1_ASAP7_75t_SL
*CAP
1 *1385:B1 0
2 *1392:B1 3.3397e-06
3 *1291:B2 0
4 *1290:Y 6.11158e-06
5 *388:62 9.51557e-06
6 *388:54 2.83192e-05
7 *388:37 4.20408e-05
8 *388:28 3.23511e-05
9 *388:24 5.77907e-05
10 *388:16 5.87968e-05
11 *388:12 7.0167e-05
12 *388:8 6.28189e-05
13 *1392:B1 *1392:A2 1.16945e-06
14 *388:8 *462:10 2.59962e-07
15 *388:8 *756:10 1.55472e-05
16 *388:12 *420:10 6.7842e-07
17 *388:16 *1326:B 1.49407e-08
18 *388:16 *398:10 1.49407e-08
19 *388:16 *477:10 3.54789e-06
20 *388:24 *819:60 6.30411e-06
21 *388:28 *1291:A1 9.25246e-05
22 *388:37 *1392:B2 1.56402e-06
23 *388:37 *477:10 7.02841e-06
24 *388:37 *819:54 1.31322e-05
25 *388:54 *471:16 4.78453e-06
26 *388:54 *819:54 1.50912e-05
27 *388:62 *466:18 5.49212e-07
28 *388:62 *471:16 1.63973e-05
29 *388:62 *860:32 2.31101e-05
30 *1504:D *388:54 0
31 *1859:A *388:12 3.56648e-06
32 *185:36 *388:24 1.10955e-06
33 *287:60 *388:37 3.05118e-08
34 *287:60 *388:54 3.88115e-06
35 *287:68 *388:24 0
36 *346:28 *388:24 9.34542e-06
37 *346:32 *388:24 7.73676e-06
38 *346:49 *388:24 9.12866e-06
39 *346:51 *388:16 1.77514e-05
40 *387:10 *388:8 9.49598e-06
41 *387:10 *388:12 2.52588e-06
*RES
1 *1290:Y *388:8 40.0317 
2 *388:8 *388:12 45.5457 
3 *388:12 *388:16 26.68 
4 *388:16 *388:24 45.9098 
5 *388:24 *388:28 40.7323 
6 *388:28 *1291:B2 17.2 
7 *388:16 *388:37 31.9362 
8 *388:37 *1392:B1 18.8045 
9 *388:37 *388:54 45.8864 
10 *388:54 *388:62 43.8888 
11 *388:62 *1385:B1 17.2 
*END

*D_NET *389 9.62853e-05
*CONN
*I *1300:A1 I *D OA211x2_ASAP7_75t_SL
*I *1292:Y O *D NOR2x1_ASAP7_75t_SL
*CAP
1 *1300:A1 0
2 *1292:Y 1.2375e-05
3 *389:18 1.5645e-05
4 *389:10 2.802e-05
5 *389:10 *392:10 8.51183e-06
6 *389:10 *863:31 5.0551e-07
7 *389:10 *865:53 1.10561e-06
8 *389:18 *392:16 5.25794e-06
9 *389:18 *859:57 1.12894e-06
10 *389:18 *865:53 1.31643e-05
11 *1292:B *389:10 7.63254e-07
12 *282:55 *389:10 9.8079e-06
*RES
1 *1292:Y *389:10 45.0151 
2 *389:10 *389:18 44.9018 
3 *389:18 *1300:A1 34.4 
*END

*D_NET *390 5.3688e-05
*CONN
*I *1294:B I *D XNOR2x2_ASAP7_75t_SL
*I *1293:Y O *D OR4x1_ASAP7_75t_SL
*CAP
1 *1294:B 0
2 *1293:Y 1.09458e-05
3 *390:10 1.09458e-05
4 *390:10 *810:45 1.34329e-05
5 *390:10 *814:44 1.29877e-05
6 *390:10 *830:19 5.37569e-06
*RES
1 *1293:Y *390:10 42.6491 
2 *390:10 *1294:B 34.4 
*END

*D_NET *391 0.000347552
*CONN
*I *1295:A2 I *D AO21x1_ASAP7_75t_SL
*I *1311:A2 I *D AO221x1_ASAP7_75t_SL
*I *1294:Y O *D XNOR2x2_ASAP7_75t_SL
*CAP
1 *1295:A2 0
2 *1311:A2 0
3 *1294:Y 0
4 *391:31 2.32082e-05
5 *391:20 9.91048e-06
6 *391:12 5.0172e-05
7 *391:8 7.15783e-05
8 *391:6 8.10858e-06
9 *391:8 *832:12 9.8079e-06
10 *391:8 *832:62 4.24343e-05
11 *391:12 *1686:A 1.04405e-05
12 *391:20 *415:8 1.49407e-08
13 *391:20 *693:36 2.52755e-07
14 *391:20 *693:44 3.05118e-08
15 *391:20 *718:14 1.49407e-08
16 *391:31 *406:25 0
17 *391:31 *718:20 8.8135e-06
18 *391:31 *718:33 4.11175e-06
19 *391:31 *832:62 1.308e-05
20 *1396:A2 *391:20 1.45047e-06
21 *335:24 *391:31 2.66797e-07
22 *384:53 *391:8 5.25035e-05
23 *384:53 *391:31 1.12121e-05
24 *384:68 *391:31 3.01401e-05
*RES
1 *1294:Y *391:6 34.4 
2 *391:6 *391:8 17.4581 
3 *391:8 *391:12 34.8492 
4 *391:12 *391:20 39.975 
5 *391:20 *1311:A2 17.2 
6 *391:8 *391:31 39.4149 
7 *391:31 *1295:A2 17.2 
*END

*D_NET *392 0.000217784
*CONN
*I *1300:A2 I *D OA211x2_ASAP7_75t_SL
*I *1295:Y O *D AO21x1_ASAP7_75t_SL
*CAP
1 *1300:A2 8.45552e-06
2 *1295:Y 3.56282e-06
3 *392:16 2.10317e-05
4 *392:10 5.73979e-05
5 *392:8 4.83845e-05
6 *1300:A2 *865:53 8.21855e-06
7 *392:8 *406:25 2.12481e-06
8 *392:10 *1321:C 0
9 *392:10 *403:26 2.69203e-06
10 *392:10 *415:37 9.67723e-06
11 *392:10 *415:43 3.32524e-06
12 *392:10 *416:8 0
13 *392:10 *847:8 0
14 *392:10 *847:14 0
15 *392:10 *859:36 0
16 *392:10 *863:18 2.74606e-06
17 *392:10 *863:31 1.64764e-06
18 *392:16 *865:53 3.73144e-06
19 *282:55 *392:10 1.49813e-05
20 *282:59 *392:16 2.61188e-06
21 *371:26 *392:10 1.34257e-05
22 *389:10 *392:10 8.51183e-06
23 *389:18 *392:16 5.25794e-06
*RES
1 *1295:Y *392:8 36.0045 
2 *392:8 *392:10 40.548 
3 *392:10 *392:16 43.492 
4 *392:16 *1300:A2 41.158 
*END

*D_NET *393 0.00028281
*CONN
*I *1298:A2 I *D AOI21x1_ASAP7_75t_SL
*I *1297:B I *D OA21x2_ASAP7_75t_SL
*I *1296:Y O *D AND5x1_ASAP7_75t_SL
*CAP
1 *1298:A2 0
2 *1297:B 1.38387e-05
3 *1296:Y 1.43817e-05
4 *393:10 5.01953e-05
5 *393:8 5.07384e-05
6 *1297:B *1297:A2 8.89053e-06
7 *1297:B *1298:A1 4.89331e-06
8 *1297:B *752:20 1.36155e-06
9 *393:8 *1296:D 1.26378e-06
10 *393:8 *764:36 1.36155e-06
11 *393:10 *764:8 7.42614e-06
12 *393:10 *766:68 8.33296e-06
13 *44:8 *1297:B 3.24214e-06
14 *44:8 *393:10 2.68933e-07
15 *44:23 *393:10 2.13401e-05
16 *45:30 *393:10 1.21263e-05
17 *46:12 *393:10 8.00974e-05
18 *187:27 *393:10 0
19 *188:8 *393:10 3.05074e-06
*RES
1 *1296:Y *393:8 40.2831 
2 *393:8 *393:10 45.0533 
3 *393:10 *1297:B 46.6196 
4 *393:10 *1298:A2 34.4 
*END

*D_NET *394 4.78504e-05
*CONN
*I *1299:A2 I *D AO21x1_ASAP7_75t_SL
*I *1297:Y O *D OA21x2_ASAP7_75t_SL
*CAP
1 *1299:A2 1.1205e-05
2 *1297:Y 7.62889e-06
3 *394:8 1.88339e-05
4 *1299:A2 *1299:B 7.14604e-06
5 *394:8 *395:8 3.03654e-06
*RES
1 *1297:Y *394:8 40.0317 
2 *394:8 *1299:A2 41.3527 
*END

*D_NET *395 6.21132e-05
*CONN
*I *1299:B I *D AO21x1_ASAP7_75t_SL
*I *1298:Y O *D AOI21x1_ASAP7_75t_SL
*CAP
1 *1299:B 2.45578e-06
2 *1298:Y 1.93141e-05
3 *395:8 2.17699e-05
4 *395:8 *1297:A2 4.43244e-06
5 *395:8 *1298:A1 3.95845e-06
6 *395:8 *885:18 0
7 *1299:A2 *1299:B 7.14604e-06
8 *44:8 *395:8 0
9 *394:8 *395:8 3.03654e-06
*RES
1 *1298:Y *395:8 49.6055 
2 *395:8 *1299:B 36.5393 
*END

*D_NET *396 9.30292e-05
*CONN
*I *1300:C I *D OA211x2_ASAP7_75t_SL
*I *1299:Y O *D AO21x1_ASAP7_75t_SL
*CAP
1 *1300:C 1.42055e-05
2 *1299:Y 9.44104e-06
3 *396:8 2.36466e-05
4 *1300:C *859:49 4.04733e-05
5 *1300:C *865:43 2.97289e-06
6 *125:10 *1300:C 2.28976e-06
*RES
1 *1299:Y *396:8 40.0317 
2 *396:8 *1300:C 48.8403 
*END

*D_NET *397 1.03513e-05
*CONN
*I *1306:A1 I *D AO21x1_ASAP7_75t_SL
*I *1301:Y O *D INVx1_ASAP7_75t_SL
*CAP
1 *1306:A1 4.03079e-06
2 *1301:Y 4.03079e-06
3 *1306:A1 *802:14 2.28976e-06
*RES
1 *1301:Y *1306:A1 37.0741 
*END

*D_NET *398 0.000380331
*CONN
*I *1348:C I *D OR3x1_ASAP7_75t_SL
*I *1303:C I *D OR3x1_ASAP7_75t_SL
*I *1323:B I *D AND2x2_ASAP7_75t_SL
*I *1326:B I *D OR3x1_ASAP7_75t_SL
*I *1302:Y O *D NAND2x1_ASAP7_75t_SL
*CAP
1 *1348:C 2.2288e-06
2 *1303:C 1.35364e-06
3 *1323:B 3.18186e-06
4 *1326:B 1.48981e-05
5 *1302:Y 6.38689e-06
6 *398:59 3.37209e-05
7 *398:46 2.05027e-05
8 *398:31 3.10029e-05
9 *398:25 5.84625e-05
10 *398:10 3.95835e-05
11 *1303:C *1303:B 1.35684e-06
12 *1303:C *409:6 3.90258e-06
13 *1326:B *1326:C 6.01313e-06
14 *398:31 *471:16 3.35946e-05
15 *398:31 *477:10 3.3856e-05
16 *398:46 *471:16 9.08735e-06
17 *398:46 *738:22 5.22376e-07
18 *398:46 *802:25 7.7624e-06
19 *398:59 *1348:A 1.1699e-06
20 *398:59 *438:12 3.22378e-06
21 *398:59 *692:18 8.21944e-06
22 *398:59 *692:27 8.68362e-06
23 *1302:B *398:10 6.36827e-06
24 *1302:B *398:25 5.65425e-06
25 *1302:B *398:59 6.7842e-07
26 *287:38 *398:46 6.34404e-06
27 *287:49 *398:46 2.58742e-05
28 *287:49 *398:59 6.47843e-06
29 *346:40 *398:10 1.89667e-07
30 *388:16 *1326:B 1.49407e-08
31 *388:16 *398:10 1.49407e-08
*RES
1 *1302:Y *398:10 39.8333 
2 *398:10 *1326:B 42.7625 
3 *398:10 *398:25 25.2224 
4 *398:25 *398:31 46.2265 
5 *398:31 *1323:B 18.2696 
6 *398:31 *398:46 49.4071 
7 *398:46 *1303:C 18.2696 
8 *398:25 *398:59 34.5695 
9 *398:59 *1348:C 35.4697 
*END

*D_NET *399 0.000156473
*CONN
*I *1306:A2 I *D AO21x1_ASAP7_75t_SL
*I *1303:Y O *D OR3x1_ASAP7_75t_SL
*CAP
1 *1306:A2 0
2 *1303:Y 0
3 *399:12 3.18306e-05
4 *399:6 3.18306e-05
5 *399:12 *402:10 1.40419e-08
6 *399:12 *417:8 1.6093e-05
7 *399:12 *471:8 1.30736e-05
8 *399:12 *723:44 1.13003e-05
9 *399:12 *800:26 3.59323e-06
10 *399:12 *802:14 2.49083e-06
11 *287:38 *399:12 4.62468e-05
*RES
1 *1303:Y *399:6 34.4 
2 *399:6 *399:12 49.2438 
3 *399:12 *1306:A2 17.2 
*END

*D_NET *400 0.000110744
*CONN
*I *1305:E I *D AND5x1_ASAP7_75t_SL
*I *1304:Y O *D AO31x2_ASAP7_75t_SL
*CAP
1 *1305:E 5.0198e-06
2 *1304:Y 2.91235e-05
3 *400:10 3.41433e-05
4 *1305:E *1305:C 1.17077e-05
5 *400:10 *1394:A2 2.12481e-06
6 *400:10 *478:10 1.96448e-05
7 *400:10 *689:64 4.10345e-06
8 *1056:A *400:10 0
9 *287:89 *400:10 4.87677e-06
*RES
1 *1304:Y *400:10 49.1804 
2 *400:10 *1305:E 37.609 
*END

*D_NET *401 0.00035632
*CONN
*I *1306:B I *D AO21x1_ASAP7_75t_SL
*I *1305:Y O *D AND5x1_ASAP7_75t_SL
*CAP
1 *1306:B 1.28721e-05
2 *1305:Y 4.57033e-05
3 *401:10 5.1929e-05
4 *401:8 3.90569e-05
5 *401:6 4.57033e-05
6 *1306:B *402:10 4.57952e-06
7 *1306:B *723:42 9.40277e-06
8 *401:6 *1305:A 1.45275e-05
9 *401:6 *1305:C 2.2732e-05
10 *401:6 *731:36 5.0551e-07
11 *401:10 *1768:A 4.40233e-05
12 *401:10 *462:10 3.97893e-05
13 *401:10 *723:44 0
14 *401:10 *732:8 3.05118e-08
15 *401:10 *782:10 1.94861e-05
16 *401:10 *856:27 5.97901e-06
*RES
1 *1305:Y *401:6 36.9885 
2 *401:6 *401:8 17.2 
3 *401:8 *401:10 37.7321 
4 *401:10 *1306:B 45.6313 
*END

*D_NET *402 0.000374852
*CONN
*I *1312:B I *D AND3x1_ASAP7_75t_SL
*I *1306:Y O *D AO21x1_ASAP7_75t_SL
*CAP
1 *1312:B 4.95381e-05
2 *1306:Y 1.55698e-05
3 *402:28 5.31175e-05
4 *402:22 1.98876e-05
5 *402:14 0.000102852
6 *402:12 8.65439e-05
7 *402:10 1.55698e-05
8 *1312:B *1312:C 1.35684e-06
9 *402:10 *471:8 4.10928e-06
10 *402:14 *863:14 0
11 *402:22 *423:8 3.79923e-06
12 *402:28 *412:8 1.15587e-05
13 *1057:A *402:22 2.66797e-07
14 *1306:B *402:10 4.57952e-06
15 *42:10 *402:22 3.79923e-06
16 *126:10 *1312:B 2.28976e-06
17 *386:10 *402:28 0
18 *399:12 *402:10 1.40419e-08
*RES
1 *1306:Y *402:10 43.1272 
2 *402:10 *402:12 17.2 
3 *402:12 *402:14 35.8333 
4 *402:14 *402:22 42.5924 
5 *402:22 *402:28 38.3422 
6 *402:28 *1312:B 46.6154 
*END

*D_NET *403 0.000656958
*CONN
*I *1391:B2 I *D AO32x1_ASAP7_75t_SL
*I *1384:B2 I *D AO32x1_ASAP7_75t_SL
*I *1329:A1 I *D AO211x2_ASAP7_75t_SL
*I *1311:A1 I *D AO221x1_ASAP7_75t_SL
*I *1321:A1 I *D AO221x1_ASAP7_75t_SL
*I *1307:Y O *D AND2x4_ASAP7_75t_SL
*CAP
1 *1391:B2 8.36115e-06
2 *1384:B2 9.39376e-06
3 *1329:A1 0
4 *1311:A1 0
5 *1321:A1 0
6 *1307:Y 0
7 *403:51 6.07676e-05
8 *403:37 1.64301e-05
9 *403:26 1.29351e-05
10 *403:16 7.18836e-05
11 *403:14 8.39848e-05
12 *403:8 0.000107283
13 *403:4 0.00010883
14 *1384:B2 *1384:B1 6.92634e-06
15 *1384:B2 *719:6 7.35354e-06
16 *1384:B2 *863:10 6.48289e-06
17 *1391:B2 *1395:C 7.35354e-06
18 *1391:B2 *863:10 3.2819e-06
19 *403:8 *844:156 1.5236e-05
20 *403:14 *415:18 0
21 *403:14 *423:8 0
22 *403:14 *481:14 0
23 *403:14 *717:30 4.17777e-05
24 *403:14 *793:14 0
25 *403:14 *844:150 3.29527e-06
26 *403:16 *406:25 1.35684e-06
27 *403:16 *415:29 1.78333e-06
28 *403:16 *717:30 1.90474e-05
29 *403:26 *1321:C 3.89037e-06
30 *403:26 *406:25 3.73144e-06
31 *403:26 *406:33 1.67815e-06
32 *403:26 *415:37 9.8079e-06
33 *403:37 *406:25 0
34 *403:37 *406:33 7.63095e-06
35 *403:37 *415:29 0
36 *403:37 *415:37 6.10236e-07
37 *403:37 *693:36 3.05118e-08
38 *403:37 *693:44 8.58704e-06
39 *403:51 *1395:C 8.57464e-06
40 *403:51 *468:29 5.62196e-06
41 *403:51 *476:22 4.07052e-06
42 *403:51 *477:8 0
43 *1307:B *403:8 2.71839e-06
44 *1:63 *403:14 0
45 *266:28 *403:14 3.55046e-06
46 *335:24 *403:16 0
47 *392:10 *403:26 2.69203e-06
*RES
1 *1307:Y *403:4 17.2 
2 *403:4 *403:8 47.685 
3 *403:8 *403:14 45.2129 
4 *403:14 *403:16 19.7885 
5 *403:16 *403:26 43.7754 
6 *403:26 *1321:A1 17.2 
7 *403:16 *403:37 45.6633 
8 *403:37 *1311:A1 17.2 
9 *403:14 *1329:A1 17.2 
10 *403:4 *403:51 35.9189 
11 *403:51 *1384:B2 42.171 
12 *403:51 *1391:B2 40.4815 
*END

*D_NET *404 0.000273886
*CONN
*I *1309:D I *D OR4x1_ASAP7_75t_SL
*I *947:C I *D OR3x1_ASAP7_75t_SL
*I *1308:Y O *D OR2x2_ASAP7_75t_SL
*CAP
1 *1309:D 1.239e-06
2 *947:C 2.39282e-06
3 *1308:Y 2.68495e-05
4 *404:20 3.60684e-05
5 *404:14 6.26355e-05
6 *404:10 3.82467e-05
7 *404:8 3.48972e-05
8 *1309:D *814:29 2.20493e-06
9 *404:8 *1798:A 5.60174e-06
10 *404:8 *829:22 7.31327e-06
11 *404:8 *830:6 5.41446e-06
12 *404:10 *729:27 6.33206e-07
13 *404:10 *814:19 1.12894e-06
14 *404:10 *814:29 1.12894e-06
15 *404:14 *405:8 2.83874e-07
16 *404:14 *729:14 0
17 *404:14 *729:27 6.8757e-06
18 *404:14 *810:100 0
19 *404:14 *816:68 1.20741e-05
20 *404:14 *830:25 0
21 *404:20 *816:68 8.38704e-06
22 *1697:A *404:14 0
23 *342:26 *404:14 0
24 *343:14 *404:10 0
25 *383:22 *1309:D 2.20493e-06
26 *383:22 *404:14 2.98961e-07
27 *383:37 *404:14 0
28 *383:37 *404:20 4.91861e-06
29 *383:43 *404:20 1.49407e-08
30 *384:12 *404:20 1.30731e-05
*RES
1 *1308:Y *404:8 47.7706 
2 *404:8 *404:10 5.63166 
3 *404:10 *404:14 38.0371 
4 *404:14 *404:20 35.076 
5 *404:20 *947:C 35.4697 
6 *404:10 *1309:D 36.0045 
*END

*D_NET *405 0.000191434
*CONN
*I *1310:B I *D XNOR2x2_ASAP7_75t_SL
*I *1309:Y O *D OR4x1_ASAP7_75t_SL
*CAP
1 *1310:B 0
2 *1309:Y 7.67322e-06
3 *405:18 1.88855e-05
4 *405:12 7.40517e-05
5 *405:8 6.28394e-05
6 *405:8 *729:14 3.95845e-06
7 *405:12 *729:14 3.65131e-06
8 *405:12 *729:27 5.94108e-06
9 *405:12 *830:23 3.56177e-06
10 *405:18 *415:8 0
11 *405:18 *653:18 4.45472e-06
12 *405:18 *653:20 4.45472e-06
13 *383:14 *405:8 1.67815e-06
14 *404:14 *405:8 2.83874e-07
*RES
1 *1309:Y *405:8 40.0317 
2 *405:8 *405:12 49.8243 
3 *405:12 *405:18 49.6055 
4 *405:18 *1310:B 17.2 
*END

*D_NET *406 0.000234578
*CONN
*I *1321:A2 I *D AO221x1_ASAP7_75t_SL
*I *1311:B1 I *D AO221x1_ASAP7_75t_SL
*I *1310:Y O *D XNOR2x2_ASAP7_75t_SL
*CAP
1 *1321:A2 0
2 *1311:B1 2.07914e-06
3 *1310:Y 1.58968e-05
4 *406:33 1.08124e-05
5 *406:25 3.52805e-05
6 *406:10 5.43395e-05
7 *406:8 4.36891e-05
8 *1311:B1 *718:20 1.36155e-06
9 *406:10 *653:18 2.72506e-05
10 *406:10 *718:14 5.83373e-06
11 *406:10 *832:62 0
12 *406:25 *415:29 6.53938e-06
13 *406:25 *415:37 2.02379e-06
14 *406:25 *693:44 8.2174e-07
15 *406:25 *718:14 1.15945e-06
16 *406:25 *718:20 0
17 *406:33 *1321:C 2.20493e-06
18 *406:33 *693:36 6.05245e-06
19 *335:24 *406:25 1.07377e-06
20 *385:8 *406:25 1.63733e-06
21 *391:31 *406:25 0
22 *392:8 *406:25 2.12481e-06
23 *403:16 *406:25 1.35684e-06
24 *403:26 *406:25 3.73144e-06
25 *403:26 *406:33 1.67815e-06
26 *403:37 *406:25 0
27 *403:37 *406:33 7.63095e-06
*RES
1 *1310:Y *406:8 43.492 
2 *406:8 *406:10 23.653 
3 *406:10 *1311:B1 35.4697 
4 *406:10 *406:25 35.416 
5 *406:25 *406:33 42.7625 
6 *406:33 *1321:A2 17.2 
*END

*D_NET *407 0.000155239
*CONN
*I *1312:C I *D AND3x1_ASAP7_75t_SL
*I *1311:Y O *D AO221x1_ASAP7_75t_SL
*CAP
1 *1312:C 2.10642e-06
2 *1311:Y 3.35735e-06
3 *407:10 5.2002e-05
4 *407:8 5.3253e-05
5 *407:10 *1321:C 0
6 *407:10 *415:29 5.36731e-06
7 *407:10 *416:8 5.36731e-06
8 *407:10 *421:10 6.4936e-06
9 *407:10 *693:36 0
10 *407:10 *709:12 7.57697e-06
11 *407:10 *847:14 0
12 *407:10 *859:113 1.36943e-05
13 *1312:B *1312:C 1.35684e-06
14 *1396:A2 *407:8 7.58265e-07
15 *127:10 *407:10 3.90551e-06
*RES
1 *1311:Y *407:8 36.0045 
2 *407:8 *407:10 38.2953 
3 *407:10 *1312:C 35.4697 
*END

*D_NET *408 0.0002814
*CONN
*I *1317:A1 I *D OA21x2_ASAP7_75t_SL
*I *1313:Y O *D INVx1_ASAP7_75t_SL
*CAP
1 *1317:A1 0
2 *1313:Y 3.30578e-05
3 *408:22 4.80673e-05
4 *408:18 7.15413e-05
5 *408:8 5.65318e-05
6 *408:8 *1325:A1 3.01677e-05
7 *408:8 *1325:A2 2.29971e-06
8 *408:8 *801:12 0
9 *408:18 *1316:A 2.20493e-06
10 *408:18 *418:26 0
11 *408:18 *419:8 2.0613e-06
12 *408:18 *689:21 8.53502e-07
13 *408:18 *739:30 1.56258e-06
14 *408:18 *800:40 1.75616e-05
15 *408:18 *801:12 1.07377e-06
16 *408:18 *859:18 1.56258e-06
17 *408:22 *1316:A 2.52755e-07
18 *408:22 *1316:C 5.22376e-07
19 *408:22 *1317:A2 3.68287e-06
20 *408:22 *1317:B 8.39579e-06
*RES
1 *1313:Y *408:8 47.7706 
2 *408:8 *408:18 49.1237 
3 *408:18 *408:22 37.5233 
4 *408:22 *1317:A1 17.2 
*END

*D_NET *409 0.000366372
*CONN
*I *1315:A2 I *D AOI211x1_ASAP7_75t_SL
*I *1316:D I *D OR4x1_ASAP7_75t_SL
*I *1314:Y O *D NAND2x1_ASAP7_75t_SL
*CAP
1 *1315:A2 1.52235e-05
2 *1316:D 3.88671e-06
3 *1314:Y 2.88324e-05
4 *409:16 7.83442e-05
5 *409:12 6.51846e-05
6 *409:6 3.4783e-05
7 *1315:A2 *410:8 4.57952e-06
8 *1315:A2 *689:21 3.47607e-06
9 *1315:A2 *689:85 1.26641e-06
10 *1315:A2 *880:33 2.20493e-06
11 *1316:D *689:21 4.72861e-06
12 *409:6 *1305:A 2.66207e-05
13 *409:6 *739:59 4.07523e-06
14 *409:6 *802:25 1.3659e-05
15 *409:6 *802:33 9.52454e-06
16 *409:12 *418:18 6.77442e-07
17 *409:12 *418:26 0
18 *409:12 *739:59 5.35384e-06
19 *409:16 *418:26 1.02586e-05
20 *409:16 *689:25 6.53466e-06
21 *409:16 *739:59 2.4974e-06
22 *409:16 *859:12 2.93585e-06
23 *409:16 *859:18 7.72307e-07
24 *1303:C *409:6 3.90258e-06
25 *193:18 *1315:A2 1.01999e-05
26 *193:18 *1316:D 1.30863e-05
27 *346:51 *409:12 1.37633e-05
*RES
1 *1314:Y *409:6 35.9189 
2 *409:6 *409:12 39.4685 
3 *409:12 *409:16 42.3368 
4 *409:16 *1316:D 38.9053 
5 *409:16 *1315:A2 46.8994 
*END

*D_NET *410 8.92426e-05
*CONN
*I *1317:A2 I *D OA21x2_ASAP7_75t_SL
*I *1315:Y O *D AOI211x1_ASAP7_75t_SL
*CAP
1 *1317:A2 8.41169e-06
2 *1315:Y 1.33567e-05
3 *410:8 2.17684e-05
4 *1315:A2 *410:8 4.57952e-06
5 *189:10 *1317:A2 2.99621e-05
6 *386:10 *1317:A2 7.48137e-06
7 *408:22 *1317:A2 3.68287e-06
*RES
1 *1315:Y *410:8 40.2831 
2 *410:8 *1317:A2 45.6066 
*END

*D_NET *411 2.16832e-05
*CONN
*I *1317:B I *D OA21x2_ASAP7_75t_SL
*I *1316:Y O *D OR4x1_ASAP7_75t_SL
*CAP
1 *1317:B 6.64371e-06
2 *1316:Y 6.64371e-06
3 *408:22 *1317:B 8.39579e-06
*RES
1 *1316:Y *1317:B 40.2831 
*END

*D_NET *412 0.000273891
*CONN
*I *1322:B I *D AND3x1_ASAP7_75t_SL
*I *1317:Y O *D OA21x2_ASAP7_75t_SL
*CAP
1 *1322:B 0
2 *1317:Y 0
3 *412:12 3.93158e-05
4 *412:8 9.13492e-05
5 *412:6 5.20335e-05
6 *412:8 *423:8 0
7 *412:12 *1322:C 7.35354e-06
8 *412:12 *709:6 2.35069e-05
9 *412:12 *709:18 3.56648e-06
10 *1824:A *412:8 1.51765e-05
11 *42:10 *412:8 2.33715e-05
12 *127:10 *412:12 2.12481e-06
13 *189:10 *412:8 1.22514e-06
14 *189:27 *412:8 3.3563e-07
15 *193:18 *412:8 2.9732e-06
16 *386:10 *412:8 0
17 *402:28 *412:8 1.15587e-05
*RES
1 *1317:Y *412:6 34.4 
2 *412:6 *412:8 40.548 
3 *412:8 *412:12 47.685 
4 *412:12 *1322:B 17.2 
*END

*D_NET *413 0.000787743
*CONN
*I *952:D I *D OR4x1_ASAP7_75t_SL
*I *1327:D I *D OR4x1_ASAP7_75t_SL
*I *1319:D I *D OR4x1_ASAP7_75t_SL
*I *1318:Y O *D OR3x1_ASAP7_75t_SL
*CAP
1 *952:D 1.35364e-06
2 *1327:D 0
3 *1319:D 1.32641e-06
4 *1318:Y 1.70857e-05
5 *413:57 7.01122e-06
6 *413:51 4.33499e-05
7 *413:36 7.18212e-05
8 *413:34 7.98496e-05
9 *413:30 5.1451e-05
10 *413:26 9.44624e-06
11 *413:22 7.89295e-05
12 *413:18 0.000115663
13 *413:16 4.46929e-05
14 *413:10 2.271e-05
15 *952:D *919:A 1.35684e-06
16 *952:D *578:6 3.90258e-06
17 *1319:D *1319:A 3.89037e-06
18 *413:10 *1789:A 3.48165e-06
19 *413:10 *816:134 9.16654e-06
20 *413:10 *840:6 2.52755e-07
21 *413:10 *840:137 1.09067e-06
22 *413:16 *829:6 3.73144e-06
23 *413:18 *1272:A 1.12894e-06
24 *413:18 *816:26 1.03345e-06
25 *413:18 *816:128 2.22736e-06
26 *413:18 *816:134 1.10561e-06
27 *413:18 *833:12 6.98573e-06
28 *413:18 *839:54 1.13819e-05
29 *413:18 *839:62 1.1274e-06
30 *413:18 *839:68 1.77481e-05
31 *413:18 *840:18 1.73882e-06
32 *413:22 *844:14 0
33 *413:26 *830:25 9.21559e-06
34 *413:26 *872:56 7.7328e-06
35 *413:30 *830:25 2.55347e-05
36 *413:30 *872:56 2.62819e-05
37 *413:34 *565:8 4.23705e-06
38 *413:34 *816:99 2.03526e-06
39 *413:34 *816:107 8.146e-06
40 *413:36 *575:16 8.61943e-06
41 *413:36 *816:95 0
42 *413:51 *414:10 0
43 *413:51 *415:8 4.33281e-06
44 *413:51 *653:42 8.23084e-06
45 *413:51 *653:50 0
46 *413:51 *816:95 0
47 *413:57 *415:8 0
48 *413:57 *653:50 1.09067e-06
49 *1319:C *1319:D 1.36155e-06
50 *342:6 *413:34 1.3211e-05
51 *342:10 *413:34 1.73741e-05
52 *353:21 *413:18 0
53 *370:10 *413:18 2.28488e-05
54 *384:18 *413:34 1.14503e-05
*RES
1 *1318:Y *413:10 46.0281 
2 *413:10 *413:16 37.0741 
3 *413:16 *413:18 33.8838 
4 *413:18 *413:22 39.7096 
5 *413:22 *413:26 20.4851 
6 *413:26 *413:30 26.2107 
7 *413:30 *413:34 49.8243 
8 *413:34 *413:36 25.9056 
9 *413:36 *1319:D 35.4697 
10 *413:36 *413:51 42.7939 
11 *413:51 *413:57 40.0317 
12 *413:57 *1327:D 17.2 
13 *413:26 *952:D 35.4697 
*END

*D_NET *414 7.58941e-05
*CONN
*I *1320:B I *D XNOR2x2_ASAP7_75t_SL
*I *1319:Y O *D OR4x1_ASAP7_75t_SL
*CAP
1 *1320:B 0
2 *1319:Y 2.20393e-05
3 *414:10 2.20393e-05
4 *414:10 *1319:A 1.25483e-05
5 *414:10 *653:26 0
6 *414:10 *816:91 1.92671e-05
7 *413:51 *414:10 0
*RES
1 *1319:Y *414:10 47.9974 
2 *414:10 *1320:B 34.4 
*END

*D_NET *415 0.000439836
*CONN
*I *1321:B1 I *D AO221x1_ASAP7_75t_SL
*I *1329:A2 I *D AO211x2_ASAP7_75t_SL
*I *1320:Y O *D XNOR2x2_ASAP7_75t_SL
*CAP
1 *1321:B1 0
2 *1329:A2 0
3 *1320:Y 0
4 *415:43 2.04048e-06
5 *415:37 2.07829e-05
6 *415:29 3.98067e-05
7 *415:18 1.01448e-05
8 *415:12 4.10872e-05
9 *415:8 0.000105669
10 *415:6 5.36622e-05
11 *415:8 *421:10 6.23028e-06
12 *415:8 *718:14 0
13 *415:18 *793:14 5.19498e-06
14 *415:18 *844:150 0
15 *415:29 *421:10 1.62854e-06
16 *415:29 *693:44 0
17 *415:37 *718:33 7.35354e-06
18 *1396:A1 *415:12 4.57952e-06
19 *1396:A2 *415:8 5.60551e-07
20 *1396:A2 *415:12 3.89493e-05
21 *1396:A2 *415:29 8.89918e-07
22 *200:47 *415:18 1.5053e-05
23 *282:55 *415:37 2.83874e-07
24 *282:55 *415:43 8.46363e-06
25 *335:24 *415:18 0
26 *335:24 *415:29 3.39742e-05
27 *391:20 *415:8 1.49407e-08
28 *392:10 *415:37 9.67723e-06
29 *392:10 *415:43 3.32524e-06
30 *403:14 *415:18 0
31 *403:16 *415:29 1.78333e-06
32 *403:26 *415:37 9.8079e-06
33 *403:37 *415:29 0
34 *403:37 *415:37 6.10236e-07
35 *405:18 *415:8 0
36 *406:25 *415:29 6.53938e-06
37 *406:25 *415:37 2.02379e-06
38 *407:10 *415:29 5.36731e-06
39 *413:51 *415:8 4.33281e-06
40 *413:57 *415:8 0
*RES
1 *1320:Y *415:6 34.4 
2 *415:6 *415:8 40.548 
3 *415:8 *415:12 33.7796 
4 *415:12 *415:18 44.537 
5 *415:18 *1329:A2 17.2 
6 *415:8 *415:29 37.4987 
7 *415:29 *415:37 46.0281 
8 *415:37 *415:43 37.2158 
9 *415:43 *1321:B1 17.2 
*END

*D_NET *416 3.47511e-05
*CONN
*I *1322:C I *D AND3x1_ASAP7_75t_SL
*I *1321:Y O *D AO221x1_ASAP7_75t_SL
*CAP
1 *1322:C 1.38269e-06
2 *1321:Y 5.95564e-06
3 *416:8 7.33833e-06
4 *1322:C *709:18 7.35354e-06
5 *392:10 *416:8 0
6 *407:10 *416:8 5.36731e-06
7 *412:12 *1322:C 7.35354e-06
*RES
1 *1321:Y *416:8 38.9053 
2 *416:8 *1322:C 36.5393 
*END

*D_NET *417 0.000158948
*CONN
*I *1325:A1 I *D OAI21x1_ASAP7_75t_SL
*I *1323:Y O *D AND2x2_ASAP7_75t_SL
*CAP
1 *1325:A1 2.28002e-05
2 *1323:Y 1.68964e-05
3 *417:8 3.96965e-05
4 *1325:A1 *1304:A3 5.0551e-07
5 *1325:A1 *1325:A2 6.7842e-07
6 *1325:A1 *800:26 6.7842e-07
7 *1325:A1 *801:12 2.68309e-06
8 *417:8 *723:44 8.59701e-06
9 *417:8 *802:33 7.3732e-06
10 *1304:B *1325:A1 9.16822e-06
11 *287:38 *417:8 2.35211e-06
12 *287:49 *417:8 1.25811e-06
13 *399:12 *417:8 1.6093e-05
14 *408:8 *1325:A1 3.01677e-05
*RES
1 *1323:Y *417:8 47.3528 
2 *417:8 *1325:A1 49.9099 
*END

*D_NET *418 0.000243018
*CONN
*I *1326:C I *D OR3x1_ASAP7_75t_SL
*I *1325:A2 I *D OAI21x1_ASAP7_75t_SL
*I *1324:Y O *D OR3x1_ASAP7_75t_SL
*CAP
1 *1326:C 1.32319e-05
2 *1325:A2 2.41007e-06
3 *1324:Y 6.19675e-06
4 *418:26 2.13814e-05
5 *418:18 4.18133e-05
6 *418:8 4.22706e-05
7 *1325:A2 *801:12 4.30929e-06
8 *1326:C *420:10 0
9 *1326:C *452:10 0
10 *1326:C *800:48 1.49407e-08
11 *418:8 *420:16 3.31915e-05
12 *418:18 *420:22 0
13 *418:18 *739:59 2.28177e-06
14 *418:18 *846:31 3.21442e-06
15 *418:18 *859:8 1.83764e-06
16 *418:26 *419:8 0
17 *418:26 *420:22 0
18 *1325:A1 *1325:A2 6.7842e-07
19 *1326:B *1326:C 6.01313e-06
20 *193:41 *418:8 3.29718e-05
21 *193:41 *418:18 1.62275e-05
22 *346:51 *1326:C 0
23 *346:51 *418:18 1.62643e-06
24 *346:51 *418:26 0
25 *377:25 *418:18 1.10955e-07
26 *408:8 *1325:A2 2.29971e-06
27 *408:18 *418:26 0
28 *409:12 *418:18 6.77442e-07
29 *409:12 *418:26 0
30 *409:16 *418:26 1.02586e-05
*RES
1 *1324:Y *418:8 43.492 
2 *418:8 *418:18 49.0843 
3 *418:18 *418:26 44.9585 
4 *418:26 *1325:A2 37.0741 
5 *418:8 *1326:C 42.171 
*END

*D_NET *419 5.99943e-05
*CONN
*I *1330:B I *D AND4x1_ASAP7_75t_SL
*I *1325:Y O *D OAI21x1_ASAP7_75t_SL
*CAP
1 *1330:B 3.24495e-06
2 *1325:Y 9.80225e-06
3 *419:8 1.30472e-05
4 *1330:B *420:22 2.28976e-06
5 *419:8 *420:22 2.59018e-05
6 *419:8 *800:34 3.647e-06
7 *408:18 *419:8 2.0613e-06
8 *418:26 *419:8 0
*RES
1 *1325:Y *419:8 43.4107 
2 *419:8 *1330:B 36.0045 
*END

*D_NET *420 0.000315778
*CONN
*I *1330:C I *D AND4x1_ASAP7_75t_SL
*I *1326:Y O *D OR3x1_ASAP7_75t_SL
*CAP
1 *1330:C 0
2 *1326:Y 8.33196e-06
3 *420:22 3.33805e-05
4 *420:16 6.90381e-05
5 *420:10 4.39896e-05
6 *420:22 *1330:A 1.52651e-06
7 *420:22 *452:10 8.19406e-05
8 *420:22 *846:35 9.1471e-07
9 *420:22 *859:8 0
10 *420:22 *865:33 0
11 *1326:C *420:10 0
12 *1330:B *420:22 2.28976e-06
13 *193:41 *420:16 1.44167e-06
14 *193:41 *420:22 0
15 *346:51 *420:10 1.31528e-05
16 *388:12 *420:10 6.7842e-07
17 *418:8 *420:16 3.31915e-05
18 *418:18 *420:22 0
19 *418:26 *420:22 0
20 *419:8 *420:22 2.59018e-05
*RES
1 *1326:Y *420:10 40.5098 
2 *420:10 *420:16 48.8403 
3 *420:16 *420:22 49.6369 
4 *420:22 *1330:C 17.2 
*END

*D_NET *421 0.000117445
*CONN
*I *1328:A2 I *D OAI21x1_ASAP7_75t_SL
*I *1327:Y O *D OR4x1_ASAP7_75t_SL
*CAP
1 *1328:A2 0
2 *1327:Y 4.93313e-06
3 *421:10 4.40241e-05
4 *421:8 4.89572e-05
5 *200:36 *421:10 0
6 *200:47 *421:10 0
7 *335:24 *421:10 4.3937e-06
8 *384:74 *421:10 7.84772e-07
9 *407:10 *421:10 6.4936e-06
10 *415:8 *421:10 6.23028e-06
11 *415:29 *421:10 1.62854e-06
*RES
1 *1327:Y *421:8 37.0741 
2 *421:8 *421:10 33.2268 
3 *421:10 *1328:A2 34.4 
*END

*D_NET *422 5.4406e-05
*CONN
*I *1329:B I *D AO211x2_ASAP7_75t_SL
*I *1328:Y O *D OAI21x1_ASAP7_75t_SL
*CAP
1 *1329:B 1.0753e-05
2 *1328:Y 1.0753e-05
3 *1329:B *717:30 3.29001e-05
*RES
1 *1328:Y *1329:B 44.5617 
*END

*D_NET *423 0.000290612
*CONN
*I *1330:A I *D AND4x1_ASAP7_75t_SL
*I *1329:Y O *D AO211x2_ASAP7_75t_SL
*CAP
1 *1330:A 9.94242e-06
2 *1329:Y 0
3 *423:16 2.40379e-05
4 *423:8 7.50976e-05
5 *423:6 6.10021e-05
6 *423:8 *452:10 0
7 *423:8 *481:14 8.42712e-06
8 *423:8 *844:156 0
9 *423:8 *856:14 2.66663e-05
10 *423:16 *689:10 3.65131e-06
11 *423:16 *856:14 2.03526e-06
12 *423:16 *859:18 7.31605e-06
13 *1057:B *423:8 1.12894e-06
14 *42:10 *423:8 2.83874e-07
15 *43:10 *423:8 2.22736e-06
16 *193:10 *423:8 8.06436e-06
17 *193:18 *423:8 5.54059e-05
18 *266:28 *423:8 0
19 *402:22 *423:8 3.79923e-06
20 *403:14 *423:8 0
21 *412:8 *423:8 0
22 *420:22 *1330:A 1.52651e-06
*RES
1 *1329:Y *423:6 34.4 
2 *423:6 *423:8 54.6271 
3 *423:8 *423:16 44.1686 
4 *423:16 *1330:A 39.7482 
*END

*D_NET *424 8.05654e-05
*CONN
*I *1335:A1 I *D OA21x2_ASAP7_75t_SL
*I *1331:Y O *D AND2x2_ASAP7_75t_SL
*CAP
1 *1335:A1 1.85919e-05
2 *1331:Y 1.36488e-05
3 *424:8 3.22407e-05
4 *424:8 *799:14 8.79754e-06
5 *304:8 *424:8 7.28642e-06
*RES
1 *1331:Y *424:8 47.3528 
2 *424:8 *1335:A1 43.492 
*END

*D_NET *425 2.90902e-05
*CONN
*I *1335:A2 I *D OA21x2_ASAP7_75t_SL
*I *1332:Y O *D AOI211x1_ASAP7_75t_SL
*CAP
1 *1335:A2 0
2 *1332:Y 1.2883e-05
3 *425:10 1.2883e-05
4 *302:8 *425:10 3.32429e-06
5 *304:8 *425:10 0
*RES
1 *1332:Y *425:10 43.7754 
2 *425:10 *1335:A2 34.4 
*END

*D_NET *426 0.000346592
*CONN
*P prescale[2] I
*I *1333:A I *D BUFx2_ASAP7_75t_SL
*CAP
1 prescale[2] 5.14884e-05
2 *1333:A 0
3 *426:13 0.000112397
4 *426:11 0.000112397
5 *426:9 5.14884e-05
6 *426:13 *655:8 1.88216e-05
*RES
1 prescale[2] *426:9 48.3954 
2 *426:9 *426:11 17.2 
3 *426:11 *426:13 62.5745 
4 *426:13 *1333:A 17.2 
*END

*D_NET *427 0.000127971
*CONN
*P prescale[1] I
*I *1334:A I *D BUFx2_ASAP7_75t_SL
*CAP
1 prescale[1] 1.85235e-05
2 *1334:A 0
3 *427:17 2.93458e-05
4 *427:11 4.78693e-05
5 *427:11 txd 0
6 *427:17 *679:6 5.45014e-06
7 *427:17 *684:14 0
8 *333:9 *427:11 2.67819e-05
*RES
1 prescale[1] *427:11 40.9661 
2 *427:11 *427:17 40.9362 
3 *427:17 *1334:A 17.2 
*END

*D_NET *428 0.000199968
*CONN
*I *1339:A2 I *D OA211x2_ASAP7_75t_SL
*I *1336:Y O *D XOR2x2_ASAP7_75t_SL
*CAP
1 *1339:A2 0
2 *1336:Y 4.31672e-05
3 *428:22 2.66539e-06
4 *428:14 3.52038e-05
5 *428:6 7.57056e-05
6 *428:6 *1346:B 2.12481e-06
7 *428:6 *864:12 1.17973e-05
8 *428:14 *860:122 5.52807e-07
9 *428:14 *865:75 1.75837e-05
10 *428:22 *708:19 2.20028e-06
11 *1244:A *428:6 4.20803e-06
12 *94:6 *428:6 3.71468e-06
13 *357:6 *428:22 1.04475e-06
*RES
1 *1336:Y *428:6 38.0582 
2 *428:6 *428:14 47.8886 
3 *428:14 *428:22 36.3144 
4 *428:22 *1339:A2 17.2 
*END

*D_NET *429 0.000124493
*CONN
*I *1338:A2 I *D AO21x1_ASAP7_75t_SL
*I *1337:Y O *D OR3x1_ASAP7_75t_SL
*CAP
1 *1338:A2 0
2 *1337:Y 1.4904e-05
3 *429:14 2.4477e-05
4 *429:8 3.9381e-05
5 *429:8 *1337:B 4.20803e-06
6 *429:14 *1338:A1 3.46317e-06
7 *429:14 *1352:A1 5.85387e-06
8 *429:14 *1352:A2 5.25794e-06
9 *429:14 *440:8 0
10 *429:14 *442:8 1.64509e-05
11 *429:14 *470:8 0
12 *429:14 *695:27 4.83862e-06
13 *429:14 *712:8 5.49212e-07
14 *429:14 *712:14 5.10911e-06
15 *429:14 *712:22 0
*RES
1 *1337:Y *429:8 43.492 
2 *429:8 *429:14 37.9768 
3 *429:14 *1338:A2 17.2 
*END

*D_NET *430 0.00077658
*CONN
*I *1339:C I *D OA211x2_ASAP7_75t_SL
*I *1338:Y O *D AO21x1_ASAP7_75t_SL
*CAP
1 *1339:C 0
2 *1338:Y 8.45536e-06
3 *430:30 1.78543e-05
4 *430:24 2.36846e-05
5 *430:18 8.32472e-05
6 *430:16 8.1598e-05
7 *430:10 0.000115845
8 *430:8 0.000120119
9 *430:10 *1338:A1 1.49407e-08
10 *430:10 *1399:B 0
11 *430:10 *479:12 4.82501e-05
12 *430:10 *482:12 8.90847e-05
13 *430:10 *636:18 1.86306e-06
14 *430:10 *693:16 6.65157e-06
15 *430:10 *695:8 2.91344e-06
16 *430:10 *695:42 8.3668e-07
17 *430:10 *706:8 1.64764e-06
18 *430:10 *712:22 6.33206e-07
19 *430:10 *717:28 0
20 *430:10 *769:36 2.98814e-08
21 *430:10 *769:42 0
22 *430:10 *820:173 0
23 *430:10 *820:197 0
24 *430:10 *846:15 0
25 *430:10 *878:26 0
26 *430:10 *878:32 0
27 *430:16 *1860:A 2.12481e-06
28 *430:18 *436:10 0
29 *430:18 *479:12 1.89739e-05
30 *430:18 *708:10 1.89317e-05
31 *430:18 *733:10 1.068e-05
32 *430:24 *819:30 1.10341e-05
33 *430:24 *860:118 1.11189e-05
34 *430:30 *1339:B 5.22486e-06
35 *430:30 *432:14 8.33296e-06
36 *430:30 *433:8 1.66587e-05
37 *430:30 *436:10 1.61271e-05
38 *430:30 *708:10 0
39 *1050:A *430:18 0
40 *1338:B *430:8 4.57952e-06
41 *1671:A *430:10 0
42 *183:20 *430:18 0
43 *186:25 *430:18 1.09447e-05
44 *189:35 *430:18 4.35576e-08
45 *200:8 *430:10 2.98814e-08
46 *268:38 *430:18 8.30732e-06
47 *282:87 *430:10 0
48 *285:18 *430:18 8.69705e-06
49 *285:24 *430:18 6.59178e-06
50 *286:8 *430:18 7.84772e-07
51 *287:20 *430:18 9.91667e-06
52 *350:21 *430:16 3.3921e-06
53 *357:6 *430:30 1.35684e-06
54 *377:10 *430:18 0
55 *377:23 *430:18 0
*RES
1 *1338:Y *430:8 38.6786 
2 *430:8 *430:10 87.2907 
3 *430:10 *430:16 37.0741 
4 *430:16 *430:18 60.8219 
5 *430:18 *430:24 42.4224 
6 *430:24 *430:30 34.6015 
7 *430:30 *1339:C 17.2 
*END

*D_NET *431 6.77523e-05
*CONN
*I *1341:B I *D NOR2x1_ASAP7_75t_SL
*I *1340:Y O *D AND3x1_ASAP7_75t_SL
*CAP
1 *1341:B 2.17735e-05
2 *1340:Y 7.77368e-06
3 *431:8 2.95472e-05
4 *1341:B *432:6 8.65792e-06
5 *431:8 *807:47 0
*RES
1 *1340:Y *431:8 38.9053 
2 *431:8 *1341:B 47.7706 
*END

*D_NET *432 0.000217851
*CONN
*I *1342:A2 I *D OA21x2_ASAP7_75t_SL
*I *1341:Y O *D NOR2x1_ASAP7_75t_SL
*CAP
1 *1342:A2 0
2 *1341:Y 6.25823e-05
3 *432:14 1.59574e-05
4 *432:6 7.85397e-05
5 *432:6 *867:104 2.52755e-07
6 *432:14 *436:10 8.06436e-06
7 *432:14 *867:104 5.01287e-06
8 *1058:A *432:6 4.73041e-06
9 *1058:B *432:6 4.4994e-06
10 *1170:B *432:6 1.75355e-05
11 *1341:B *432:6 8.65792e-06
12 *39:36 *432:6 3.68565e-06
13 *430:30 *432:14 8.33296e-06
*RES
1 *1341:Y *432:6 46.6154 
2 *432:6 *432:14 45.773 
3 *432:14 *1342:A2 17.2 
*END

*D_NET *433 7.11385e-05
*CONN
*I *1346:A1 I *D OA21x2_ASAP7_75t_SL
*I *1342:Y O *D OA21x2_ASAP7_75t_SL
*CAP
1 *1346:A1 3.10741e-06
2 *1342:Y 8.05286e-06
3 *433:8 1.11603e-05
4 *433:8 *1339:A1 5.19498e-06
5 *433:8 *1339:B 2.34105e-05
6 *433:8 *436:10 3.52473e-06
7 *1244:A *1346:A1 2.90209e-08
8 *430:30 *433:8 1.66587e-05
*RES
1 *1342:Y *433:8 46.2265 
2 *433:8 *1346:A1 35.4697 
*END

*D_NET *434 1.41423e-05
*CONN
*I *1345:A1 I *D AOI21x1_ASAP7_75t_SL
*I *1343:Y O *D OR3x1_ASAP7_75t_SL
*CAP
1 *1345:A1 0
2 *1343:Y 6.66026e-06
3 *434:8 6.66026e-06
4 *434:8 *712:33 8.2174e-07
*RES
1 *1343:Y *434:8 38.9053 
2 *434:8 *1345:A1 34.4 
*END

*D_NET *435 5.54276e-05
*CONN
*I *1345:A2 I *D AOI21x1_ASAP7_75t_SL
*I *1344:Y O *D NAND2x1_ASAP7_75t_SL
*CAP
1 *1345:A2 0
2 *1344:Y 1.90219e-05
3 *435:10 1.90219e-05
4 *435:10 *436:10 8.53501e-06
5 *435:10 *703:10 5.37866e-07
6 *435:10 *712:33 8.31096e-06
*RES
1 *1344:Y *435:10 45.2382 
2 *435:10 *1345:A2 34.4 
*END

*D_NET *436 0.000869639
*CONN
*I *1346:A2 I *D OA21x2_ASAP7_75t_SL
*I *1345:Y O *D AOI21x1_ASAP7_75t_SL
*CAP
1 *1346:A2 2.07914e-06
2 *1345:Y 7.5134e-06
3 *436:10 0.000190475
4 *436:8 0.000195909
5 *436:8 *712:33 5.25794e-06
6 *436:10 *1159:B 0
7 *436:10 *1174:A 0
8 *436:10 *1339:A1 0
9 *436:10 *693:8 9.81516e-06
10 *436:10 *695:50 0
11 *436:10 *703:10 0
12 *436:10 *708:10 0
13 *436:10 *711:10 9.11384e-07
14 *436:10 *712:33 7.98637e-06
15 *436:10 *723:10 2.74606e-06
16 *436:10 *723:18 0
17 *436:10 *860:122 0
18 *436:10 *862:28 7.12702e-06
19 *436:10 *865:75 1.16588e-05
20 *436:10 *867:96 5.21903e-06
21 *436:10 *867:98 0.000171202
22 *436:10 *885:8 8.06799e-07
23 *1244:A *1346:A2 1.36155e-06
24 *1671:A *436:10 4.83862e-06
25 *137:12 *436:10 2.85907e-05
26 *266:10 *436:10 2.30873e-06
27 *268:60 *436:10 0
28 *268:64 *436:10 0
29 *270:8 *436:10 1.57874e-05
30 *282:87 *436:10 0.000110803
31 *284:8 *436:10 9.21329e-07
32 *285:18 *436:10 0
33 *285:24 *436:10 0
34 *350:8 *436:10 2.02764e-05
35 *350:21 *436:10 2.97922e-05
36 *351:23 *436:10 0
37 *430:18 *436:10 0
38 *430:30 *436:10 1.61271e-05
39 *432:14 *436:10 8.06436e-06
40 *433:8 *436:10 3.52473e-06
41 *435:10 *436:10 8.53501e-06
*RES
1 *1345:Y *436:8 39.2134 
2 *436:8 *436:10 177.96 
3 *436:10 *1346:A2 35.4697 
*END

*D_NET *437 2.18984e-05
*CONN
*I *1348:A I *D OR3x1_ASAP7_75t_SL
*I *1347:Y O *D INVx1_ASAP7_75t_SL
*CAP
1 *1348:A 3.67749e-06
2 *1347:Y 5.67362e-06
3 *437:8 9.35111e-06
4 *437:8 *471:16 0
5 *437:8 *692:27 2.02632e-06
6 *398:59 *1348:A 1.1699e-06
*RES
1 *1347:Y *437:8 38.9053 
2 *437:8 *1348:A 36.5393 
*END

*D_NET *438 0.000126662
*CONN
*I *1354:A1 I *D AOI21x1_ASAP7_75t_SL
*I *1348:Y O *D OR3x1_ASAP7_75t_SL
*CAP
1 *1354:A1 0
2 *1348:Y 0
3 *438:12 3.54332e-05
4 *438:6 3.54332e-05
5 *438:12 *1354:A2 4.18722e-05
6 *438:12 *692:27 6.06688e-06
7 *438:12 *819:42 1.09842e-06
8 *438:12 *819:46 5.0551e-07
9 *438:12 *825:51 3.02926e-06
10 *398:59 *438:12 3.22378e-06
*RES
1 *1348:Y *438:6 34.4 
2 *438:6 *438:12 48.0891 
3 *438:12 *1354:A1 17.2 
*END

*D_NET *439 0.00016062
*CONN
*I *1365:C I *D AND3x1_ASAP7_75t_SL
*I *1673:A I *D BUFx6f_ASAP7_75t_SL
*I *1349:Y O *D AND2x2_ASAP7_75t_SL
*CAP
1 *1365:C 9.13434e-06
2 *1673:A 0
3 *1349:Y 1.19649e-05
4 *439:17 3.40198e-05
5 *439:6 3.68503e-05
6 *1365:C *797:48 1.40419e-08
7 *1365:C *797:52 6.17507e-06
8 *1365:C *797:60 1.02586e-05
9 *1365:C *860:36 2.7883e-05
10 *439:17 *452:18 0
11 *439:17 *860:42 4.65695e-07
12 *439:17 *864:33 1.20913e-06
13 *133:14 *439:17 1.44292e-05
14 *183:44 *439:6 5.51397e-07
15 *183:44 *439:17 1.04475e-06
16 *183:61 *439:6 6.6195e-06
*RES
1 *1349:Y *439:6 23.0831 
2 *439:6 *1673:A 17.2 
3 *439:6 *439:17 35.1363 
4 *439:17 *1365:C 41.8876 
*END

*D_NET *440 3.29077e-05
*CONN
*I *1352:A2 I *D AOI22x1_ASAP7_75t_SL
*I *1350:Y O *D OA21x2_ASAP7_75t_SL
*CAP
1 *1352:A2 2.09525e-06
2 *1350:Y 8.55143e-06
3 *440:8 1.06467e-05
4 *1352:A2 *712:14 5.25794e-06
5 *440:8 *712:22 1.09842e-06
6 *429:14 *1352:A2 5.25794e-06
7 *429:14 *440:8 0
*RES
1 *1350:Y *440:8 40.0317 
2 *440:8 *1352:A2 38.1438 
*END

*D_NET *441 0.000232291
*CONN
*I *1352:B1 I *D AOI22x1_ASAP7_75t_SL
*I *1358:C I *D AND3x1_ASAP7_75t_SL
*I *1351:Y O *D XNOR2x2_ASAP7_75t_SL
*CAP
1 *1352:B1 0
2 *1358:C 3.91865e-06
3 *1351:Y 0
4 *441:27 2.16553e-05
5 *441:23 4.59439e-05
6 *441:10 4.36735e-05
7 *441:6 1.54662e-05
8 *441:10 *447:8 9.81516e-06
9 *441:10 *468:10 3.93362e-05
10 *441:10 *476:10 3.46769e-06
11 *441:23 *456:14 6.33206e-07
12 *1369:B1 *441:27 3.70102e-05
13 *272:32 *441:10 3.73518e-07
14 *272:32 *441:23 2.25787e-06
15 *272:34 *1358:C 2.79851e-06
16 *272:34 *441:23 5.94108e-06
*RES
1 *1351:Y *441:6 34.4 
2 *441:6 *441:10 33.5318 
3 *441:10 *1358:C 19.3393 
4 *441:10 *441:23 33.1067 
5 *441:23 *441:27 33.7796 
6 *441:27 *1352:B1 17.2 
*END

*D_NET *442 0.000679108
*CONN
*I *1353:B2 I *D OA22x2_ASAP7_75t_SL
*I *1352:Y O *D AOI22x1_ASAP7_75t_SL
*CAP
1 *1353:B2 1.42116e-05
2 *1352:Y 1.19276e-05
3 *442:18 7.53983e-05
4 *442:16 6.52787e-05
5 *442:10 0.000101598
6 *442:8 0.000109434
7 *1353:B2 *860:16 5.38096e-06
8 *1353:B2 *860:24 4.17909e-06
9 *442:8 *712:14 0
10 *442:10 *470:8 0
11 *442:10 *689:53 7.58535e-06
12 *442:10 *693:16 0
13 *442:10 *695:8 0
14 *442:10 *695:27 3.92132e-06
15 *442:10 *695:42 0
16 *442:10 *712:8 4.07215e-06
17 *442:10 *717:28 4.35576e-08
18 *442:10 *723:28 3.03456e-05
19 *442:10 *731:21 8.06799e-07
20 *442:10 *731:36 1.49407e-08
21 *442:10 *756:24 8.33296e-06
22 *442:10 *769:42 1.83771e-06
23 *442:10 *769:48 1.94229e-07
24 *442:10 *820:181 1.98917e-05
25 *442:10 *820:187 1.64518e-05
26 *442:10 *878:46 2.98814e-08
27 *442:16 *1398:B 1.73158e-06
28 *442:16 *756:24 1.44167e-06
29 *442:16 *820:193 5.0551e-07
30 *442:18 *478:10 0.000123913
31 *442:18 *689:53 1.64348e-06
32 *442:18 *692:10 3.31197e-06
33 *442:18 *731:36 2.21012e-05
34 *442:18 *738:18 1.10425e-05
35 *442:18 *756:10 3.37355e-06
36 *442:18 *756:24 3.16931e-06
37 *1395:B *442:10 0
38 *212:30 *442:10 1.85628e-06
39 *270:18 *442:10 0
40 *272:106 *442:10 0
41 *292:20 *442:10 7.63095e-06
42 *429:14 *442:8 1.64509e-05
*RES
1 *1352:Y *442:8 40.2831 
2 *442:8 *442:10 75.4642 
3 *442:10 *442:16 37.0741 
4 *442:16 *442:18 58.5693 
5 *442:18 *1353:B2 42.9572 
*END

*D_NET *443 9.76637e-05
*CONN
*I *1354:A2 I *D AOI21x1_ASAP7_75t_SL
*I *1353:Y O *D OA22x2_ASAP7_75t_SL
*CAP
1 *1354:A2 1.13801e-05
2 *1353:Y 8.95369e-06
3 *443:8 2.03338e-05
4 *1354:A2 *819:42 3.47607e-06
5 *1354:A2 *825:51 5.58366e-06
6 *443:8 *797:20 6.06409e-06
7 *438:12 *1354:A2 4.18722e-05
*RES
1 *1353:Y *443:8 38.1438 
2 *443:8 *1354:A2 48.4791 
*END

*D_NET *444 7.82176e-05
*CONN
*I *1357:A1 I *D OA21x2_ASAP7_75t_SL
*I *1355:Y O *D AOI21x1_ASAP7_75t_SL
*CAP
1 *1357:A1 2.585e-06
2 *1355:Y 1.65533e-05
3 *444:10 1.91383e-05
4 *1357:A1 *708:43 5.22376e-07
5 *444:10 *1355:A1 9.81516e-06
6 *444:10 *1356:B 1.00692e-05
7 *444:10 *1356:C 2.68933e-07
8 *444:10 *445:10 4.1009e-06
9 *444:10 *708:37 5.52807e-07
10 *444:10 *708:43 0
11 *444:10 *796:30 5.52652e-06
12 *444:10 *860:44 9.08513e-06
*RES
1 *1355:Y *444:10 48.9006 
2 *444:10 *1357:A1 35.4697 
*END

*D_NET *445 3.22707e-05
*CONN
*I *1357:A2 I *D OA21x2_ASAP7_75t_SL
*I *1356:Y O *D AND3x1_ASAP7_75t_SL
*CAP
1 *1357:A2 2.07914e-06
2 *1356:Y 8.63712e-06
3 *445:10 1.07163e-05
4 *1357:A2 *708:43 1.36155e-06
5 *445:10 *708:37 5.37569e-06
6 *445:10 *797:64 0
7 *444:10 *445:10 4.1009e-06
*RES
1 *1356:Y *445:10 40.5098 
2 *445:10 *1357:A2 35.4697 
*END

*D_NET *446 6.48598e-05
*CONN
*I *1364:A1 I *D OA21x2_ASAP7_75t_SL
*I *1357:Y O *D OA21x2_ASAP7_75t_SL
*CAP
1 *1364:A1 3.49989e-06
2 *1357:Y 2.11677e-05
3 *446:8 2.46675e-05
4 *1364:A1 *860:44 1.06092e-05
5 *446:8 *1355:A1 0
6 *446:8 *1356:B 0
7 *446:8 *1501:CLK 2.73415e-06
8 *446:8 *708:37 2.18135e-06
*RES
1 *1357:Y *446:8 48.4791 
2 *446:8 *1364:A1 37.609 
*END

*D_NET *447 0.000377859
*CONN
*I *1363:A1 I *D OA21x2_ASAP7_75t_SL
*I *1358:Y O *D AND3x1_ASAP7_75t_SL
*CAP
1 *1363:A1 4.12326e-06
2 *1358:Y 3.92354e-06
3 *447:16 5.94933e-05
4 *447:14 5.537e-05
5 *447:12 7.54068e-05
6 *447:8 7.93303e-05
7 *1363:A1 *717:30 2.66797e-07
8 *447:12 *1380:B 5.09299e-06
9 *447:12 *1381:B 5.25278e-06
10 *447:12 *468:8 0
11 *447:12 *745:16 1.07796e-05
12 *447:16 *1363:A2 1.47913e-06
13 *447:16 *450:8 0
14 *447:16 *458:10 1.33022e-05
15 *447:16 *459:12 3.95007e-06
16 *447:16 *460:10 0
17 *447:16 *481:14 1.31716e-05
18 *447:16 *745:28 0
19 *447:16 *763:58 1.434e-05
20 *447:16 *810:151 0
21 *447:16 *810:157 1.66587e-05
22 *447:16 *843:163 6.10236e-06
23 *1307:B *447:16 0
24 *1:63 *447:16 0
25 *272:55 *447:16 0
26 *441:10 *447:8 9.81516e-06
*RES
1 *1358:Y *447:8 37.779 
2 *447:8 *447:12 48.7547 
3 *447:12 *447:14 17.2 
4 *447:14 *447:16 45.6164 
5 *447:16 *1363:A1 36.0045 
*END

*D_NET *448 0.00026525
*CONN
*P prescale[15] I
*I *1359:A I *D BUFx2_ASAP7_75t_SL
*CAP
1 prescale[15] 5.28139e-05
2 *1359:A 0
3 *448:13 3.40455e-05
4 *448:9 8.68594e-05
5 *448:9 *487:9 0
6 *448:9 *497:9 6.70498e-05
7 *448:13 *1799:A 5.51397e-07
8 *448:13 *650:6 1.06157e-05
9 *340:11 *448:9 1.33146e-05
*RES
1 prescale[15] *448:9 48.0468 
2 *448:9 *448:13 42.3368 
3 *448:13 *1359:A 17.2 
*END

*D_NET *449 4.41966e-05
*CONN
*I *1362:A1 I *D OA21x2_ASAP7_75t_SL
*I *1360:Y O *D AND2x2_ASAP7_75t_SL
*CAP
1 *1362:A1 0
2 *1360:Y 1.85911e-05
3 *449:10 1.85911e-05
4 *449:10 *1360:A 3.73144e-06
5 *449:10 *810:138 7.72307e-07
6 *449:10 *810:151 1.38169e-06
7 *449:10 *844:150 1.12894e-06
*RES
1 *1360:Y *449:10 43.6621 
2 *449:10 *1362:A1 34.4 
*END

*D_NET *450 9.22506e-05
*CONN
*I *1373:A3 I *D AO31x2_ASAP7_75t_SL
*I *1362:A2 I *D OA21x2_ASAP7_75t_SL
*I *1361:Y O *D NOR2x1_ASAP7_75t_SL
*CAP
1 *1373:A3 1.05699e-05
2 *1362:A2 1.43366e-06
3 *1361:Y 6.04754e-06
4 *450:10 1.20036e-05
5 *450:8 6.04754e-06
6 *1362:A2 *1362:B 2.20493e-06
7 *1362:A2 *810:157 5.85387e-06
8 *1373:A3 *1362:B 1.36155e-06
9 *1373:A3 *451:8 4.73041e-06
10 *1373:A3 *810:157 2.8572e-05
11 *450:8 *810:151 1.34257e-05
12 *450:8 *844:150 0
13 *447:16 *450:8 0
*RES
1 *1361:Y *450:8 40.0317 
2 *450:8 *450:10 17.2 
3 *450:10 *1362:A2 18.8045 
4 *450:10 *1373:A3 28.4313 
*END

*D_NET *451 7.56089e-05
*CONN
*I *1363:A2 I *D OA21x2_ASAP7_75t_SL
*I *1362:Y O *D OA21x2_ASAP7_75t_SL
*CAP
1 *1363:A2 1.96205e-05
2 *1362:Y 1.06683e-05
3 *451:8 3.02888e-05
4 *1363:A2 *481:14 0
5 *1363:A2 *844:156 8.82188e-06
6 *1307:B *1363:A2 0
7 *1373:A3 *451:8 4.73041e-06
8 *270:75 *1363:A2 0
9 *447:16 *1363:A2 1.47913e-06
*RES
1 *1362:Y *451:8 41.3527 
2 *451:8 *1363:A2 48.4791 
*END

*D_NET *452 0.00070695
*CONN
*I *1364:A2 I *D OA21x2_ASAP7_75t_SL
*I *1363:Y O *D OA21x2_ASAP7_75t_SL
*CAP
1 *1364:A2 2.04254e-06
2 *1363:Y 4.94532e-06
3 *452:18 5.86123e-05
4 *452:16 6.30753e-05
5 *452:10 0.000136292
6 *452:8 0.000134732
7 *1364:A2 *860:44 5.22376e-07
8 *452:8 *1374:A1 1.2768e-05
9 *452:10 *1280:C 1.31618e-06
10 *452:10 *689:100 0
11 *452:10 *800:40 6.85538e-05
12 *452:10 *800:48 0
13 *452:10 *844:156 4.777e-06
14 *452:10 *859:18 1.41061e-05
15 *452:16 *765:12 6.7842e-07
16 *452:18 *1349:B 0
17 *452:18 *1355:B 0
18 *452:18 *1388:A2 3.92018e-06
19 *452:18 *1388:B 0
20 *452:18 *748:10 0
21 *1057:B *452:10 0
22 *1326:C *452:10 0
23 *1388:A1 *452:18 1.15587e-05
24 *1735:A *452:18 6.62106e-06
25 *43:10 *452:10 0
26 *128:8 *452:10 0
27 *270:79 *452:10 6.74311e-06
28 *287:72 *452:16 1.66706e-05
29 *287:78 *452:18 0
30 *346:28 *452:10 5.44585e-05
31 *346:77 *452:18 5.52807e-07
32 *378:10 *452:10 1.05042e-05
33 *378:10 *452:18 1.15587e-05
34 *420:22 *452:10 8.19406e-05
35 *423:8 *452:10 0
36 *439:17 *452:18 0
*RES
1 *1363:Y *452:8 38.1438 
2 *452:8 *452:10 111.507 
3 *452:10 *452:16 39.2134 
4 *452:16 *452:18 41.6743 
5 *452:18 *1364:A2 35.4697 
*END

*D_NET *453 3.78102e-05
*CONN
*I *1366:B I *D XNOR2x2_ASAP7_75t_SL
*I *1365:Y O *D AND3x1_ASAP7_75t_SL
*CAP
1 *1366:B 3.00677e-06
2 *1365:Y 1.36023e-05
3 *453:8 1.66091e-05
4 *1366:B *708:31 2.27522e-06
5 *453:8 *797:60 0
6 *36:24 *453:8 7.50128e-07
7 *36:37 *453:8 1.56667e-06
8 *133:14 *453:8 0
*RES
1 *1365:Y *453:8 43.4107 
2 *453:8 *1366:B 36.0045 
*END

*D_NET *454 8.34519e-05
*CONN
*I *1375:A2 I *D OA211x2_ASAP7_75t_SL
*I *1366:Y O *D XNOR2x2_ASAP7_75t_SL
*CAP
1 *1375:A2 7.97749e-06
2 *1366:Y 9.76369e-06
3 *454:10 1.77412e-05
4 *1375:A2 *1376:C 1.27802e-05
5 *1375:A2 *860:36 9.30483e-06
6 *454:10 *708:31 3.56177e-06
7 *454:10 *796:14 1.301e-05
8 *454:10 *860:32 1.73211e-06
9 *454:10 *860:73 3.16603e-06
10 *1376:D *1375:A2 4.41457e-06
*RES
1 *1366:Y *454:10 41.5795 
2 *454:10 *1375:A2 41.3527 
*END

*D_NET *455 0.000128823
*CONN
*P prescale[14] I
*I *1367:A I *D BUFx2_ASAP7_75t_SL
*CAP
1 prescale[14] 4.12304e-05
2 *1367:A 0
3 *455:9 4.12304e-05
4 *455:9 *487:9 0
5 *455:9 *509:9 2.40842e-05
6 *336:9 *455:9 2.22785e-05
7 *352:9 *455:9 0
*RES
1 prescale[14] *455:9 42.4216 
2 *455:9 *1367:A 34.4 
*END

*D_NET *456 0.000253415
*CONN
*I *1369:B2 I *D AO32x1_ASAP7_75t_SL
*I *1368:Y O *D OA21x2_ASAP7_75t_SL
*CAP
1 *1369:B2 0
2 *1368:Y 3.93074e-05
3 *456:14 1.44213e-05
4 *456:6 5.37287e-05
5 *456:14 *719:16 1.49407e-08
6 *456:14 *863:10 1.15587e-05
7 *1155:A *456:6 4.4994e-06
8 *1155:B *456:6 1.06092e-05
9 *1369:B1 *456:14 3.46317e-06
10 *1838:A *456:6 1.20203e-06
11 *200:26 *456:6 2.83783e-05
12 *270:20 *456:6 7.72911e-05
13 *270:22 *456:6 8.30736e-06
14 *441:23 *456:14 6.33206e-07
*RES
1 *1368:Y *456:6 48.7547 
2 *456:6 *456:14 44.4803 
3 *456:14 *1369:B2 17.2 
*END

*D_NET *457 0.000144218
*CONN
*I *1374:A2 I *D AO211x2_ASAP7_75t_SL
*I *1369:Y O *D AO32x1_ASAP7_75t_SL
*CAP
1 *1374:A2 0
2 *1369:Y 6.55612e-06
3 *457:10 3.92062e-05
4 *457:8 4.57623e-05
5 *457:8 *1369:A1 1.07377e-06
6 *457:10 *461:8 2.71205e-06
7 *457:10 *476:18 3.52131e-05
8 *457:10 *477:10 1.36943e-05
9 *270:54 *457:10 0
10 *272:40 *457:10 0
*RES
1 *1369:Y *457:8 37.0741 
2 *457:8 *457:10 35.4795 
3 *457:10 *1374:A2 34.4 
*END

*D_NET *458 7.30045e-05
*CONN
*I *1372:A1 I *D AOI211x1_ASAP7_75t_SL
*I *1370:Y O *D OR4x1_ASAP7_75t_SL
*CAP
1 *1372:A1 0
2 *1370:Y 1.51401e-05
3 *458:10 1.51401e-05
4 *458:10 *459:12 3.90551e-06
5 *458:10 *842:55 1.34329e-05
6 *458:10 *843:139 2.12481e-06
7 *458:10 *843:150 2.53282e-06
8 *458:10 *843:163 7.42614e-06
9 *447:16 *458:10 1.33022e-05
*RES
1 *1370:Y *458:10 48.9573 
2 *458:10 *1372:A1 34.4 
*END

*D_NET *459 9.10617e-05
*CONN
*I *1372:A2 I *D AOI211x1_ASAP7_75t_SL
*I *1371:Y O *D OAI21x1_ASAP7_75t_SL
*CAP
1 *1372:A2 0
2 *1371:Y 0
3 *459:12 3.28293e-05
4 *459:6 3.28293e-05
5 *459:12 *745:28 1.56713e-06
6 *459:12 *842:55 8.06799e-07
7 *459:12 *843:126 3.82021e-06
8 *459:12 *843:139 9.12594e-06
9 *459:12 *844:114 0
10 *459:12 *844:122 0
11 *459:12 *844:178 2.22736e-06
12 *447:16 *459:12 3.95007e-06
13 *458:10 *459:12 3.90551e-06
*RES
1 *1371:Y *459:6 34.4 
2 *459:6 *459:12 42.9923 
3 *459:12 *1372:A2 17.2 
*END

*D_NET *460 8.61152e-05
*CONN
*I *1373:B I *D AO31x2_ASAP7_75t_SL
*I *1372:Y O *D AOI211x1_ASAP7_75t_SL
*CAP
1 *1373:B 0
2 *1372:Y 0
3 *460:10 3.46336e-05
4 *460:6 3.46336e-05
5 *460:10 *1372:C 0
6 *460:10 *763:45 0
7 *460:10 *810:157 1.09067e-06
8 *460:10 *843:163 1.57573e-05
9 *270:33 *460:10 0
10 *270:46 *460:10 0
11 *272:55 *460:10 0
12 *447:16 *460:10 0
*RES
1 *1372:Y *460:6 34.4 
2 *460:6 *460:10 44.232 
3 *460:10 *1373:B 17.2 
*END

*D_NET *461 6.85073e-05
*CONN
*I *1374:B I *D AO211x2_ASAP7_75t_SL
*I *1373:Y O *D AO31x2_ASAP7_75t_SL
*CAP
1 *1374:B 0
2 *1373:Y 8.05603e-06
3 *461:8 8.05603e-06
4 *461:8 *471:8 8.33112e-06
5 *461:8 *476:18 1.61727e-05
6 *461:8 *477:10 5.67735e-06
7 *461:8 *769:72 1.9502e-05
8 *457:10 *461:8 2.71205e-06
*RES
1 *1373:Y *461:8 47.3528 
2 *461:8 *1374:B 34.4 
*END

*D_NET *462 0.000669707
*CONN
*I *1375:C I *D OA211x2_ASAP7_75t_SL
*I *1374:Y O *D AO211x2_ASAP7_75t_SL
*CAP
1 *1375:C 8.21182e-06
2 *1374:Y 4.64869e-06
3 *462:10 0.000179439
4 *462:8 0.000175876
5 *1375:C *708:23 6.7842e-07
6 *1375:C *865:87 9.6678e-06
7 *462:8 *717:30 8.65792e-06
8 *462:10 *463:14 0
9 *462:10 *478:10 0
10 *462:10 *692:10 0
11 *462:10 *692:18 0
12 *462:10 *692:27 0
13 *462:10 *692:39 3.29527e-06
14 *462:10 *723:38 6.75467e-06
15 *462:10 *732:8 0
16 *462:10 *756:10 0
17 *462:10 *800:8 9.46253e-06
18 *462:10 *819:42 1.26641e-06
19 *462:10 *825:45 9.03277e-07
20 *462:10 *825:51 7.93357e-05
21 *462:10 *846:55 4.23627e-06
22 *462:10 *860:24 1.33702e-06
23 *462:10 *865:87 2.33013e-06
24 *462:10 *880:23 3.97423e-06
25 *1353:B1 *462:10 2.50902e-06
26 *1859:A *462:10 4.72148e-06
27 *132:10 *462:10 9.49065e-05
28 *266:20 *462:10 1.49407e-08
29 *286:20 *462:10 2.34802e-05
30 *292:10 *462:10 0
31 *292:20 *462:10 0
32 *387:10 *462:10 3.95057e-06
33 *388:8 *462:10 2.59962e-07
34 *401:10 *462:10 3.97893e-05
*RES
1 *1374:Y *462:8 37.0741 
2 *462:8 *462:10 150.365 
3 *462:10 *1375:C 41.3527 
*END

*D_NET *463 0.000265338
*CONN
*I *1378:B I *D OR2x2_ASAP7_75t_SL
*I *1698:A I *D BUFx3_ASAP7_75t_SL
*I *1393:C I *D NAND3x1_ASAP7_75t_SL
*I *1376:Y O *D AND4x1_ASAP7_75t_SL
*CAP
1 *1378:B 2.64861e-05
2 *1698:A 0
3 *1393:C 0
4 *1376:Y 5.04504e-05
5 *463:21 3.0794e-05
6 *463:14 2.63741e-05
7 *463:8 3.0682e-05
8 *463:6 5.04504e-05
9 *1378:B *708:29 0
10 *1378:B *730:8 0
11 *1378:B *795:18 0
12 *1378:B *865:87 0
13 *463:6 *865:79 3.28582e-06
14 *463:6 *865:87 3.57058e-05
15 *463:14 *692:39 0
16 *463:14 *795:24 0
17 *463:21 *730:8 0
18 *463:21 *865:87 0
19 *1376:D *463:6 5.08828e-06
20 *35:8 *1378:B 0
21 *132:10 *1378:B 0
22 *346:6 *463:14 6.0212e-06
23 *462:10 *463:14 0
*RES
1 *1376:Y *463:6 42.3368 
2 *463:6 *463:8 17.2 
3 *463:8 *463:14 35.5578 
4 *463:14 *1393:C 17.2 
5 *463:8 *463:21 2.81583 
6 *463:21 *1698:A 34.4 
7 *463:21 *1378:B 48.1107 
*END

*D_NET *464 3.95009e-05
*CONN
*I *1379:A2 I *D OAI21x1_ASAP7_75t_SL
*I *1377:Y O *D NAND2x1_ASAP7_75t_SL
*CAP
1 *1379:A2 4.86891e-06
2 *1377:Y 6.47775e-06
3 *464:8 1.13467e-05
4 *464:8 *465:8 1.34402e-05
5 *464:8 *692:45 6.33206e-07
6 *464:8 *708:19 2.18135e-06
7 *464:8 *795:24 5.52807e-07
*RES
1 *1377:Y *464:8 41.158 
2 *464:8 *1379:A2 37.0741 
*END

*D_NET *465 6.21069e-05
*CONN
*I *1379:B I *D OAI21x1_ASAP7_75t_SL
*I *1378:Y O *D OR2x2_ASAP7_75t_SL
*CAP
1 *1379:B 3.23784e-06
2 *1378:Y 1.93375e-05
3 *465:8 2.25753e-05
4 *1379:B *692:39 6.7842e-07
5 *465:8 *708:19 0
6 *465:8 *795:18 6.40748e-07
7 *465:8 *795:24 2.19685e-06
8 *464:8 *465:8 1.34402e-05
*RES
1 *1378:Y *465:8 47.3528 
2 *465:8 *1379:B 36.0045 
*END

*D_NET *466 0.000410054
*CONN
*I *1385:A2 I *D AO22x1_ASAP7_75t_SL
*I *1379:Y O *D OAI21x1_ASAP7_75t_SL
*CAP
1 *1385:A2 0
2 *1379:Y 1.40071e-05
3 *466:18 1.03328e-05
4 *466:12 4.21843e-05
5 *466:10 3.18515e-05
6 *466:8 1.40071e-05
7 *466:8 *1393:A 1.64348e-06
8 *466:8 *692:45 2.01457e-05
9 *466:8 *708:19 0
10 *466:8 *795:24 1.62666e-05
11 *466:12 *1387:B 5.85387e-06
12 *466:12 *794:14 0.000125532
13 *466:18 *1392:A2 6.33206e-07
14 *466:18 *705:58 6.33206e-07
15 *466:18 *794:27 1.182e-05
16 *466:18 *860:32 5.37866e-07
17 *357:14 *466:12 7.22766e-05
18 *357:18 *466:12 4.17794e-05
19 *388:62 *466:18 5.49212e-07
*RES
1 *1379:Y *466:8 48.4791 
2 *466:8 *466:10 17.2 
3 *466:10 *466:12 43.3208 
4 *466:12 *466:18 42.2843 
5 *466:18 *1385:A2 17.2 
*END

*D_NET *467 6.15529e-05
*CONN
*I *1381:B I *D XNOR2x2_ASAP7_75t_SL
*I *1380:Y O *D OR3x1_ASAP7_75t_SL
*CAP
1 *1381:B 1.51624e-05
2 *1380:Y 1.51624e-05
3 *1381:B *1380:B 2.01215e-05
4 *1381:B *1381:A 5.85387e-06
5 *447:12 *1381:B 5.25278e-06
*RES
1 *1380:Y *1381:B 46.1661 
*END

*D_NET *468 0.000367556
*CONN
*I *1391:B1 I *D AO32x1_ASAP7_75t_SL
*I *1384:A3 I *D AO32x1_ASAP7_75t_SL
*I *1381:Y O *D XNOR2x2_ASAP7_75t_SL
*CAP
1 *1391:B1 0
2 *1384:A3 0
3 *1381:Y 3.41184e-05
4 *468:29 9.62091e-06
5 *468:14 1.64627e-05
6 *468:10 3.69654e-05
7 *468:8 6.4242e-05
8 *468:8 *745:16 4.17901e-06
9 *468:10 *476:10 2.95689e-05
10 *468:10 *476:18 3.8917e-06
11 *468:10 *719:16 4.74248e-06
12 *468:10 *769:72 1.34329e-05
13 *468:10 *769:89 3.62817e-05
14 *468:29 *1391:A1 1.62383e-05
15 *468:29 *1395:C 5.62196e-06
16 *468:29 *719:16 1.15587e-05
17 *468:29 *769:60 6.45149e-06
18 *468:29 *769:66 8.33296e-06
19 *468:29 *863:10 4.22975e-06
20 *200:26 *468:10 1.66587e-05
21 *272:32 *468:10 0
22 *403:51 *468:29 5.62196e-06
23 *441:10 *468:10 3.93362e-05
24 *447:12 *468:8 0
*RES
1 *1381:Y *468:8 48.8403 
2 *468:8 *468:10 35.4795 
3 *468:10 *468:14 20.409 
4 *468:14 *1384:A3 17.2 
5 *468:14 *468:29 46.0848 
6 *468:29 *1391:B1 17.2 
*END

*D_NET *469 0.00037564
*CONN
*I *1383:B I *D XNOR2x2_ASAP7_75t_SL
*I *991:A2 I *D OA21x2_ASAP7_75t_SL
*I *992:C I *D NOR3x1_ASAP7_75t_SL
*I *1382:Y O *D OR3x1_ASAP7_75t_SL
*CAP
1 *1383:B 3.27473e-06
2 *991:A2 0
3 *992:C 0
4 *1382:Y 0
5 *469:38 3.79002e-05
6 *469:25 1.79813e-05
7 *469:12 5.74806e-05
8 *469:8 9.25434e-05
9 *469:6 1.84186e-05
10 *1383:B *828:8 1.32768e-05
11 *1383:B *843:78 3.75158e-06
12 *469:8 *602:8 3.3833e-06
13 *469:8 *655:37 0
14 *469:8 *812:79 1.13395e-06
15 *469:8 *843:78 0
16 *469:8 *849:8 1.26417e-05
17 *469:25 *991:B 7.49203e-06
18 *469:25 *835:16 1.03717e-05
19 *469:25 *843:91 2.87968e-06
20 *469:38 *843:78 2.47522e-06
21 *1711:A *469:12 2.30405e-06
22 *84:39 *469:8 3.75414e-05
23 *84:47 *469:8 2.62918e-05
24 *334:10 *469:8 2.44981e-05
*RES
1 *1382:Y *469:6 34.4 
2 *469:6 *469:8 23.653 
3 *469:8 *469:12 37.5233 
4 *469:12 *992:C 17.2 
5 *469:12 *469:25 48.7589 
6 *469:25 *991:A2 17.2 
7 *469:8 *469:38 48.4472 
8 *469:38 *1383:B 38.9053 
*END

*D_NET *470 0.000264209
*CONN
*I *1384:B1 I *D AO32x1_ASAP7_75t_SL
*I *1383:Y O *D XNOR2x2_ASAP7_75t_SL
*CAP
1 *1384:B1 1.22624e-05
2 *1383:Y 0
3 *470:14 3.83957e-05
4 *470:8 8.77785e-05
5 *470:6 6.16451e-05
6 *1384:B1 *719:6 2.20493e-06
7 *1384:B1 *863:10 0
8 *470:8 *712:8 1.63733e-06
9 *470:8 *712:14 2.77657e-06
10 *470:8 *745:57 2.25787e-06
11 *470:8 *763:71 3.73518e-07
12 *470:8 *828:8 0
13 *470:8 *863:98 3.05118e-08
14 *1384:B2 *1384:B1 6.92634e-06
15 *200:20 *1384:B1 0
16 *270:18 *470:8 4.83862e-06
17 *270:20 *470:14 4.09005e-05
18 *272:20 *470:8 2.18135e-06
19 *429:14 *470:8 0
20 *442:10 *470:8 0
*RES
1 *1383:Y *470:6 34.4 
2 *470:6 *470:8 46.1796 
3 *470:8 *470:14 47.7706 
4 *470:14 *1384:B1 43.7754 
*END

*D_NET *471 0.000639892
*CONN
*I *1385:B2 I *D AO22x1_ASAP7_75t_SL
*I *1384:Y O *D AO32x1_ASAP7_75t_SL
*CAP
1 *1385:B2 0
2 *1384:Y 0
3 *471:16 7.10897e-05
4 *471:14 7.88724e-05
5 *471:8 7.40962e-05
6 *471:6 6.63135e-05
7 *471:8 *1391:A1 9.28241e-06
8 *471:8 *477:10 9.95052e-06
9 *471:8 *693:26 3.6269e-06
10 *471:8 *719:16 7.84037e-07
11 *471:8 *769:72 2.28512e-05
12 *471:8 *802:14 3.35859e-05
13 *471:8 *863:10 0
14 *471:14 *856:21 5.0551e-07
15 *471:16 *477:10 3.47739e-05
16 *471:16 *692:27 0
17 *471:16 *705:36 8.14727e-06
18 *471:16 *797:14 1.15945e-06
19 *471:16 *797:20 9.97906e-07
20 *471:16 *802:14 2.27118e-05
21 *471:16 *802:25 5.08429e-05
22 *471:16 *819:54 5.49212e-07
23 *471:16 *860:32 4.70422e-06
24 *287:49 *471:16 4.91588e-06
25 *287:60 *471:16 5.04548e-05
26 *292:39 *471:8 2.98814e-07
27 *388:54 *471:16 4.78453e-06
28 *388:62 *471:16 1.63973e-05
29 *398:31 *471:16 3.35946e-05
30 *398:46 *471:16 9.08735e-06
31 *399:12 *471:8 1.30736e-05
32 *402:10 *471:8 4.10928e-06
33 *437:8 *471:16 0
34 *461:8 *471:8 8.33112e-06
*RES
1 *1384:Y *471:6 34.4 
2 *471:6 *471:8 60.8219 
3 *471:8 *471:14 37.0741 
4 *471:14 *471:16 73.2116 
5 *471:16 *1385:B2 34.4 
*END

*D_NET *472 0.000120188
*CONN
*I *1388:A2 I *D AO21x1_ASAP7_75t_SL
*I *1386:Y O *D AND3x1_ASAP7_75t_SL
*CAP
1 *1388:A2 4.61942e-06
2 *1386:Y 3.42149e-05
3 *472:8 3.88343e-05
4 *472:8 *1388:B 2.0895e-06
5 *472:8 *474:8 3.65092e-05
6 *452:18 *1388:A2 3.92018e-06
*RES
1 *1386:Y *472:8 48.8403 
2 *472:8 *1388:A2 38.2855 
*END

*D_NET *473 0.000115151
*CONN
*I *1388:B I *D AO21x1_ASAP7_75t_SL
*I *1387:Y O *D AOI21x1_ASAP7_75t_SL
*CAP
1 *1388:B 1.40859e-05
2 *1387:Y 1.91561e-05
3 *473:8 3.3242e-05
4 *473:8 *767:10 4.56834e-06
5 *473:8 *794:33 0
6 *1735:A *1388:B 4.94291e-06
7 *346:24 *1388:B 3.70657e-05
8 *452:18 *1388:B 0
9 *472:8 *1388:B 2.0895e-06
*RES
1 *1387:Y *473:8 41.3527 
2 *473:8 *1388:B 49.4638 
*END

*D_NET *474 0.00016513
*CONN
*I *1392:A2 I *D AO22x1_ASAP7_75t_SL
*I *1388:Y O *D AO21x1_ASAP7_75t_SL
*CAP
1 *1392:A2 2.26988e-05
2 *1388:Y 1.83234e-05
3 *474:8 4.10222e-05
4 *1392:A2 *1385:A1 6.71283e-06
5 *1392:A2 *1392:B2 4.05232e-06
6 *1392:A2 *705:22 1.04475e-06
7 *1392:A2 *819:54 1.34402e-05
8 *474:8 *1385:A1 1.58373e-06
9 *474:8 *1386:A 1.78854e-06
10 *474:8 *1386:B 1.61512e-05
11 *1392:B1 *1392:A2 1.16945e-06
12 *466:18 *1392:A2 6.33206e-07
13 *472:8 *474:8 3.65092e-05
*RES
1 *1388:Y *474:8 47.2358 
2 *474:8 *1392:A2 49.2937 
*END

*D_NET *475 7.06133e-05
*CONN
*I *1390:B I *D XNOR2x2_ASAP7_75t_SL
*I *1007:A2 I *D OA21x2_ASAP7_75t_SL
*I *1389:Y O *D OR5x1_ASAP7_75t_SL
*CAP
1 *1390:B 0
2 *1007:A2 1.16648e-05
3 *1389:Y 9.40963e-06
4 *475:10 2.10744e-05
5 *1007:A2 *1007:B 2.97289e-06
6 *1007:A2 *841:35 8.51183e-06
7 *475:10 *842:28 5.22486e-06
8 *475:10 *843:37 5.62196e-06
9 *83:10 *1007:A2 3.38681e-06
10 *83:10 *475:10 2.74606e-06
*RES
1 *1389:Y *475:10 41.6361 
2 *475:10 *1007:A2 44.4236 
3 *475:10 *1390:B 34.4 
*END

*D_NET *476 0.00064362
*CONN
*I *1395:C I *D AND3x1_ASAP7_75t_SL
*I *1391:A3 I *D AO32x1_ASAP7_75t_SL
*I *1390:Y O *D XNOR2x2_ASAP7_75t_SL
*CAP
1 *1395:C 2.88863e-05
2 *1391:A3 0
3 *1390:Y 2.53534e-05
4 *476:22 3.44801e-05
5 *476:18 3.82832e-05
6 *476:16 3.64156e-05
7 *476:10 7.69217e-05
8 *476:8 7.31955e-05
9 *476:6 2.53534e-05
10 *1395:C *1391:A1 1.36155e-06
11 *1395:C *1391:A2 7.57325e-06
12 *476:6 *812:33 3.47348e-05
13 *476:6 *812:39 4.87536e-05
14 *476:6 *812:43 2.03526e-06
15 *476:6 *843:60 1.52651e-06
16 *476:6 *844:24 9.75735e-06
17 *476:6 *844:37 2.20493e-06
18 *476:10 *655:47 0
19 *476:10 *700:8 1.67815e-06
20 *476:10 *745:22 5.52807e-07
21 *476:10 *746:73 0
22 *476:10 *812:39 8.06436e-06
23 *476:10 *843:66 0
24 *476:10 *845:10 1.00654e-05
25 *476:18 *745:22 1.67361e-06
26 *476:18 *763:24 1.08749e-05
27 *476:18 *769:72 1.14673e-05
28 *476:22 *1391:A2 3.90258e-06
29 *1391:B2 *1395:C 7.35354e-06
30 *1395:B *1395:C 5.62196e-06
31 *200:26 *476:18 7.09459e-06
32 *212:30 *1395:C 1.25483e-05
33 *272:34 *476:16 3.68287e-06
34 *272:40 *476:16 5.62196e-06
35 *272:40 *476:18 0
36 *403:51 *1395:C 8.57464e-06
37 *403:51 *476:22 4.07052e-06
38 *441:10 *476:10 3.46769e-06
39 *457:10 *476:18 3.52131e-05
40 *461:8 *476:18 1.61727e-05
41 *468:10 *476:10 2.95689e-05
42 *468:10 *476:18 3.8917e-06
43 *468:29 *1395:C 5.62196e-06
*RES
1 *1390:Y *476:6 41.2671 
2 *476:6 *476:8 17.2 
3 *476:8 *476:10 57.4429 
4 *476:10 *476:16 37.0741 
5 *476:16 *476:18 35.4795 
6 *476:18 *476:22 20.409 
7 *476:22 *1391:A3 17.2 
8 *476:22 *1395:C 40.1975 
*END

*D_NET *477 0.000577457
*CONN
*I *1392:B2 I *D AO22x1_ASAP7_75t_SL
*I *1391:Y O *D AO32x1_ASAP7_75t_SL
*CAP
1 *1392:B2 1.67459e-05
2 *1391:Y 4.22933e-06
3 *477:16 2.68701e-05
4 *477:10 0.000126947
5 *477:8 0.000121052
6 *1392:B2 *705:22 1.39182e-06
7 *1392:B2 *705:28 1.87645e-05
8 *1392:B2 *819:54 9.61945e-08
9 *477:10 *802:14 5.58366e-06
10 *477:10 *857:10 1.55629e-05
11 *477:10 *857:25 4.35576e-08
12 *477:10 *865:33 0
13 *477:16 *705:36 8.92288e-06
14 *1392:A2 *1392:B2 4.05232e-06
15 *185:42 *1392:B2 2.00142e-07
16 *287:60 *477:10 2.29684e-05
17 *346:51 *477:10 9.39338e-05
18 *388:16 *477:10 3.54789e-06
19 *388:37 *1392:B2 1.56402e-06
20 *388:37 *477:10 7.02841e-06
21 *398:31 *477:10 3.3856e-05
22 *403:51 *477:8 0
23 *457:10 *477:10 1.36943e-05
24 *461:8 *477:10 5.67735e-06
25 *471:8 *477:10 9.95052e-06
26 *471:16 *477:10 3.47739e-05
*RES
1 *1391:Y *477:8 36.0045 
2 *477:8 *477:10 105.875 
3 *477:10 *477:16 40.2831 
4 *477:16 *1392:B2 46.733 
*END

*D_NET *478 0.000374363
*CONN
*I *1394:A2 I *D OA211x2_ASAP7_75t_SL
*I *1393:Y O *D NAND3x1_ASAP7_75t_SL
*CAP
1 *1394:A2 7.07433e-06
2 *1393:Y 8.38185e-06
3 *478:10 8.7184e-05
4 *478:8 8.84916e-05
5 *478:8 *795:24 1.56713e-06
6 *478:10 *1393:A 0
7 *478:10 *689:53 8.60306e-07
8 *478:10 *689:64 6.10236e-08
9 *478:10 *738:12 1.4472e-05
10 *478:10 *756:10 0
11 *478:10 *794:10 0
12 *478:10 *819:36 0
13 *1049:B *478:10 1.30114e-05
14 *1762:A *478:10 5.19498e-06
15 *33:29 *478:10 0
16 *183:20 *478:10 0
17 *185:10 *478:10 0
18 *192:8 *1394:A2 1.07377e-06
19 *287:89 *478:10 1.30795e-06
20 *346:6 *478:8 0
21 *400:10 *1394:A2 2.12481e-06
22 *400:10 *478:10 1.96448e-05
23 *442:18 *478:10 0.000123913
24 *462:10 *478:10 0
*RES
1 *1393:Y *478:8 38.1438 
2 *478:8 *478:10 73.2116 
3 *478:10 *1394:A2 38.6786 
*END

*D_NET *479 0.000138967
*CONN
*I *1400:B I *D OR3x1_ASAP7_75t_SL
*I *1394:Y O *D OA211x2_ASAP7_75t_SL
*CAP
1 *1400:B 0
2 *1394:Y 0
3 *479:12 2.35022e-05
4 *479:6 2.35022e-05
5 *479:12 *1400:C 7.35354e-06
6 *479:12 *1860:A 1.08639e-05
7 *479:12 *706:8 6.49127e-06
8 *479:12 *885:8 0
9 *377:10 *479:12 2.98814e-08
10 *430:10 *479:12 4.82501e-05
11 *430:18 *479:12 1.89739e-05
*RES
1 *1394:Y *479:6 34.4 
2 *479:6 *479:12 41.8659 
3 *479:12 *1400:B 17.2 
*END

*D_NET *480 3.26479e-05
*CONN
*I *1397:A2 I *D OA211x2_ASAP7_75t_SL
*I *1395:Y O *D AND3x1_ASAP7_75t_SL
*CAP
1 *1397:A2 1.68604e-06
2 *1395:Y 1.24692e-05
3 *480:10 1.41552e-05
4 *1397:A2 *1397:A1 1.44167e-06
5 *480:10 *820:181 0
6 *212:30 *480:10 2.89575e-06
*RES
1 *1395:Y *480:10 42.7058 
2 *480:10 *1397:A2 35.4697 
*END

*D_NET *481 0.000499966
*CONN
*I *1397:A1 I *D OA211x2_ASAP7_75t_SL
*I *1396:Y O *D OA211x2_ASAP7_75t_SL
*CAP
1 *1397:A1 1.00497e-05
2 *1396:Y 5.60962e-06
3 *481:20 1.27915e-05
4 *481:14 5.77889e-05
5 *481:8 6.06567e-05
6 *1397:A1 *717:30 5.58379e-05
7 *481:8 *793:6 4.73997e-05
8 *481:8 *844:156 4.76072e-05
9 *481:14 *844:156 0
10 *481:20 *863:10 1.32767e-06
11 *1363:A2 *481:14 0
12 *1374:C *1397:A1 3.70102e-05
13 *1397:A2 *1397:A1 1.44167e-06
14 *1:57 *481:14 0
15 *282:40 *481:14 0.000140847
16 *403:14 *481:14 0
17 *423:8 *481:14 8.42712e-06
18 *447:16 *481:14 1.31716e-05
*RES
1 *1396:Y *481:8 48.8403 
2 *481:8 *481:14 47.6723 
3 *481:14 *481:20 36.1834 
4 *481:20 *1397:A1 34.3144 
*END

*D_NET *482 0.000210757
*CONN
*I *1400:A I *D OR3x1_ASAP7_75t_SL
*I *1397:Y O *D OA211x2_ASAP7_75t_SL
*CAP
1 *1400:A 0
2 *1397:Y 1.92543e-05
3 *482:12 2.26908e-05
4 *482:8 4.1945e-05
5 *482:8 *717:22 1.46293e-05
6 *482:12 *706:8 9.29587e-06
7 *482:12 *706:12 9.77825e-06
8 *268:64 *482:12 4.07882e-06
9 *430:10 *482:12 8.90847e-05
*RES
1 *1397:Y *482:8 44.5617 
2 *482:8 *482:12 47.0478 
3 *482:12 *1400:A 17.2 
*END

*D_NET *483 6.76233e-05
*CONN
*I *1399:B I *D OA21x2_ASAP7_75t_SL
*I *1398:Y O *D AND3x1_ASAP7_75t_SL
*CAP
1 *1399:B 1.37099e-05
2 *1398:Y 8.51779e-06
3 *483:8 2.22277e-05
4 *1399:B *689:53 5.52807e-07
5 *1399:B *820:197 1.5053e-05
6 *483:8 *820:193 5.19552e-07
7 *288:16 *1399:B 3.47607e-06
8 *288:16 *483:8 3.56648e-06
9 *430:10 *1399:B 0
*RES
1 *1398:Y *483:8 39.2134 
2 *483:8 *1399:B 45.6633 
*END

*D_NET *484 3.41703e-05
*CONN
*I *1400:C I *D OR3x1_ASAP7_75t_SL
*I *1399:Y O *D OA21x2_ASAP7_75t_SL
*CAP
1 *1400:C 1.34084e-05
2 *1399:Y 1.34084e-05
3 *479:12 *1400:C 7.35354e-06
*RES
1 *1399:Y *1400:C 41.3527 
*END

*D_NET *485 0.000329517
*CONN
*I *1403:C I *D OR3x1_ASAP7_75t_SL
*I *1723:A I *D BUFx3_ASAP7_75t_SL
*I *1436:C I *D OR3x2_ASAP7_75t_SL
*I *1402:Y O *D NAND2x1_ASAP7_75t_SL
*CAP
1 *1403:C 0
2 *1723:A 0
3 *1436:C 8.32621e-06
4 *1402:Y 7.71945e-06
5 *485:34 1.04333e-05
6 *485:14 1.04922e-05
7 *485:12 4.27806e-05
8 *485:10 3.01813e-05
9 *485:8 7.71945e-06
10 *1436:C *514:8 6.70433e-06
11 *1436:C *750:6 6.7842e-07
12 *485:8 *629:8 6.63372e-06
13 *485:8 *663:25 0
14 *485:8 *886:10 6.33206e-07
15 *485:12 *654:14 2.03412e-05
16 *485:12 *728:99 0.000110131
17 *485:12 *750:6 2.03997e-06
18 *485:14 *750:6 1.35684e-06
19 *485:34 *647:8 3.00843e-05
20 *485:34 *677:18 3.47607e-06
21 *485:34 *750:14 9.67723e-06
22 *485:34 *750:22 0
23 *1436:B *1436:C 6.7842e-07
24 *74:12 *485:12 1.94299e-05
*RES
1 *1402:Y *485:8 40.0317 
2 *485:8 *485:10 17.2 
3 *485:10 *485:12 34.7636 
4 *485:12 *485:14 1.60448 
5 *485:14 *1436:C 24.1527 
6 *485:14 *1723:A 17.2 
7 *485:12 *485:34 45.6066 
8 *485:34 *1403:C 17.2 
*END

*D_NET *486 0.000468816
*CONN
*I *1696:A I *D BUFx6f_ASAP7_75t_SL
*I *1447:C I *D AND5x2_ASAP7_75t_SL
*I *1403:Y O *D OR3x1_ASAP7_75t_SL
*CAP
1 *1696:A 0
2 *1447:C 0
3 *1403:Y 5.18298e-06
4 *486:41 1.07571e-05
5 *486:26 1.94554e-05
6 *486:20 3.41932e-05
7 *486:16 2.25587e-05
8 *486:12 6.26378e-05
9 *486:8 4.92427e-05
10 *486:8 *632:12 6.80131e-06
11 *486:8 *647:8 6.80131e-06
12 *486:12 *552:6 2.91071e-05
13 *486:16 *493:10 0
14 *486:16 *524:65 5.52223e-05
15 *486:20 *489:16 7.06574e-06
16 *486:20 *553:6 1.85565e-05
17 *486:26 *950:C 1.14488e-05
18 *486:26 *1447:B 0
19 *486:26 *489:16 1.70438e-05
20 *486:26 *553:6 6.52266e-05
21 *486:26 *781:8 0
22 *486:26 *827:96 1.95817e-05
23 *486:41 *493:10 2.28845e-05
24 *486:41 *524:12 5.04815e-06
*RES
1 *1403:Y *486:8 40.0317 
2 *486:8 *486:12 48.7547 
3 *486:12 *486:16 35.7845 
4 *486:16 *486:20 22.0134 
5 *486:20 *486:26 42.6769 
6 *486:26 *1447:C 34.4 
7 *486:20 *486:41 43.354 
8 *486:41 *1696:A 17.2 
*END

*D_NET *487 0.000142422
*CONN
*P prescale[13] I
*I *1404:A I *D BUFx2_ASAP7_75t_SL
*CAP
1 prescale[13] 5.66849e-05
2 *1404:A 3.09141e-06
3 *487:9 5.97763e-05
4 *1404:A *652:6 8.17002e-07
5 *487:9 *509:9 1.02633e-06
6 *487:9 *511:9 2.10259e-05
7 *487:9 *660:12 0
8 *340:11 *487:9 0
9 *448:9 *487:9 0
10 *455:9 *487:9 0
*RES
1 prescale[13] *487:9 45.3788 
2 *487:9 *1404:A 36.0045 
*END

*D_NET *488 0.000171655
*CONN
*I *1406:E I *D AND5x2_ASAP7_75t_SL
*I *1722:A I *D BUFx3_ASAP7_75t_SL
*I *1405:Y O *D AND2x2_ASAP7_75t_SL
*CAP
1 *1406:E 1.88296e-05
2 *1722:A 0
3 *1405:Y 2.81809e-05
4 *488:10 2.34533e-05
5 *488:6 3.28047e-05
6 *1406:E *493:21 0
7 *1406:E *496:10 0
8 *1406:E *882:10 5.06565e-06
9 *1406:E *891:31 3.875e-06
10 *488:6 *945:A 5.73392e-05
11 *488:6 *557:12 1.52651e-06
12 *488:10 *493:21 0
13 *488:10 *891:31 5.79724e-07
*RES
1 *1405:Y *488:6 39.1278 
2 *488:6 *488:10 20.0158 
3 *488:10 *1722:A 34.4 
4 *488:10 *1406:E 48.4225 
*END

*D_NET *489 0.000447832
*CONN
*I *1851:A I *D BUFx6f_ASAP7_75t_SL
*I *923:B I *D AND3x1_ASAP7_75t_SL
*I *1410:A I *D NAND2x1p5_ASAP7_75t_SL
*I *950:C I *D AND3x1_ASAP7_75t_SL
*I *1406:Y O *D AND5x2_ASAP7_75t_SL
*CAP
1 *1851:A 5.80317e-06
2 *923:B 4.96906e-06
3 *1410:A 0
4 *950:C 1.409e-05
5 *1406:Y 0
6 *489:16 5.37279e-05
7 *489:10 5.41942e-05
8 *489:8 4.23021e-05
9 *489:6 2.69117e-05
10 *923:B *923:A 1.2768e-05
11 *923:B *553:6 1.44639e-06
12 *950:C *553:6 2.6409e-06
13 *950:C *576:10 5.85387e-06
14 *1851:A *727:23 2.40241e-05
15 *1851:A *890:12 9.33789e-06
16 *489:8 *514:10 9.0554e-05
17 *489:8 *726:12 8.18314e-06
18 *489:8 *750:52 1.35961e-06
19 *489:8 *750:69 0
20 *489:10 *514:10 2.45772e-05
21 *489:10 *726:12 2.28839e-06
22 *489:16 *923:A 2.28976e-06
23 *489:16 *923:C 7.35354e-06
24 *489:16 *493:8 4.22446e-06
25 *489:16 *514:8 2.12481e-06
26 *489:16 *514:10 4.7461e-06
27 *489:16 *553:6 3.68565e-06
28 *489:16 *726:12 3.05118e-08
29 *1439:B *489:8 5.49212e-07
30 *1684:A *489:8 5.38904e-07
31 *225:66 *489:8 1.69875e-06
32 *486:20 *489:16 7.06574e-06
33 *486:26 *950:C 1.14488e-05
34 *486:26 *489:16 1.70438e-05
*RES
1 *1406:Y *489:6 34.4 
2 *489:6 *489:8 30.9741 
3 *489:8 *489:10 9.01066 
4 *489:10 *489:16 48.3049 
5 *489:16 *950:C 28.9662 
6 *489:16 *1410:A 17.2 
7 *489:10 *923:B 41.3527 
8 *489:8 *1851:A 41.3527 
*END

*D_NET *490 0.000427193
*CONN
*I *1408:C I *D AND3x2_ASAP7_75t_SL
*I *1721:A I *D BUFx3_ASAP7_75t_SL
*I *1407:Y O *D AND5x1_ASAP7_75t_SL
*CAP
1 *1408:C 0
2 *1721:A 0
3 *1407:Y 2.01871e-05
4 *490:43 2.23473e-05
5 *490:35 4.66843e-05
6 *490:31 4.6128e-05
7 *490:23 4.98693e-05
8 *490:12 3.91209e-05
9 *490:8 3.12298e-05
10 *490:8 *1665:A 1.50153e-05
11 *490:12 *565:18 0
12 *490:12 *817:78 1.18996e-06
13 *490:23 *553:14 1.96943e-05
14 *490:23 *575:16 8.2174e-07
15 *490:23 *579:18 6.07185e-06
16 *490:23 *753:12 9.47659e-06
17 *490:23 *817:74 2.68933e-07
18 *490:23 *817:78 2.64704e-05
19 *490:31 *577:12 3.09505e-05
20 *490:31 *881:10 1.12901e-05
21 *490:35 *576:16 8.146e-06
22 *490:35 *577:12 2.73214e-05
23 *490:35 *780:8 3.13426e-06
24 *490:43 *951:B 0
25 *490:43 *577:8 5.79724e-07
26 *1408:A *490:43 2.0895e-06
27 *1408:B *490:43 3.05302e-06
28 *12:27 *490:43 1.12894e-06
29 *14:29 *490:35 4.92332e-06
*RES
1 *1407:Y *490:8 49.9099 
2 *490:8 *490:12 23.958 
3 *490:12 *1721:A 17.2 
4 *490:12 *490:23 45.0466 
5 *490:23 *490:31 47.4342 
6 *490:31 *490:35 40.1975 
7 *490:35 *490:43 48.1107 
8 *490:43 *1408:C 17.2 
*END

*D_NET *491 9.15891e-05
*CONN
*I *1695:A I *D BUFx6f_ASAP7_75t_SL
*I *1410:B I *D NAND2x1p5_ASAP7_75t_SL
*I *1408:Y O *D AND3x2_ASAP7_75t_SL
*CAP
1 *1695:A 1.54292e-05
2 *1410:B 0
3 *1408:Y 2.0614e-05
4 *491:12 5.04691e-06
5 *491:6 4.10902e-05
6 *491:12 *493:10 0
7 *491:12 *781:8 5.67735e-06
8 *1408:B *491:6 3.73144e-06
*RES
1 *1408:Y *491:6 26.292 
2 *491:6 *491:12 38.9053 
3 *491:12 *1410:B 17.2 
4 *491:6 *1695:A 22.5483 
*END

*D_NET *492 0.000493042
*CONN
*I *1412:A2 I *D OA211x2_ASAP7_75t_SL
*I *1413:B I *D NOR2x1_ASAP7_75t_SL
*I *1429:A2 I *D OA211x2_ASAP7_75t_SL
*I *1409:Y O *D AND3x4_ASAP7_75t_SL
*CAP
1 *1412:A2 4.86718e-06
2 *1413:B 3.32884e-06
3 *1429:A2 0
4 *1409:Y 2.03315e-05
5 *492:32 3.23006e-05
6 *492:26 4.11421e-05
7 *492:18 3.59464e-05
8 *492:14 3.92837e-05
9 *492:10 3.0972e-05
10 *1412:A2 *1412:A1 1.17077e-05
11 *1413:B *1425:C 5.51397e-07
12 *492:10 *499:47 5.37569e-06
13 *492:10 *728:118 1.33022e-05
14 *492:14 *1412:A1 1.95129e-06
15 *492:14 *1456:A 2.50966e-05
16 *492:18 *499:30 0
17 *492:18 *499:47 0
18 *492:18 *507:14 0
19 *492:18 *894:25 6.74186e-05
20 *492:26 *721:10 3.3921e-06
21 *492:32 *1428:A1 1.64764e-06
22 *492:32 *1429:B 8.3281e-06
23 *492:32 *503:53 1.47272e-05
24 *492:32 *714:10 0
25 *1689:A *492:26 2.12481e-06
26 *73:24 *492:18 1.34257e-05
27 *73:24 *492:26 2.0153e-05
28 *73:24 *492:32 6.8435e-06
29 *73:32 *492:32 4.45497e-05
30 *73:34 *492:32 0
31 *74:8 *492:18 1.64348e-06
32 *74:12 *492:10 3.03035e-05
33 *262:71 *492:18 4.10928e-06
34 *262:71 *492:26 8.21855e-06
*RES
1 *1409:Y *492:10 47.9974 
2 *492:10 *492:14 25.2224 
3 *492:14 *492:18 43.1056 
4 *492:18 *492:26 43.8321 
5 *492:26 *492:32 41.6639 
6 *492:32 *1429:A2 17.2 
7 *492:18 *1413:B 36.0045 
8 *492:14 *1412:A2 20.409 
*END

*D_NET *493 0.000646693
*CONN
*I *1820:A I *D BUFx3_ASAP7_75t_SL
*I *1821:A I *D BUFx6f_ASAP7_75t_SL
*I *1866:A I *D BUFx3_ASAP7_75t_SL
*I *1410:Y O *D NAND2x1p5_ASAP7_75t_SL
*CAP
1 *1820:A 1.03793e-05
2 *1821:A 0
3 *1866:A 0
4 *1410:Y 5.98434e-06
5 *493:52 2.42598e-05
6 *493:39 3.5313e-05
7 *493:35 8.89675e-05
8 *493:29 6.93677e-05
9 *493:23 3.77838e-05
10 *493:21 4.20017e-05
11 *493:10 4.38383e-05
12 *493:8 4.3772e-05
13 *493:10 *1447:B 0
14 *493:10 *1865:A 4.43244e-06
15 *493:10 *694:8 0
16 *493:10 *781:8 0
17 *493:10 *890:8 0
18 *493:10 *891:10 4.59165e-06
19 *493:23 *1016:A1 1.10486e-05
20 *493:23 *726:8 2.72676e-05
21 *493:23 *754:13 0.000116091
22 *493:29 *969:A2 4.03218e-06
23 *493:29 *647:16 3.05118e-08
24 *493:35 *514:14 0
25 *493:35 *524:94 0
26 *493:35 *722:42 0
27 *493:39 *501:53 5.62196e-06
28 *493:52 *501:53 3.081e-05
29 *493:52 *722:28 0
30 *1105:D *493:35 4.39947e-06
31 *1406:E *493:21 0
32 *1705:A *493:39 3.81627e-06
33 *29:32 *1820:A 5.77516e-06
34 *486:16 *493:10 0
35 *486:41 *493:10 2.28845e-05
36 *488:10 *493:21 0
37 *489:16 *493:8 4.22446e-06
38 *491:12 *493:10 0
*RES
1 *1410:Y *493:8 37.0741 
2 *493:8 *493:10 27.032 
3 *493:10 *1866:A 34.4 
4 *493:10 *493:21 21.1422 
5 *493:21 *493:23 33.694 
6 *493:23 *493:29 35.8079 
7 *493:29 *493:35 44.3242 
8 *493:35 *493:39 30.5706 
9 *493:39 *1821:A 17.2 
10 *493:39 *493:52 47.2111 
11 *493:52 *1820:A 24.1527 
*END

*D_NET *494 3.2417e-05
*CONN
*I *1412:B I *D OA211x2_ASAP7_75t_SL
*I *1411:Y O *D OR3x1_ASAP7_75t_SL
*CAP
1 *1412:B 4.33667e-06
2 *1411:Y 5.59942e-06
3 *494:8 9.93608e-06
4 *1412:B *1412:A1 1.52651e-06
5 *494:8 *820:81 3.3563e-06
6 *1869:A *494:8 5.67735e-06
7 *72:29 *494:8 1.98472e-06
*RES
1 *1411:Y *494:8 40.0317 
2 *494:8 *1412:B 37.0741 
*END

*D_NET *495 4.45814e-05
*CONN
*I *1419:A1 I *D OA21x2_ASAP7_75t_SL
*I *1413:Y O *D NOR2x1_ASAP7_75t_SL
*CAP
1 *1419:A1 9.28433e-06
2 *1413:Y 9.28433e-06
3 *1419:A1 *500:14 4.41457e-06
4 *1419:A1 *820:66 5.85387e-06
5 *1419:A1 *820:262 1.47193e-05
6 *73:22 *1419:A1 1.02506e-06
*RES
1 *1413:Y *1419:A1 41.8876 
*END

*D_NET *496 0.0005317
*CONN
*I *1662:A I *D BUFx3_ASAP7_75t_SL
*I *1417:C I *D AND4x2_ASAP7_75t_SL
*I *1665:A I *D BUFx6f_ASAP7_75t_SL
*I *1414:Y O *D AND4x2_ASAP7_75t_SL
*CAP
1 *1662:A 0
2 *1417:C 0
3 *1665:A 4.50229e-05
4 *1414:Y 2.14626e-05
5 *496:40 4.60087e-05
6 *496:34 2.4276e-05
7 *496:24 3.2666e-05
8 *496:22 1.3578e-05
9 *496:16 2.72541e-05
10 *496:10 5.33709e-05
11 *496:8 5.17818e-05
12 *496:10 *529:55 5.52264e-06
13 *496:10 *753:30 0
14 *496:10 *827:96 2.23994e-05
15 *496:10 *882:10 0
16 *496:10 *891:31 1.92417e-05
17 *496:16 *1447:D 6.7842e-07
18 *496:16 *694:8 0
19 *496:16 *781:12 1.54461e-06
20 *496:16 *827:96 1.13631e-05
21 *496:16 *891:31 6.41585e-07
22 *496:22 *572:10 3.24832e-06
23 *496:22 *753:30 1.11752e-05
24 *496:24 *1417:A 3.90258e-06
25 *496:24 *1447:D 3.57251e-05
26 *496:24 *1447:E 4.41457e-06
27 *496:24 *781:12 4.13593e-05
28 *496:34 *1447:E 1.36155e-06
29 *496:34 *499:114 7.84772e-07
30 *496:34 *524:24 1.95722e-05
31 *496:40 *575:16 5.26713e-06
32 *1406:E *496:10 0
33 *1823:A *496:8 7.89369e-06
34 *15:30 *496:40 5.16782e-06
35 *490:8 *1665:A 1.50153e-05
*RES
1 *1414:Y *496:8 44.5617 
2 *496:8 *496:10 29.8478 
3 *496:10 *496:16 33.1634 
4 *496:16 *496:22 38.3422 
5 *496:22 *496:24 14.9751 
6 *496:24 *496:34 45.0006 
7 *496:34 *496:40 36.1834 
8 *496:40 *1665:A 38.593 
9 *496:24 *1417:C 17.2 
10 *496:10 *1662:A 34.4 
*END

*D_NET *497 0.000172637
*CONN
*P prescale[12] I
*I *1415:A I *D BUFx2_ASAP7_75t_SL
*CAP
1 prescale[12] 4.40561e-05
2 *1415:A 8.73763e-06
3 *497:9 5.27937e-05
4 *448:9 *497:9 6.70498e-05
*RES
1 prescale[12] *497:9 46.5052 
2 *497:9 *1415:A 38.1438 
*END

*D_NET *498 8.43103e-05
*CONN
*I *1447:E I *D AND5x2_ASAP7_75t_SL
*I *1417:D I *D AND4x2_ASAP7_75t_SL
*I *1416:Y O *D AND2x2_ASAP7_75t_SL
*CAP
1 *1447:E 1.00883e-05
2 *1417:D 0
3 *1416:Y 4.79328e-06
4 *498:12 1.53014e-05
5 *498:8 1.00064e-05
6 *1447:E *1417:A 3.90258e-06
7 *1447:E *1417:B 5.41446e-06
8 *1447:E *1447:D 1.10558e-05
9 *498:8 *499:114 1.69273e-05
10 *498:8 *881:10 0
11 *498:12 *499:8 1.04475e-06
12 *229:8 *498:8 0
13 *496:24 *1447:E 4.41457e-06
14 *496:34 *1447:E 1.36155e-06
*RES
1 *1416:Y *498:8 40.0317 
2 *498:8 *498:12 19.8741 
3 *498:12 *1417:D 17.2 
4 *498:12 *1447:E 25.7572 
*END

*D_NET *499 0.00198191
*CONN
*I *903:C I *D AND3x1_ASAP7_75t_SL
*I *957:C I *D OA211x2_ASAP7_75t_SL
*I *1437:C I *D OA211x2_ASAP7_75t_SL
*I *1009:B I *D AND2x2_ASAP7_75t_SL
*I *1418:C I *D AND3x1_ASAP7_75t_SL
*I *1417:Y O *D AND4x2_ASAP7_75t_SL
*CAP
1 *903:C 0
2 *957:C 1.23001e-05
3 *1437:C 1.42037e-06
4 *1009:B 1.4241e-05
5 *1418:C 2.86098e-06
6 *1417:Y 5.80336e-06
7 *499:118 3.202e-05
8 *499:114 7.92866e-05
9 *499:92 1.94646e-05
10 *499:88 9.23185e-05
11 *499:86 8.65744e-05
12 *499:84 2.87846e-05
13 *499:76 5.69307e-05
14 *499:61 2.54679e-05
15 *499:53 5.42672e-05
16 *499:51 4.86272e-05
17 *499:47 6.79157e-05
18 *499:34 2.37689e-05
19 *499:30 4.35622e-05
20 *499:24 5.68369e-05
21 *499:22 9.10945e-05
22 *499:20 9.49212e-05
23 *499:14 0.000186073
24 *499:12 0.000192274
25 *499:8 6.30985e-05
26 *957:C *513:14 7.04562e-06
27 *957:C *515:14 5.0464e-06
28 *957:C *818:115 3.68287e-06
29 *1009:B *1009:A 4.57952e-06
30 *1009:B *592:12 3.65663e-06
31 *499:12 *1101:C 0
32 *499:12 *781:16 0
33 *499:14 *524:20 2.31341e-05
34 *499:14 *524:24 1.06675e-05
35 *499:14 *524:90 0
36 *499:20 *654:16 2.25196e-06
37 *499:20 *823:18 1.20599e-05
38 *499:22 *1409:A 1.23408e-05
39 *499:22 *1409:B 1.10279e-06
40 *499:22 *702:12 4.20803e-06
41 *499:22 *727:61 9.67251e-06
42 *499:22 *728:99 9.78003e-05
43 *499:30 *507:14 1.20741e-05
44 *499:34 *820:62 1.8464e-05
45 *499:34 *820:70 4.45472e-06
46 *499:47 *728:118 3.71852e-06
47 *499:47 *852:8 0
48 *499:47 *883:10 9.67723e-06
49 *499:47 *894:16 2.68933e-07
50 *499:47 *894:25 0
51 *499:51 *722:22 3.56648e-06
52 *499:53 *1864:A 0
53 *499:53 *619:10 0
54 *499:53 *722:28 0
55 *499:53 *852:8 2.68933e-07
56 *499:53 *853:8 0
57 *499:53 *883:10 2.28839e-06
58 *499:61 *529:22 2.0895e-06
59 *499:61 *619:10 0
60 *499:76 *722:22 1.86619e-05
61 *499:76 *820:81 7.43697e-06
62 *499:84 *501:34 0
63 *499:84 *871:20 1.68025e-06
64 *499:88 *514:40 1.29718e-05
65 *499:88 *722:22 3.67396e-05
66 *499:92 *1437:A1 3.05118e-08
67 *499:92 *515:14 1.12894e-06
68 *499:114 *1101:C 0
69 *499:114 *1417:B 0
70 *499:114 *530:12 0
71 *499:114 *854:12 0
72 *499:114 *881:10 0
73 *499:118 *579:16 5.19552e-07
74 *499:118 *882:20 3.73144e-06
75 *1455:B *499:30 3.11702e-05
76 *12:27 *499:14 4.98688e-07
77 *15:12 *499:114 6.68208e-06
78 *15:20 *499:114 0
79 *29:32 *499:88 3.17011e-06
80 *72:16 *499:30 1.56713e-06
81 *74:8 *499:30 9.93857e-06
82 *74:8 *499:47 1.47844e-05
83 *74:12 *499:22 2.52755e-07
84 *75:12 *1418:C 9.425e-07
85 *75:12 *499:34 6.38362e-05
86 *219:10 *499:53 5.06314e-05
87 *219:60 *499:53 5.11055e-05
88 *227:14 *499:14 0
89 *227:18 *499:20 3.79923e-06
90 *229:8 *499:114 0
91 *229:23 *499:114 0
92 *230:8 *499:114 8.2174e-07
93 *262:58 *499:47 0
94 *262:71 *499:34 1.64764e-06
95 *262:88 *499:84 0
96 *492:10 *499:47 5.37569e-06
97 *492:18 *499:30 0
98 *492:18 *499:47 0
99 *496:34 *499:114 7.84772e-07
100 *498:8 *499:114 1.69273e-05
101 *498:12 *499:8 1.04475e-06
*RES
1 *1417:Y *499:8 37.0741 
2 *499:8 *499:12 22.5501 
3 *499:12 *499:14 57.5725 
4 *499:14 *499:20 38.6237 
5 *499:20 *499:22 48.6691 
6 *499:22 *499:24 17.2 
7 *499:24 *499:30 35.1893 
8 *499:30 *499:34 43.1056 
9 *499:34 *1418:C 36.0045 
10 *499:24 *499:47 43.1056 
11 *499:47 *499:51 19.8741 
12 *499:51 *499:53 39.9848 
13 *499:53 *499:61 40.4531 
14 *499:61 *1009:B 41.8876 
15 *499:47 *499:76 33.2926 
16 *499:76 *499:84 44.048 
17 *499:84 *499:86 17.2 
18 *499:86 *499:88 43.3208 
19 *499:88 *499:92 21.1422 
20 *499:92 *1437:C 35.4697 
21 *499:92 *957:C 44.4803 
22 *499:8 *499:114 35.4795 
23 *499:114 *499:118 35.9189 
24 *499:118 *903:C 17.2 
*END

*D_NET *500 0.000111075
*CONN
*I *1419:A2 I *D OA21x2_ASAP7_75t_SL
*I *1418:Y O *D AND3x1_ASAP7_75t_SL
*CAP
1 *1419:A2 0
2 *1418:Y 1.06829e-05
3 *500:14 2.16367e-05
4 *500:8 3.23197e-05
5 *500:14 *820:62 1.39311e-05
6 *500:14 *820:70 1.15587e-05
7 *500:14 *820:262 2.11853e-06
8 *500:14 *871:26 1.64764e-06
9 *500:14 *871:30 3.93602e-06
10 *1419:A1 *500:14 4.41457e-06
11 *73:22 *500:14 8.82914e-06
*RES
1 *1418:Y *500:8 38.1438 
2 *500:8 *500:14 38.8234 
3 *500:14 *1419:A2 17.2 
*END

*D_NET *501 0.000792822
*CONN
*I *1656:A I *D BUFx3_ASAP7_75t_SL
*I *993:C I *D OA211x2_ASAP7_75t_SL
*I *1431:A1 I *D AO21x1_ASAP7_75t_SL
*I *1862:A I *D BUFx3_ASAP7_75t_SL
*I *1423:D I *D AND4x1_ASAP7_75t_SL
*I *1420:Y O *D AND2x4_ASAP7_75t_SL
*CAP
1 *1656:A 1.31056e-05
2 *993:C 2.29241e-06
3 *1431:A1 0
4 *1862:A 8.8389e-06
5 *1423:D 1.176e-05
6 *1420:Y 0
7 *501:57 0.000122183
8 *501:55 0.000106785
9 *501:53 2.64594e-05
10 *501:42 1.09996e-05
11 *501:34 7.25176e-05
12 *501:10 4.13007e-05
13 *501:8 8.85866e-05
14 *501:6 3.28261e-05
15 *1423:D *1423:C 6.33206e-07
16 *1423:D *1427:A 1.33022e-05
17 *1423:D *503:18 0
18 *1656:A *611:8 7.21451e-07
19 *1862:A *887:8 1.76928e-06
20 *501:8 *1420:A 0
21 *501:8 *524:94 0
22 *501:8 *727:51 3.99766e-06
23 *501:8 *728:103 7.02886e-06
24 *501:10 *728:103 1.21168e-05
25 *501:42 *820:70 0
26 *501:42 *820:81 0
27 *501:42 *871:20 4.30517e-07
28 *501:53 *524:94 0
29 *501:53 *722:28 0
30 *501:53 *727:51 4.35576e-08
31 *501:53 *728:103 7.09787e-07
32 *501:53 *737:8 8.2174e-07
33 *501:57 *963:B 0
34 *501:57 *1001:C 7.90021e-06
35 *501:57 *1093:B 1.11578e-05
36 *501:57 *524:94 0
37 *501:57 *619:10 0
38 *501:57 *687:8 1.63973e-05
39 *501:57 *688:8 0
40 *501:57 *728:39 4.67812e-05
41 *501:57 *736:20 0
42 *501:57 *737:8 7.84037e-07
43 *501:57 *823:73 0
44 *1431:A2 *501:42 2.3365e-05
45 *3:12 *1423:D 1.34466e-06
46 *3:12 *501:10 5.52807e-07
47 *29:38 *501:53 3.47607e-06
48 *76:12 *501:10 6.94376e-06
49 *171:8 *501:57 0
50 *217:20 *501:57 1.12894e-06
51 *221:10 *501:57 1.17774e-05
52 *262:52 *501:34 7.73911e-06
53 *262:58 *501:53 0
54 *262:88 *501:34 3.7812e-05
55 *493:39 *501:53 5.62196e-06
56 *493:52 *501:53 3.081e-05
57 *499:84 *501:34 0
*RES
1 *1420:Y *501:6 34.4 
2 *501:6 *501:8 6.28869 
3 *501:8 *501:10 15.6748 
4 *501:10 *1423:D 43.354 
5 *501:10 *1862:A 40.2831 
6 *501:8 *501:34 42.3068 
7 *501:34 *501:42 42.3852 
8 *501:42 *1431:A1 17.2 
9 *501:6 *501:53 38.4586 
10 *501:53 *501:55 17.2 
11 *501:55 *501:57 87.2907 
12 *501:57 *993:C 35.4697 
13 *501:57 *1656:A 42.7625 
*END

*D_NET *502 8.85364e-05
*CONN
*I *1424:A1 I *D OA21x2_ASAP7_75t_SL
*I *1421:Y O *D AOI21x1_ASAP7_75t_SL
*CAP
1 *1424:A1 0
2 *1421:Y 0
3 *502:12 2.21012e-05
4 *502:6 2.21012e-05
5 *502:12 *1421:A1 2.35211e-06
6 *502:12 *628:10 4.03043e-07
7 *502:12 *629:8 0
8 *502:12 *663:25 4.83015e-06
9 *502:12 *676:35 8.33296e-06
10 *502:12 *791:39 1.6136e-06
11 *502:12 *820:26 2.62194e-05
12 *236:23 *502:12 5.82745e-07
*RES
1 *1421:Y *502:6 34.4 
2 *502:6 *502:12 37.389 
3 *502:12 *1424:A1 17.2 
*END

*D_NET *503 0.000312784
*CONN
*I *1429:A1 I *D OA211x2_ASAP7_75t_SL
*I *1427:A I *D AND4x1_ASAP7_75t_SL
*I *1426:A I *D NOR2x1_ASAP7_75t_SL
*I *1423:A I *D AND4x1_ASAP7_75t_SL
*I *1422:Y O *D INVx1_ASAP7_75t_SL
*CAP
1 *1429:A1 0
2 *1427:A 1.80414e-05
3 *1426:A 9.09497e-06
4 *1423:A 0
5 *1422:Y 1.08665e-05
6 *503:53 3.58846e-05
7 *503:27 3.1111e-05
8 *503:18 1.71723e-05
9 *503:10 3.55082e-05
10 *503:6 6.11124e-05
11 *1427:A *1427:B 7.63254e-07
12 *503:6 *504:12 1.88216e-05
13 *503:10 *504:8 1.42543e-05
14 *503:10 *791:8 2.18135e-06
15 *503:18 *1423:B 1.93908e-06
16 *503:18 *1423:C 3.91924e-06
17 *503:18 *790:18 0
18 *503:18 *791:29 4.83862e-06
19 *503:18 *791:31 5.85387e-06
20 *503:27 *504:8 6.33206e-07
21 *503:53 *504:12 8.3281e-06
22 *503:53 *508:10 4.84697e-07
23 *503:53 *714:10 0
24 *503:53 *820:51 1.68784e-06
25 *1423:D *1427:A 1.33022e-05
26 *1423:D *503:18 0
27 *3:12 *1427:A 2.25787e-06
28 *31:20 *503:53 0
29 *492:32 *503:53 1.47272e-05
*RES
1 *1422:Y *503:6 22.0134 
2 *503:6 *503:10 29.0265 
3 *503:10 *503:18 45.3516 
4 *503:18 *1423:A 34.4 
5 *503:10 *503:27 2.81583 
6 *503:27 *1426:A 39.2134 
7 *503:27 *1427:A 47.0977 
8 *503:6 *503:53 33.4998 
9 *503:53 *1429:A1 34.4 
*END

*D_NET *504 0.000170961
*CONN
*I *1424:A2 I *D OA21x2_ASAP7_75t_SL
*I *1423:Y O *D AND4x1_ASAP7_75t_SL
*CAP
1 *1424:A2 0
2 *1423:Y 1.40585e-05
3 *504:18 3.39177e-06
4 *504:12 2.73775e-05
5 *504:8 3.80442e-05
6 *504:12 *790:10 5.98994e-07
7 *504:12 *790:18 2.32593e-05
8 *504:18 *1424:B 7.64042e-07
9 *504:18 *820:26 1.51111e-06
10 *1758:A *504:12 8.20846e-06
11 *3:12 *504:8 9.94583e-06
12 *236:23 *504:12 1.76448e-06
13 *503:6 *504:12 1.88216e-05
14 *503:10 *504:8 1.42543e-05
15 *503:27 *504:8 6.33206e-07
16 *503:53 *504:12 8.3281e-06
*RES
1 *1423:Y *504:8 47.3528 
2 *504:8 *504:12 34.8492 
3 *504:12 *504:18 37.2158 
4 *504:18 *1424:A2 17.2 
*END

*D_NET *505 0.00014528
*CONN
*I *1427:B I *D AND4x1_ASAP7_75t_SL
*I *1426:B I *D NOR2x1_ASAP7_75t_SL
*I *1425:Y O *D AND3x1_ASAP7_75t_SL
*CAP
1 *1427:B 3.35561e-06
2 *1426:B 2.5203e-06
3 *1425:Y 2.32335e-05
4 *505:27 2.06546e-05
5 *505:10 2.55392e-05
6 *505:8 2.89534e-05
7 *505:8 *1425:A 1.7743e-05
8 *505:8 *1425:B 6.53466e-06
9 *505:8 *506:8 1.40419e-08
10 *505:10 *1425:A 1.49407e-08
11 *505:27 *702:20 2.20128e-06
12 *505:27 *727:69 0
13 *1427:A *1427:B 7.63254e-07
14 *3:12 *1427:B 8.71771e-06
15 *3:12 *505:10 1.67815e-06
16 *3:12 *505:27 3.3563e-06
17 *73:34 *505:10 0
18 *73:34 *505:27 0
*RES
1 *1425:Y *505:8 49.9099 
2 *505:8 *505:10 3.94216 
3 *505:10 *1426:B 36.0045 
4 *505:10 *505:27 47.2111 
5 *505:27 *1427:B 39.3551 
*END

*D_NET *506 0.000109245
*CONN
*I *1428:A1 I *D OAI21x1_ASAP7_75t_SL
*I *1426:Y O *D NOR2x1_ASAP7_75t_SL
*CAP
1 *1428:A1 1.24185e-05
2 *1426:Y 1.8958e-05
3 *506:8 3.13766e-05
4 *1428:A1 *507:14 2.60745e-05
5 *1428:A1 *507:22 1.12894e-06
6 *1428:A1 *721:10 2.22736e-06
7 *506:8 *1425:A 4.17901e-06
8 *506:8 *1425:B 2.28976e-06
9 *506:8 *1425:C 7.58545e-06
10 *73:24 *1428:A1 8.06799e-07
11 *73:34 *1428:A1 5.37866e-07
12 *492:32 *1428:A1 1.64764e-06
13 *505:8 *506:8 1.40419e-08
*RES
1 *1426:Y *506:8 43.492 
2 *506:8 *1428:A1 46.7897 
*END

*D_NET *507 0.00015343
*CONN
*I *1428:A2 I *D OAI21x1_ASAP7_75t_SL
*I *1427:Y O *D AND4x1_ASAP7_75t_SL
*CAP
1 *1428:A2 0
2 *1427:Y 1.9499e-05
3 *507:22 3.09285e-06
4 *507:14 2.71645e-05
5 *507:8 4.35707e-05
6 *507:8 *727:69 2.0895e-06
7 *507:22 *1428:B 2.20493e-06
8 *1428:A1 *507:14 2.60745e-05
9 *1428:A1 *507:22 1.12894e-06
10 *1455:A *507:8 5.51397e-07
11 *73:34 *507:14 5.03445e-06
12 *73:34 *507:22 8.71771e-06
13 *73:49 *507:14 2.22736e-06
14 *492:18 *507:14 0
15 *499:30 *507:14 1.20741e-05
*RES
1 *1427:Y *507:8 42.4224 
2 *507:8 *507:14 37.3323 
3 *507:14 *507:22 38.8203 
4 *507:22 *1428:A2 17.2 
*END

*D_NET *508 6.66756e-05
*CONN
*I *1429:B I *D OA211x2_ASAP7_75t_SL
*I *1428:Y O *D OAI21x1_ASAP7_75t_SL
*CAP
1 *1429:B 1.88305e-06
2 *1428:Y 1.81984e-05
3 *508:10 2.00815e-05
4 *1429:B *820:51 6.02341e-06
5 *508:10 *1425:A 5.79724e-07
6 *73:34 *508:10 1.10966e-05
7 *492:32 *1429:B 8.3281e-06
8 *503:53 *508:10 4.84697e-07
*RES
1 *1428:Y *508:10 47.2678 
2 *508:10 *1429:B 36.5393 
*END

*D_NET *509 0.000219061
*CONN
*P prescale[11] I
*I *1430:A I *D BUFx2_ASAP7_75t_SL
*CAP
1 prescale[11] 1.60169e-05
2 *1430:A 0
3 *509:13 2.8146e-05
4 *509:9 4.41629e-05
5 *509:9 *511:9 2.88073e-05
6 *509:13 *511:13 6.75318e-05
7 *509:13 *648:6 4.56834e-06
8 *336:9 *509:9 4.71731e-06
9 *455:9 *509:9 2.40842e-05
10 *487:9 *509:9 1.02633e-06
*RES
1 prescale[11] *509:9 33.839 
2 *509:9 *509:13 45.5457 
3 *509:13 *1430:A 17.2 
*END

*D_NET *510 2.71722e-05
*CONN
*I *1432:B I *D OA211x2_ASAP7_75t_SL
*I *1431:Y O *D AO21x1_ASAP7_75t_SL
*CAP
1 *1432:B 1.12537e-05
2 *1431:Y 1.12537e-05
3 *1432:B *678:20 3.13426e-06
4 *1432:B *820:277 1.53057e-06
*RES
1 *1431:Y *1432:B 41.8876 
*END

*D_NET *511 0.000210605
*CONN
*P prescale[10] I
*I *1433:A I *D BUFx2_ASAP7_75t_SL
*CAP
1 prescale[10] 1.93314e-05
2 *1433:A 0
3 *511:13 2.33172e-05
4 *511:9 4.26486e-05
5 *336:9 *511:9 7.94305e-06
6 *336:13 *511:13 0
7 *487:9 *511:9 2.10259e-05
8 *509:9 *511:9 2.88073e-05
9 *509:13 *511:13 6.75318e-05
*RES
1 prescale[10] *511:9 36.6703 
2 *511:9 *511:13 40.1975 
3 *511:13 *1433:A 17.2 
*END

*D_NET *512 9.97695e-05
*CONN
*I *1438:A1 I *D OA21x2_ASAP7_75t_SL
*I *1434:Y O *D AND2x2_ASAP7_75t_SL
*CAP
1 *1438:A1 2.40827e-06
2 *1434:Y 3.05704e-05
3 *512:8 3.29787e-05
4 *1438:A1 *515:14 4.10928e-06
5 *1438:A1 *896:21 9.94583e-06
6 *512:8 *853:42 4.32473e-06
7 *512:8 *896:14 5.62196e-06
8 *79:6 *512:8 9.25277e-06
9 *79:18 *512:8 5.57622e-07
*RES
1 *1434:Y *512:8 46.701 
2 *512:8 *1438:A1 37.779 
*END

*D_NET *513 0.000190409
*CONN
*I *1437:A2 I *D OA211x2_ASAP7_75t_SL
*I *1435:Y O *D INVx1_ASAP7_75t_SL
*CAP
1 *1437:A2 0
2 *1435:Y 4.4334e-06
3 *513:14 3.32654e-05
4 *513:8 3.76988e-05
5 *513:8 *789:14 2.03526e-06
6 *513:14 *957:A1 7.53234e-06
7 *513:14 *1437:A1 1.65096e-05
8 *513:14 *514:40 7.05029e-06
9 *513:14 *515:14 0
10 *513:14 *529:68 1.12901e-05
11 *513:14 *581:14 4.96757e-05
12 *513:14 *581:22 1.49407e-08
13 *513:14 *896:10 6.76305e-06
14 *513:14 *896:21 7.09459e-06
15 *957:C *513:14 7.04562e-06
*RES
1 *1435:Y *513:8 36.0045 
2 *513:8 *513:14 49.5802 
3 *513:14 *1437:A2 17.2 
*END

*D_NET *514 0.00215502
*CONN
*I *1668:A I *D BUFx3_ASAP7_75t_SL
*I *1446:B I *D AND3x1_ASAP7_75t_SL
*I *908:B I *D AND5x1_ASAP7_75t_SL
*I *960:A1 I *D AO21x1_ASAP7_75t_SL
*I *957:B I *D OA211x2_ASAP7_75t_SL
*I *1437:B I *D OA211x2_ASAP7_75t_SL
*I *1436:Y O *D OR3x2_ASAP7_75t_SL
*CAP
1 *1668:A 0
2 *1446:B 8.05936e-06
3 *908:B 0
4 *960:A1 0
5 *957:B 1.0574e-05
6 *1437:B 0
7 *1436:Y 2.52918e-05
8 *514:97 8.19808e-06
9 *514:89 2.85305e-05
10 *514:83 2.83918e-05
11 *514:81 0.000157448
12 *514:79 0.000157448
13 *514:77 3.34535e-05
14 *514:71 3.80028e-05
15 *514:67 3.55805e-05
16 *514:61 8.73864e-05
17 *514:40 1.6758e-05
18 *514:34 3.12469e-05
19 *514:30 6.38949e-05
20 *514:28 6.89927e-05
21 *514:22 0.000102855
22 *514:20 9.52244e-05
23 *514:14 7.2175e-05
24 *514:10 0.000158745
25 *514:8 5.68885e-05
26 *957:B *957:A1 4.05232e-06
27 *957:B *581:22 1.82733e-06
28 *957:B *818:115 2.96155e-06
29 *957:B *883:44 2.67046e-05
30 *1446:B *908:D 2.20493e-06
31 *1446:B *519:56 2.68933e-07
32 *1446:B *522:28 8.33296e-06
33 *1446:B *523:8 5.79724e-07
34 *1446:B *533:23 6.7842e-07
35 *1446:B *534:10 7.73618e-06
36 *514:10 *552:10 4.51473e-06
37 *514:10 *552:21 3.77954e-05
38 *514:14 *846:143 0
39 *514:22 *853:12 3.03791e-05
40 *514:28 *820:81 5.52807e-07
41 *514:28 *883:10 0
42 *514:30 *749:10 1.28104e-05
43 *514:30 *818:115 3.36309e-05
44 *514:30 *883:29 4.43637e-05
45 *514:30 *883:44 1.41783e-05
46 *514:34 *815:88 7.35611e-06
47 *514:40 *1437:A1 4.24552e-06
48 *514:40 *722:18 0
49 *514:40 *815:88 2.2331e-05
50 *514:61 *516:12 0
51 *514:61 *529:36 2.00151e-05
52 *514:61 *552:21 4.17037e-05
53 *514:61 *850:8 7.78051e-06
54 *514:61 *850:19 3.32579e-06
55 *514:61 *872:18 4.58327e-06
56 *514:77 *624:10 1.18059e-05
57 *514:81 *933:A1 1.25483e-05
58 *514:81 *933:B 1.04475e-06
59 *514:81 *1006:A 0
60 *514:81 *1693:A 1.64509e-05
61 *514:81 *519:58 0
62 *514:81 *562:8 0
63 *514:81 *872:38 3.70102e-05
64 *514:81 *872:73 1.711e-05
65 *514:89 *905:A 2.25244e-05
66 *514:89 *905:D 4.91451e-05
67 *514:89 *1444:A 1.44639e-06
68 *514:89 *519:58 5.51397e-07
69 *514:89 *534:10 2.04215e-06
70 *514:89 *872:79 4.65695e-07
71 *514:97 *728:79 9.14793e-06
72 *514:97 *839:87 2.35485e-05
73 *1105:D *514:20 1.30746e-06
74 *1105:E *514:22 4.20803e-06
75 *1436:B *514:8 5.19552e-07
76 *1436:C *514:8 6.70433e-06
77 *1705:A *514:20 0
78 *29:28 *514:40 3.30589e-06
79 *76:36 *514:10 2.31174e-05
80 *82:6 *514:67 3.73144e-06
81 *83:6 *514:67 1.1646e-05
82 *83:6 *514:77 6.89389e-05
83 *219:14 *514:14 3.19082e-05
84 *221:10 *514:22 1.25483e-05
85 *221:14 *514:22 2.03608e-06
86 *225:66 *514:14 8.12745e-06
87 *233:6 *514:22 0
88 *489:8 *514:10 9.0554e-05
89 *489:10 *514:10 2.45772e-05
90 *489:16 *514:8 2.12481e-06
91 *489:16 *514:10 4.7461e-06
92 *493:35 *514:14 0
93 *499:88 *514:40 1.29718e-05
94 *513:14 *514:40 7.05029e-06
*RES
1 *1436:Y *514:8 46.701 
2 *514:8 *514:10 43.2699 
3 *514:10 *514:14 46.852 
4 *514:14 *514:20 35.4325 
5 *514:20 *514:22 46.5298 
6 *514:22 *514:28 40.0317 
7 *514:28 *514:30 47.5994 
8 *514:30 *514:34 20.0158 
9 *514:34 *514:40 33.1067 
10 *514:40 *1437:B 17.2 
11 *514:34 *957:B 42.4224 
12 *514:22 *960:A1 17.2 
13 *514:10 *514:61 50.7788 
14 *514:61 *514:67 49.9099 
15 *514:67 *514:71 20.0158 
16 *514:71 *514:77 43.6898 
17 *514:77 *514:79 17.2 
18 *514:79 *514:81 72.2014 
19 *514:81 *514:83 17.2 
20 *514:83 *514:89 35.5258 
21 *514:89 *514:97 43.354 
22 *514:97 *908:B 17.2 
23 *514:83 *1446:B 42.7625 
24 *514:71 *1668:A 17.2 
*END

*D_NET *515 0.000109766
*CONN
*I *1438:A2 I *D OA21x2_ASAP7_75t_SL
*I *1437:Y O *D OA211x2_ASAP7_75t_SL
*CAP
1 *1438:A2 0
2 *1437:Y 2.84777e-06
3 *515:14 3.31474e-05
4 *515:8 3.59952e-05
5 *515:8 *958:A2 7.63254e-07
6 *515:14 *582:8 1.35855e-05
7 *515:14 *789:6 1.40419e-08
8 *515:14 *820:310 9.27991e-06
9 *515:14 *820:325 5.22376e-07
10 *515:14 *896:10 2.22736e-06
11 *515:14 *896:21 1.09842e-06
12 *957:C *515:14 5.0464e-06
13 *1438:A1 *515:14 4.10928e-06
14 *499:92 *515:14 1.12894e-06
15 *513:14 *515:14 0
*RES
1 *1437:Y *515:8 36.0045 
2 *515:8 *515:14 43.5838 
3 *515:14 *1438:A2 17.2 
*END

*D_NET *516 0.000167204
*CONN
*I *1818:A I *D BUFx6f_ASAP7_75t_SL
*I *1439:Y O *D AND3x1_ASAP7_75t_SL
*CAP
1 *1818:A 2.3054e-05
2 *1439:Y 3.61971e-06
3 *516:12 6.71991e-05
4 *516:8 4.77649e-05
5 *1818:A *823:46 1.1057e-05
6 *516:8 *750:69 7.58265e-07
7 *516:12 *529:36 0
8 *516:12 *728:10 5.82342e-06
9 *516:12 *728:50 2.25787e-06
10 *516:12 *741:27 0
11 *516:12 *750:69 3.92132e-06
12 *516:12 *850:8 8.06799e-07
13 *1684:A *516:12 9.41947e-07
14 *514:61 *516:12 0
*RES
1 *1439:Y *516:8 36.0045 
2 *516:8 *516:12 48.1741 
3 *516:12 *1818:A 32.1751 
*END

*D_NET *517 0.000106231
*CONN
*P prescale[0] I
*I *1440:A I *D BUFx2_ASAP7_75t_SL
*CAP
1 prescale[0] 2.36546e-05
2 *1440:A 0
3 *517:17 2.75951e-05
4 *517:11 5.12497e-05
5 *517:17 *679:6 3.73144e-06
6 *333:9 *517:11 0
*RES
1 prescale[0] *517:11 40.9661 
2 *517:11 *517:17 39.8665 
3 *517:17 *1440:A 17.2 
*END

*D_NET *518 0.000161462
*CONN
*P m_axis_tready I
*I *1868:A I *D BUFx2_ASAP7_75t_SL
*CAP
1 m_axis_tready 3.53479e-05
2 *1868:A 1.44816e-05
3 *518:7 4.98294e-05
4 *1868:A *645:8 5.37866e-07
5 *1868:A *893:8 1.10561e-06
6 m_axis_tvalid *518:7 5.51393e-05
7 *332:9 *518:7 5.02071e-06
*RES
1 m_axis_tready *518:7 41.2787 
2 *518:7 *1868:A 44.4431 
*END

*D_NET *519 0.000779729
*CONN
*I *936:C I *D OR4x1_ASAP7_75t_SL
*I *1443:A1 I *D OA21x2_ASAP7_75t_SL
*I *905:D I *D OR4x1_ASAP7_75t_SL
*I *952:B I *D OR4x1_ASAP7_75t_SL
*I *919:B I *D OR3x1_ASAP7_75t_SL
*I *1442:Y O *D OR2x2_ASAP7_75t_SL
*CAP
1 *936:C 0
2 *1443:A1 0
3 *905:D 1.74172e-05
4 *952:B 0
5 *919:B 0
6 *1442:Y 1.65804e-05
7 *519:64 2.07211e-05
8 *519:58 1.66353e-05
9 *519:56 3.98062e-05
10 *519:52 3.2088e-05
11 *519:48 6.7676e-06
12 *519:44 2.67564e-05
13 *519:33 2.64222e-05
14 *519:29 1.90267e-05
15 *519:16 2.72205e-05
16 *519:10 6.20073e-05
17 *905:D *905:B 9.31704e-06
18 *905:D *905:C 1.36155e-06
19 *905:D *850:70 1.66706e-05
20 *519:10 *872:56 9.16986e-06
21 *519:16 *919:A 3.5815e-05
22 *519:16 *920:A 3.77e-06
23 *519:16 *578:6 4.06202e-06
24 *519:16 *872:56 7.99625e-06
25 *519:29 *578:6 2.14642e-05
26 *519:33 *578:6 3.89037e-06
27 *519:44 *578:6 2.48004e-05
28 *519:44 *832:25 4.49339e-06
29 *519:44 *832:31 1.70866e-06
30 *519:44 *873:12 3.23659e-06
31 *519:48 *842:12 5.85387e-06
32 *519:48 *850:60 3.67067e-06
33 *519:52 *842:12 3.78768e-05
34 *519:52 *850:60 3.74496e-05
35 *519:56 *522:28 3.32579e-06
36 *519:56 *523:8 2.60842e-05
37 *519:56 *533:31 2.15146e-06
38 *519:56 *840:78 4.40246e-06
39 *519:56 *872:56 5.53227e-05
40 *519:56 *872:73 5.84138e-06
41 *519:58 *1443:B 6.7842e-07
42 *519:58 *872:73 5.0551e-07
43 *519:64 *534:10 8.45637e-06
44 *919:C *519:16 8.53214e-06
45 *936:D *519:44 5.40024e-06
46 *952:C *519:33 4.26607e-06
47 *952:C *519:44 1.47272e-05
48 *1446:B *519:56 2.68933e-07
49 *383:43 *519:29 2.98814e-08
50 *383:43 *519:44 1.75741e-06
51 *384:18 *519:29 8.27998e-06
52 *384:22 *519:44 3.59465e-05
53 *514:81 *519:58 0
54 *514:89 *905:D 4.91451e-05
55 *514:89 *519:58 5.51397e-07
*RES
1 *1442:Y *519:10 42.5924 
2 *519:10 *519:16 40.3392 
3 *519:16 *919:B 17.2 
4 *519:10 *519:29 43.0989 
5 *519:29 *519:33 18.2696 
6 *519:33 *952:B 17.2 
7 *519:33 *519:44 42.2024 
8 *519:44 *519:48 18.8045 
9 *519:48 *519:52 28.4313 
10 *519:52 *519:56 45.3583 
11 *519:56 *519:58 5.88308 
12 *519:58 *519:64 37.2158 
13 *519:64 *905:D 33.7796 
14 *519:58 *1443:A1 17.2 
15 *519:48 *936:C 17.2 
*END

*D_NET *520 1.2993e-05
*CONN
*I *1448:A2 I *D OA21x2_ASAP7_75t_SL
*I *1443:Y O *D OA21x2_ASAP7_75t_SL
*CAP
1 *1448:A2 0
2 *1443:Y 6.49648e-06
3 *520:8 6.49648e-06
4 *520:8 *534:10 0
*RES
1 *1443:Y *520:8 38.9053 
2 *520:8 *1448:A2 34.4 
*END

*D_NET *521 4.69959e-05
*CONN
*I *1446:A I *D AND3x1_ASAP7_75t_SL
*I *1444:Y O *D INVx1_ASAP7_75t_SL
*CAP
1 *1446:A 2.76956e-06
2 *1444:Y 7.02093e-06
3 *521:8 9.79049e-06
4 *521:8 *534:10 2.35094e-05
5 *521:8 *840:66 3.90551e-06
*RES
1 *1444:Y *521:8 42.2843 
2 *521:8 *1446:A 35.4697 
*END

*D_NET *522 0.000309505
*CONN
*I *1446:C I *D AND3x1_ASAP7_75t_SL
*I *908:D I *D AND5x1_ASAP7_75t_SL
*I *1445:Y O *D NOR2x1_ASAP7_75t_SL
*CAP
1 *1446:C 0
2 *908:D 2.4819e-05
3 *1445:Y 3.71454e-06
4 *522:28 3.4413e-05
5 *522:20 5.78917e-05
6 *522:14 7.55708e-05
7 *522:8 3.09876e-05
8 *908:D *533:51 2.30288e-06
9 *522:8 *579:10 9.81516e-06
10 *522:8 *842:18 0
11 *522:14 *832:31 7.30263e-06
12 *522:14 *842:20 2.29378e-05
13 *522:20 *565:10 1.49407e-08
14 *522:20 *704:8 1.05534e-07
15 *522:20 *832:31 8.04273e-06
16 *522:20 *872:92 1.34406e-06
17 *522:28 *533:31 9.94583e-06
18 *522:28 *534:10 5.79724e-07
19 *931:A2 *522:14 2.90209e-08
20 *931:A2 *522:20 5.31897e-06
21 *1446:B *908:D 2.20493e-06
22 *1446:B *522:28 8.33296e-06
23 *1672:A *522:20 5.0551e-07
24 *519:56 *522:28 3.32579e-06
*RES
1 *1445:Y *522:8 37.779 
2 *522:8 *522:14 47.7706 
3 *522:14 *522:20 41.0441 
4 *522:20 *522:28 43.354 
5 *522:28 *908:D 30.5706 
6 *522:28 *1446:C 17.2 
*END

*D_NET *523 7.71219e-05
*CONN
*I *1448:A1 I *D OA21x2_ASAP7_75t_SL
*I *1446:Y O *D AND3x1_ASAP7_75t_SL
*CAP
1 *1448:A1 7.04746e-06
2 *1446:Y 1.41482e-05
3 *523:8 2.11956e-05
4 *523:8 *534:10 0
5 *523:8 *872:79 8.06676e-06
6 *1446:B *523:8 5.79724e-07
7 *519:56 *523:8 2.60842e-05
*RES
1 *1446:Y *523:8 46.2265 
2 *523:8 *1448:A1 37.0741 
*END

*D_NET *524 0.00184973
*CONN
*I *1655:A I *D BUFx3_ASAP7_75t_SL
*I *1015:A2 I *D OA21x2_ASAP7_75t_SL
*I *933:B I *D OA21x2_ASAP7_75t_SL
*I *1448:B I *D OA21x2_ASAP7_75t_SL
*I *938:A I *D AND2x4_ASAP7_75t_SL
*I *1447:Y O *D AND5x2_ASAP7_75t_SL
*CAP
1 *1655:A 4.22517e-06
2 *1015:A2 0
3 *933:B 2.28286e-06
4 *1448:B 4.84254e-06
5 *938:A 0
6 *1447:Y 7.90829e-06
7 *524:94 8.87607e-05
8 *524:92 8.45356e-05
9 *524:90 0.000119353
10 *524:88 0.000140833
11 *524:73 1.08391e-05
12 *524:65 7.43122e-05
13 *524:63 6.3473e-05
14 *524:61 3.34224e-05
15 *524:50 4.73975e-05
16 *524:37 4.99571e-05
17 *524:35 8.00567e-05
18 *524:28 2.73027e-05
19 *524:24 0.000197085
20 *524:20 0.000158333
21 *524:12 7.05444e-05
22 *524:6 2.17884e-05
23 *933:B *562:8 2.03526e-06
24 *1655:A *823:62 2.0895e-06
25 *524:12 *727:21 0
26 *524:28 *525:8 4.06654e-05
27 *524:28 *785:8 4.91471e-05
28 *524:28 *854:76 2.48762e-06
29 *524:35 *525:8 8.78932e-05
30 *524:35 *530:20 5.52807e-07
31 *524:35 *532:12 0
32 *524:35 *535:12 0
33 *524:35 *565:10 0
34 *524:50 *562:14 1.66587e-05
35 *524:50 *575:16 9.47659e-06
36 *524:50 *579:10 3.13615e-06
37 *524:65 *552:10 0
38 *524:65 *630:8 9.18073e-06
39 *524:65 *632:22 0
40 *524:65 *727:8 0
41 *524:65 *727:21 0
42 *524:73 *817:12 2.30405e-06
43 *524:73 *817:18 7.50128e-07
44 *524:88 *552:21 5.94781e-06
45 *524:88 *727:21 8.33296e-06
46 *524:88 *727:23 2.03526e-06
47 *524:88 *890:12 0
48 *524:90 *722:42 0
49 *524:94 *1420:A 2.36025e-05
50 *524:94 *722:34 3.42518e-07
51 *524:94 *722:42 0
52 *524:94 *727:51 0
53 *524:94 *728:39 2.18135e-06
54 *524:94 *736:20 4.40185e-05
55 *524:94 *737:8 1.09067e-06
56 *524:94 *823:60 4.90056e-06
57 *1105:D *524:94 0
58 *1705:A *524:94 2.31101e-05
59 *2:23 *524:73 1.08825e-06
60 *19:10 *524:35 0
61 *19:20 *524:35 0
62 *19:26 *524:35 6.65157e-06
63 *20:8 *524:28 2.55486e-06
64 *20:19 *524:28 5.52807e-07
65 *20:19 *524:35 5.52807e-07
66 *29:38 *524:94 0
67 *173:8 *524:65 2.32112e-05
68 *217:20 *524:94 1.70866e-06
69 *218:8 *524:94 6.56537e-05
70 *221:10 *524:94 0
71 *262:52 *524:90 3.87941e-06
72 *486:16 *524:65 5.52223e-05
73 *486:41 *524:12 5.04815e-06
74 *493:35 *524:94 0
75 *496:34 *524:24 1.95722e-05
76 *499:14 *524:20 2.31341e-05
77 *499:14 *524:24 1.06675e-05
78 *499:14 *524:90 0
79 *501:8 *524:94 0
80 *501:53 *524:94 0
81 *501:57 *524:94 0
82 *514:81 *933:B 1.04475e-06
*RES
1 *1447:Y *524:6 19.8741 
2 *524:6 *524:12 36.1834 
3 *524:12 *524:20 47.6853 
4 *524:20 *524:24 43.6595 
5 *524:24 *524:28 49.7698 
6 *524:28 *938:A 17.2 
7 *524:24 *524:35 73.3054 
8 *524:35 *524:37 17.2 
9 *524:37 *1448:B 19.8741 
10 *524:37 *524:50 47.0121 
11 *524:50 *933:B 36.0045 
12 *524:6 *524:61 4.81343 
13 *524:61 *524:63 17.2 
14 *524:63 *524:65 55.1903 
15 *524:65 *524:73 40.9596 
16 *524:73 *1015:A2 34.4 
17 *524:61 *524:88 47.2093 
18 *524:88 *524:90 36.1451 
19 *524:90 *524:92 17.2 
20 *524:92 *524:94 73.4932 
21 *524:94 *1655:A 37.0741 
*END

*D_NET *525 0.000591156
*CONN
*I *1452:A2 I *D OA211x2_ASAP7_75t_SL
*I *1448:Y O *D OA21x2_ASAP7_75t_SL
*CAP
1 *1452:A2 0
2 *1448:Y 0
3 *525:20 2.15464e-05
4 *525:14 5.01184e-05
5 *525:8 0.000148656
6 *525:6 0.000120085
7 *525:8 *943:B 0
8 *525:8 *536:12 1.98771e-05
9 *525:8 *565:10 0
10 *525:8 *565:18 0
11 *525:8 *566:12 5.97901e-06
12 *525:8 *567:10 0
13 *525:8 *701:36 4.33555e-07
14 *525:8 *817:107 0
15 *525:8 *817:116 0
16 *525:8 *854:76 2.20028e-06
17 *525:8 *854:128 1.49407e-08
18 *525:14 *942:A2 6.7842e-07
19 *525:14 *701:36 0
20 *525:14 *783:31 4.68924e-06
21 *525:20 *1452:C 2.75254e-05
22 *525:20 *701:17 2.24633e-05
23 *525:20 *701:36 3.33671e-05
24 *525:20 *817:54 4.71862e-06
25 *20:8 *525:8 0
26 *154:8 *525:20 2.45021e-07
27 *160:14 *525:8 0
28 *524:28 *525:8 4.06654e-05
29 *524:35 *525:8 8.78932e-05
*RES
1 *1448:Y *525:6 34.4 
2 *525:6 *525:8 110.381 
3 *525:8 *525:14 46.701 
4 *525:14 *525:20 36.7088 
5 *525:20 *1452:A2 17.2 
*END

*D_NET *526 0.000138459
*CONN
*I *1450:B I *D AO21x1_ASAP7_75t_SL
*I *1451:A I *D NAND2x1_ASAP7_75t_SL
*I *1449:Y O *D INVx1_ASAP7_75t_SL
*CAP
1 *1450:B 3.12979e-06
2 *1451:A 0
3 *1449:Y 1.28868e-05
4 *526:16 3.8088e-05
5 *526:10 5.41046e-05
6 *526:10 *1449:A 6.7842e-07
7 *526:10 *701:10 0
8 *526:10 *788:14 2.97289e-06
9 *526:10 *827:39 0
10 *526:16 *527:10 6.1131e-06
11 *526:16 *528:14 7.15641e-06
12 *526:16 *701:10 0
13 *526:16 *701:21 7.35063e-07
14 *526:16 *827:45 1.25942e-05
*RES
1 *1449:Y *526:10 42.7058 
2 *526:10 *526:16 46.3146 
3 *526:16 *1451:A 17.2 
4 *526:10 *1450:B 36.0045 
*END

*D_NET *527 2.75498e-05
*CONN
*I *1452:A1 I *D OA211x2_ASAP7_75t_SL
*I *1450:Y O *D AO21x1_ASAP7_75t_SL
*CAP
1 *1452:A1 0
2 *1450:Y 9.23013e-06
3 *527:10 9.23013e-06
4 *527:10 *701:21 2.97641e-06
5 *527:10 *817:54 0
6 *526:16 *527:10 6.1131e-06
*RES
1 *1450:Y *527:10 41.1013 
2 *527:10 *1452:A1 34.4 
*END

*D_NET *528 0.000106596
*CONN
*I *1452:B I *D OA211x2_ASAP7_75t_SL
*I *1451:Y O *D NAND2x1_ASAP7_75t_SL
*CAP
1 *1452:B 0
2 *1451:Y 3.04603e-06
3 *528:14 1.77521e-05
4 *528:8 2.07981e-05
5 *528:8 *1451:B 4.06202e-06
6 *528:8 *827:45 9.92599e-06
7 *528:14 *701:21 4.38553e-05
8 *526:16 *528:14 7.15641e-06
*RES
1 *1451:Y *528:8 37.0741 
2 *528:8 *528:14 33.4751 
3 *528:14 *1452:B 17.2 
*END

*D_NET *529 0.00198213
*CONN
*I *988:D I *D AND4x1_ASAP7_75t_SL
*I *978:A2 I *D AOI21x1_ASAP7_75t_SL
*I *979:C I *D AND3x1_ASAP7_75t_SL
*I *1454:C I *D AND3x1_ASAP7_75t_SL
*I *928:D I *D AND4x2_ASAP7_75t_SL
*I *1453:Y O *D AND4x1_ASAP7_75t_SL
*CAP
1 *988:D 1.31079e-05
2 *978:A2 0
3 *979:C 2.56617e-06
4 *1454:C 0
5 *928:D 0
6 *1453:Y 0
7 *529:105 7.10029e-06
8 *529:99 5.41118e-05
9 *529:93 6.17331e-05
10 *529:87 4.41345e-05
11 *529:76 3.54432e-05
12 *529:72 5.43606e-05
13 *529:68 5.54229e-05
14 *529:55 1.37205e-05
15 *529:44 2.1761e-05
16 *529:38 6.42516e-05
17 *529:36 3.55827e-05
18 *529:30 7.27282e-05
19 *529:28 7.07494e-05
20 *529:22 6.72378e-05
21 *529:20 7.33295e-05
22 *529:14 5.81952e-05
23 *529:12 4.72696e-05
24 *529:10 2.94718e-05
25 *529:4 4.71062e-05
26 *979:C *776:8 1.40419e-08
27 *988:D *598:30 2.90209e-08
28 *988:D *607:8 1.12894e-06
29 *988:D *776:60 3.21037e-05
30 *988:D *836:60 1.49407e-08
31 *529:10 *789:16 3.28892e-05
32 *529:10 *874:8 1.2768e-05
33 *529:14 *874:8 3.8304e-05
34 *529:20 *1846:A 3.05118e-08
35 *529:20 *685:19 3.05118e-08
36 *529:20 *889:8 0
37 *529:22 *1001:B 3.80843e-05
38 *529:22 *1001:C 1.36155e-06
39 *529:22 *1846:A 2.96818e-06
40 *529:22 *619:8 8.39579e-06
41 *529:22 *736:14 8.89593e-05
42 *529:22 *736:20 1.7743e-05
43 *529:22 *823:38 3.13426e-06
44 *529:28 *591:8 1.67893e-05
45 *529:28 *654:16 2.22736e-06
46 *529:28 *823:10 6.33206e-07
47 *529:30 *728:14 7.42173e-05
48 *529:38 *728:52 0.000113867
49 *529:44 *1454:B 0
50 *529:44 *557:23 2.68933e-07
51 *529:44 *760:8 0
52 *529:44 *855:20 5.49212e-07
53 *529:55 *1454:B 2.95689e-05
54 *529:55 *728:58 0
55 *529:55 *753:30 3.13615e-06
56 *529:55 *760:8 9.81516e-06
57 *529:55 *855:10 8.33296e-06
58 *529:55 *882:10 0
59 *529:55 *882:31 0
60 *529:68 *581:14 8.16763e-06
61 *529:68 *789:14 9.75645e-06
62 *529:68 *789:16 1.48376e-05
63 *529:68 *896:21 3.2405e-05
64 *529:76 *776:16 2.00223e-05
65 *529:76 *820:378 0
66 *529:87 *776:10 8.58704e-06
67 *529:87 *776:16 6.97416e-06
68 *529:87 *776:60 3.50609e-05
69 *529:93 *980:B 2.70479e-05
70 *529:99 *980:A2 5.79724e-07
71 *529:99 *981:B 2.12481e-06
72 *529:99 *598:38 4.17901e-06
73 *529:99 *601:8 0
74 *529:99 *607:8 5.52807e-07
75 *529:105 *978:B 2.19685e-06
76 *1453:C *529:10 1.02586e-05
77 *1728:A *529:38 7.21408e-05
78 *1728:A *529:44 1.5804e-05
79 *1744:A *529:87 0
80 *9:23 *988:D 0
81 *9:23 *529:99 4.74248e-06
82 *10:16 *529:10 1.52651e-06
83 *11:14 *529:10 8.19503e-06
84 *78:20 *529:72 2.73261e-05
85 *167:10 *529:99 0
86 *216:22 *529:14 7.68261e-05
87 *217:34 *529:22 9.72228e-06
88 *217:38 *529:30 1.64617e-05
89 *217:46 *529:38 4.77737e-05
90 *220:18 *529:20 6.57356e-06
91 *232:8 *529:22 6.6195e-06
92 *496:10 *529:55 5.52264e-06
93 *499:61 *529:22 2.0895e-06
94 *513:14 *529:68 1.12901e-05
95 *514:61 *529:36 2.00151e-05
96 *516:12 *529:36 0
*RES
1 *1453:Y *529:4 17.2 
2 *529:4 *529:10 37.1302 
3 *529:10 *529:12 17.2 
4 *529:12 *529:14 35.8333 
5 *529:14 *529:20 41.158 
6 *529:20 *529:22 58.2959 
7 *529:22 *529:28 40.0317 
8 *529:28 *529:30 33.694 
9 *529:30 *529:36 41.158 
10 *529:36 *529:38 39.0422 
11 *529:38 *529:44 33.1634 
12 *529:44 *928:D 34.4 
13 *529:38 *529:55 35.7845 
14 *529:55 *1454:C 34.4 
15 *529:4 *529:68 34.8812 
16 *529:68 *529:72 43.4064 
17 *529:72 *529:76 31.2792 
18 *529:76 *979:C 35.4697 
19 *529:76 *529:87 16.3318 
20 *529:87 *529:93 42.4224 
21 *529:93 *529:99 42.7902 
22 *529:99 *529:105 40.0317 
23 *529:105 *978:A2 17.2 
24 *529:87 *988:D 46.733 
*END

*D_NET *530 0.00042161
*CONN
*I *898:B I *D AND2x2_ASAP7_75t_SL
*I *914:C I *D AND3x1_ASAP7_75t_SL
*I *1454:Y O *D AND3x1_ASAP7_75t_SL
*CAP
1 *898:B 0
2 *914:C 5.9814e-06
3 *1454:Y 3.75092e-05
4 *530:22 2.7191e-05
5 *530:20 2.6013e-05
6 *530:14 8.38956e-05
7 *530:12 9.28936e-05
8 *530:6 5.13107e-05
9 *530:6 *1454:B 2.66797e-07
10 *530:12 *557:12 1.70866e-06
11 *530:12 *854:12 2.67206e-05
12 *530:22 *531:10 1.56713e-06
13 *530:22 *787:8 2.66992e-06
14 *1405:A *530:14 7.30263e-06
15 *1405:B *530:14 1.08167e-05
16 *1755:A *530:22 2.20493e-06
17 *15:20 *530:14 2.31575e-05
18 *18:8 *914:C 9.9223e-06
19 *18:8 *530:22 1.44167e-06
20 *19:20 *530:14 2.52755e-07
21 *19:20 *530:20 0
22 *19:20 *530:22 8.23084e-06
23 *499:114 *530:12 0
24 *524:35 *530:20 5.52807e-07
*RES
1 *1454:Y *530:6 33.7796 
2 *530:6 *530:12 47.3528 
3 *530:12 *530:14 47.5994 
4 *530:14 *530:20 37.2158 
5 *530:20 *530:22 16.5796 
6 *530:22 *914:C 24.1527 
7 *530:22 *898:B 17.2 
*END

*D_NET *531 2.33099e-05
*CONN
*I *899:B I *D XNOR2x2_ASAP7_75t_SL
*I *898:Y O *D AND2x2_ASAP7_75t_SL
*CAP
1 *899:B 0
2 *898:Y 8.54781e-06
3 *531:10 8.54781e-06
4 *531:10 *899:A 3.47607e-06
5 *531:10 *545:8 0
6 *531:10 *787:14 6.33206e-07
7 *19:10 *531:10 5.37866e-07
8 *530:22 *531:10 1.56713e-06
*RES
1 *898:Y *531:10 40.5098 
2 *531:10 *899:B 34.4 
*END

*D_NET *532 0.000153698
*CONN
*I *904:A3 I *D AO32x2_ASAP7_75t_SL
*I *899:Y O *D XNOR2x2_ASAP7_75t_SL
*CAP
1 *904:A3 0
2 *899:Y 0
3 *532:20 1.30342e-05
4 *532:12 5.10577e-05
5 *532:6 3.80235e-05
6 *532:12 *535:12 5.06565e-06
7 *532:12 *536:27 3.00843e-05
8 *532:12 *817:118 7.98105e-06
9 *532:20 *854:20 2.66797e-07
10 *532:20 *854:28 2.96818e-06
11 *19:10 *532:12 5.21648e-06
12 *524:35 *532:12 0
*RES
1 *899:Y *532:6 34.4 
2 *532:6 *532:12 44.4834 
3 *532:12 *532:20 42.1143 
4 *532:20 *904:A3 17.2 
*END

*D_NET *533 0.000616
*CONN
*I *901:C I *D OR3x1_ASAP7_75t_SL
*I *916:E I *D OR5x1_ASAP7_75t_SL
*I *1693:A I *D BUFx3_ASAP7_75t_SL
*I *900:Y O *D OR2x2_ASAP7_75t_SL
*CAP
1 *901:C 0
2 *916:E 1.1107e-05
3 *1693:A 1.36885e-05
4 *900:Y 0
5 *533:51 5.09369e-05
6 *533:45 4.7039e-05
7 *533:37 1.22952e-05
8 *533:31 2.40085e-05
9 *533:23 0.000101995
10 *533:21 8.30723e-05
11 *533:8 3.32816e-05
12 *533:6 1.95931e-05
13 *1693:A *562:8 7.72307e-07
14 *1693:A *575:16 3.00916e-05
15 *1693:A *579:10 5.00394e-06
16 *533:8 *575:16 5.99291e-05
17 *533:8 *579:10 5.13216e-06
18 *533:8 *843:24 1.18898e-06
19 *533:23 *932:C 1.97065e-05
20 *533:23 *872:46 4.57767e-06
21 *533:23 *872:48 7.58265e-07
22 *533:23 *872:50 3.55261e-06
23 *533:31 *534:10 4.41094e-06
24 *533:37 *840:66 2.83449e-06
25 *533:37 *850:64 1.12894e-06
26 *533:37 *850:70 3.05118e-08
27 *533:45 *534:10 1.12894e-06
28 *533:45 *840:66 1.34329e-05
29 *533:51 *550:8 1.16966e-05
30 *533:51 *728:79 5.41446e-06
31 *533:51 *839:87 5.52807e-07
32 *908:D *533:51 2.30288e-06
33 *1446:B *533:23 6.7842e-07
34 *353:14 *916:E 3.56177e-06
35 *353:14 *533:51 1.25483e-05
36 *514:81 *1693:A 1.64509e-05
37 *519:56 *533:31 2.15146e-06
38 *522:28 *533:31 9.94583e-06
*RES
1 *900:Y *533:6 34.4 
2 *533:6 *533:8 20.274 
3 *533:8 *1693:A 49.3504 
4 *533:8 *533:21 17.2 
5 *533:21 *533:23 35.8333 
6 *533:23 *533:31 48.2241 
7 *533:31 *533:37 39.4685 
8 *533:37 *533:45 40.5098 
9 *533:45 *533:51 36.6521 
10 *533:51 *916:E 41.3527 
11 *533:37 *901:C 17.2 
*END

*D_NET *534 9.58376e-05
*CONN
*I *902:B I *D XNOR2x2_ASAP7_75t_SL
*I *901:Y O *D OR3x1_ASAP7_75t_SL
*CAP
1 *902:B 0
2 *901:Y 0
3 *534:10 2.38301e-05
4 *534:6 2.38301e-05
5 *534:10 *540:12 0
6 *534:10 *840:66 2.68933e-07
7 *534:10 *840:68 1.49407e-08
8 *534:10 *840:78 1.49407e-08
9 *534:10 *872:79 1.49407e-08
10 *1446:B *534:10 7.73618e-06
11 *514:89 *534:10 2.04215e-06
12 *519:64 *534:10 8.45637e-06
13 *520:8 *534:10 0
14 *521:8 *534:10 2.35094e-05
15 *522:28 *534:10 5.79724e-07
16 *523:8 *534:10 0
17 *533:31 *534:10 4.41094e-06
18 *533:45 *534:10 1.12894e-06
*RES
1 *901:Y *534:6 34.4 
2 *534:6 *534:10 38.6003 
3 *534:10 *902:B 17.2 
*END

*D_NET *535 7.18288e-05
*CONN
*I *904:B1 I *D AO32x2_ASAP7_75t_SL
*I *902:Y O *D XNOR2x2_ASAP7_75t_SL
*CAP
1 *904:B1 0
2 *902:Y 0
3 *535:12 3.2598e-05
4 *535:6 3.2598e-05
5 *535:12 *817:107 1.56713e-06
6 *524:35 *535:12 0
7 *532:12 *535:12 5.06565e-06
*RES
1 *902:Y *535:6 34.4 
2 *535:6 *535:12 40.2048 
3 *535:12 *904:B1 17.2 
*END

*D_NET *536 0.000337134
*CONN
*I *918:B1 I *D AO32x2_ASAP7_75t_SL
*I *904:B2 I *D AO32x2_ASAP7_75t_SL
*I *903:Y O *D AND3x1_ASAP7_75t_SL
*CAP
1 *918:B1 4.0726e-05
2 *904:B2 0
3 *903:Y 2.80463e-05
4 *536:27 5.08356e-05
5 *536:14 2.48293e-05
6 *536:12 2.22531e-05
7 *536:6 3.55797e-05
8 *918:B1 *918:B2 6.10603e-06
9 *918:B1 *827:87 9.08513e-06
10 *536:6 *579:16 5.19475e-06
11 *536:6 *882:20 1.40724e-05
12 *536:12 *565:18 5.52807e-07
13 *536:14 *817:107 4.3511e-05
14 *1523:D *918:B1 7.58265e-07
15 *19:8 *918:B1 5.62196e-06
16 *525:8 *536:12 1.98771e-05
17 *532:12 *536:27 3.00843e-05
*RES
1 *903:Y *536:6 34.8492 
2 *536:6 *536:12 41.158 
3 *536:12 *536:14 12.8358 
4 *536:14 *904:B2 17.2 
5 *536:14 *536:27 44.537 
6 *536:27 *918:B1 45.5457 
*END

*D_NET *537 7.73e-05
*CONN
*I *909:A2 I *D AO21x1_ASAP7_75t_SL
*I *905:Y O *D OR4x1_ASAP7_75t_SL
*CAP
1 *909:A2 4.51582e-06
2 *905:Y 9.52351e-06
3 *537:8 1.40393e-05
4 *537:8 *909:A1 2.67352e-05
5 *537:8 *548:10 1.58039e-05
6 *537:8 *550:8 5.0041e-06
7 *537:8 *550:16 1.67815e-06
*RES
1 *905:Y *537:8 47.3528 
2 *537:8 *909:A2 36.5393 
*END

*D_NET *538 8.72562e-05
*CONN
*I *909:A1 I *D AO21x1_ASAP7_75t_SL
*I *906:Y O *D AND2x2_ASAP7_75t_SL
*CAP
1 *909:A1 6.95569e-06
2 *906:Y 1.07555e-05
3 *538:8 1.77111e-05
4 *909:A1 *548:10 3.29527e-06
5 *909:A1 *550:16 1.63606e-05
6 *538:8 *906:B 5.19552e-07
7 *538:8 *837:40 4.2449e-06
8 *538:8 *839:97 6.7842e-07
9 *537:8 *909:A1 2.67352e-05
*RES
1 *906:Y *538:8 40.2831 
2 *538:8 *909:A1 46.7897 
*END

*D_NET *539 2.33738e-05
*CONN
*I *908:E I *D AND5x1_ASAP7_75t_SL
*I *907:Y O *D NOR2x1_ASAP7_75t_SL
*CAP
1 *908:E 0
2 *907:Y 8.37417e-06
3 *539:8 8.37417e-06
4 *539:8 *728:79 2.20128e-06
5 *539:8 *839:87 0
6 *539:8 *850:70 4.42421e-06
*RES
1 *907:Y *539:8 41.158 
2 *539:8 *908:E 34.4 
*END

*D_NET *540 0.00012337
*CONN
*I *909:B I *D AO21x1_ASAP7_75t_SL
*I *908:Y O *D AND5x1_ASAP7_75t_SL
*CAP
1 *909:B 0
2 *908:Y 0
3 *540:12 4.31122e-05
4 *540:6 4.31122e-05
5 *540:12 *541:8 4.57952e-06
6 *540:12 *548:10 0
7 *540:12 *728:60 6.78445e-06
8 *540:12 *728:79 3.03297e-06
9 *540:12 *850:70 2.27181e-05
10 *540:12 *850:85 3.05118e-08
11 *534:10 *540:12 0
*RES
1 *908:Y *540:6 34.4 
2 *540:6 *540:12 49.945 
3 *540:12 *909:B 17.2 
*END

*D_NET *541 0.000134986
*CONN
*I *913:A1 I *D OA211x2_ASAP7_75t_SL
*I *909:Y O *D AO21x1_ASAP7_75t_SL
*CAP
1 *913:A1 0
2 *909:Y 1.17097e-05
3 *541:14 1.96389e-05
4 *541:8 3.13486e-05
5 *541:14 *913:B 2.71368e-06
6 *541:14 *548:10 4.13817e-05
7 *541:14 *550:16 2.18135e-06
8 *541:14 *817:158 1.28578e-05
9 *156:8 *541:14 8.57464e-06
10 *540:12 *541:8 4.57952e-06
*RES
1 *909:Y *541:8 39.7482 
2 *541:8 *541:14 37.697 
3 *541:14 *913:A1 17.2 
*END

*D_NET *542 0.000227665
*CONN
*I *914:B I *D AND3x1_ASAP7_75t_SL
*I *911:A I *D AND2x4_ASAP7_75t_SL
*I *924:C I *D AND4x1_ASAP7_75t_SL
*I *910:Y O *D AND2x2_ASAP7_75t_SL
*CAP
1 *914:B 1.63204e-05
2 *911:A 3.63035e-06
3 *924:C 1.22158e-05
4 *910:Y 2.62609e-05
5 *542:21 3.02538e-05
6 *542:10 2.86002e-05
7 *542:8 3.23423e-05
8 *911:A *911:B 2.12481e-06
9 *911:A *543:6 6.70433e-06
10 *911:A *697:12 3.13426e-06
11 *914:B *788:40 0
12 *914:B *827:24 0
13 *542:8 *787:22 1.44639e-06
14 *542:10 *554:8 2.68933e-07
15 *542:10 *697:24 8.06436e-06
16 *542:10 *788:25 0
17 *542:21 *911:B 4.83862e-06
18 *542:21 *544:8 0
19 *542:21 *697:24 1.15587e-05
20 *542:21 *788:25 0
21 *17:31 *924:C 3.09627e-05
22 *17:31 *542:8 8.41606e-06
23 *18:8 *914:B 5.22376e-07
24 *18:16 *542:21 0
*RES
1 *910:Y *542:8 46.701 
2 *542:8 *542:10 5.06849 
3 *542:10 *924:C 43.492 
4 *542:10 *542:21 7.88432 
5 *542:21 *911:A 39.2134 
6 *542:21 *914:B 44.4803 
*END

*D_NET *543 0.000123071
*CONN
*I *912:B I *D XNOR2x2_ASAP7_75t_SL
*I *911:Y O *D AND2x4_ASAP7_75t_SL
*CAP
1 *912:B 0
2 *911:Y 3.92817e-05
3 *543:12 2.76825e-06
4 *543:6 4.20499e-05
5 *543:6 *544:14 6.28016e-06
6 *543:6 *697:12 0
7 *543:12 *544:18 8.33296e-06
8 *543:12 *550:16 1.49079e-05
9 *543:12 *786:28 5.49212e-07
10 *543:12 *786:41 2.19685e-06
11 *911:A *543:6 6.70433e-06
*RES
1 *911:Y *543:6 34.8492 
2 *543:6 *543:12 39.4685 
3 *543:12 *912:B 17.2 
*END

*D_NET *544 0.000213421
*CONN
*I *913:B I *D OA211x2_ASAP7_75t_SL
*I *912:Y O *D XNOR2x2_ASAP7_75t_SL
*CAP
1 *913:B 5.51296e-06
2 *912:Y 3.68437e-06
3 *544:18 2.82136e-05
4 *544:14 3.2833e-05
5 *544:8 1.38168e-05
6 *544:8 *911:B 5.37866e-07
7 *544:8 *697:24 2.68933e-07
8 *544:8 *827:24 5.1866e-06
9 *544:18 *918:A3 2.63431e-05
10 *544:18 *550:16 2.04997e-05
11 *544:18 *786:41 8.66267e-06
12 *544:18 *817:124 1.51765e-05
13 *544:18 *817:132 2.37635e-05
14 *544:18 *817:134 7.71949e-06
15 *544:18 *854:40 3.875e-06
16 *541:14 *913:B 2.71368e-06
17 *542:21 *544:8 0
18 *543:6 *544:14 6.28016e-06
19 *543:12 *544:18 8.33296e-06
*RES
1 *912:Y *544:8 38.3422 
2 *544:8 *544:14 40.2831 
3 *544:14 *544:18 49.3005 
4 *544:18 *913:B 19.8741 
*END

*D_NET *545 6.90977e-05
*CONN
*I *915:B I *D XNOR2x2_ASAP7_75t_SL
*I *914:Y O *D AND3x1_ASAP7_75t_SL
*CAP
1 *915:B 2.07864e-05
2 *914:Y 8.76126e-06
3 *545:8 2.95476e-05
4 *915:B *546:14 6.44983e-06
5 *915:B *827:16 1.26378e-06
6 *915:B *827:22 2.28884e-06
7 *545:8 *546:8 0
8 *545:8 *827:22 0
9 *545:8 *827:24 0
10 *531:10 *545:8 0
*RES
1 *914:Y *545:8 40.0317 
2 *545:8 *915:B 47.7706 
*END

*D_NET *546 0.000105692
*CONN
*I *918:A3 I *D AO32x2_ASAP7_75t_SL
*I *915:Y O *D XNOR2x2_ASAP7_75t_SL
*CAP
1 *918:A3 1.02515e-05
2 *915:Y 5.5599e-06
3 *546:14 1.9731e-05
4 *546:8 1.50394e-05
5 *918:A3 *918:A2 2.88806e-06
6 *918:A3 *817:134 3.61852e-06
7 *918:A3 *854:40 3.6269e-06
8 *918:A3 *854:46 5.52807e-07
9 *546:8 *827:22 4.58327e-06
10 *546:14 *817:132 3.48165e-06
11 *546:14 *827:22 3.56648e-06
12 *915:B *546:14 6.44983e-06
13 *544:18 *918:A3 2.63431e-05
14 *545:8 *546:8 0
*RES
1 *915:Y *546:8 38.3422 
2 *546:8 *546:14 41.3527 
3 *546:14 *918:A3 45.55 
*END

*D_NET *547 5.10732e-05
*CONN
*I *917:B I *D XNOR2x2_ASAP7_75t_SL
*I *916:Y O *D OR5x1_ASAP7_75t_SL
*CAP
1 *917:B 9.75796e-06
2 *916:Y 9.49622e-06
3 *547:8 1.92542e-05
4 *917:B *548:8 6.7842e-07
5 *917:B *850:93 6.70433e-06
6 *547:8 *550:8 4.85466e-06
7 *547:8 *837:40 2.83874e-07
8 *547:8 *850:93 4.35576e-08
*RES
1 *916:Y *547:8 40.0317 
2 *547:8 *917:B 41.3527 
*END

*D_NET *548 0.000224545
*CONN
*I *918:B2 I *D AO32x2_ASAP7_75t_SL
*I *917:Y O *D XNOR2x2_ASAP7_75t_SL
*CAP
1 *918:B2 4.45373e-06
2 *917:Y 1.5899e-05
3 *548:10 5.12929e-05
4 *548:8 6.27382e-05
5 *548:10 *550:8 4.31886e-06
6 *548:10 *550:16 0
7 *548:10 *728:79 0
8 *548:10 *839:87 6.20423e-06
9 *548:10 *839:97 8.52859e-06
10 *548:10 *854:28 3.84449e-06
11 *909:A1 *548:10 3.29527e-06
12 *917:B *548:8 6.7842e-07
13 *918:B1 *918:B2 6.10603e-06
14 *155:8 *548:10 0
15 *537:8 *548:10 1.58039e-05
16 *540:12 *548:10 0
17 *541:14 *548:10 4.13817e-05
*RES
1 *917:Y *548:8 40.2831 
2 *548:8 *548:10 45.0533 
3 *548:10 *918:B2 38.6786 
*END

*D_NET *549 0.000101535
*CONN
*I *920:A I *D XNOR2x2_ASAP7_75t_SL
*I *919:Y O *D OR3x1_ASAP7_75t_SL
*CAP
1 *920:A 2.98282e-05
2 *919:Y 2.98282e-05
3 *919:C *920:A 3.81087e-05
4 *519:16 *920:A 3.77e-06
*RES
1 *919:Y *920:A 47.7706 
*END

*D_NET *550 0.000707088
*CONN
*I *927:A2 I *D OA211x2_ASAP7_75t_SL
*I *920:Y O *D XNOR2x2_ASAP7_75t_SL
*CAP
1 *927:A2 0
2 *920:Y 0
3 *550:16 7.94833e-05
4 *550:14 8.48308e-05
5 *550:8 4.85554e-05
6 *550:6 4.32079e-05
7 *550:8 *837:40 0
8 *550:8 *839:74 9.49598e-06
9 *550:8 *839:87 0
10 *550:8 *840:36 4.37021e-06
11 *550:8 *843:8 5.97901e-06
12 *550:14 *850:85 5.10152e-07
13 *550:16 *697:26 7.7278e-06
14 *550:16 *786:18 6.36172e-06
15 *550:16 *786:28 8.2174e-07
16 *550:16 *817:124 4.46074e-05
17 *550:16 *817:132 2.37635e-05
18 *550:16 *817:158 1.04413e-05
19 *550:16 *827:22 2.47303e-05
20 *550:16 *827:24 0.00011218
21 *550:16 *827:87 0
22 *550:16 *837:40 1.62854e-06
23 *550:16 *854:58 2.46166e-05
24 *909:A1 *550:16 1.63606e-05
25 *17:27 *550:16 3.30589e-06
26 *353:14 *550:8 2.95689e-05
27 *353:21 *550:8 5.93996e-05
28 *533:51 *550:8 1.16966e-05
29 *537:8 *550:8 5.0041e-06
30 *537:8 *550:16 1.67815e-06
31 *541:14 *550:16 2.18135e-06
32 *543:12 *550:16 1.49079e-05
33 *544:18 *550:16 2.04997e-05
34 *547:8 *550:8 4.85466e-06
35 *548:10 *550:8 4.31886e-06
36 *548:10 *550:16 0
*RES
1 *920:Y *550:6 34.4 
2 *550:6 *550:8 44.0208 
3 *550:8 *550:14 36.1315 
4 *550:14 *550:16 96.2075 
5 *550:16 *927:A2 34.4 
*END

*D_NET *551 0.000235399
*CONN
*I *925:A1 I *D OAI21x1_ASAP7_75t_SL
*I *926:A1 I *D OA21x2_ASAP7_75t_SL
*I *921:Y O *D INVx1_ASAP7_75t_SL
*CAP
1 *925:A1 1.59209e-06
2 *926:A1 0
3 *921:Y 2.29802e-05
4 *551:14 4.41243e-05
5 *551:10 5.26193e-05
6 *551:8 2.98832e-05
7 *925:A1 *555:14 2.84286e-06
8 *925:A1 *788:25 8.33296e-06
9 *551:8 *921:A 4.57952e-06
10 *551:8 *1449:A 1.04475e-06
11 *551:8 *788:14 5.77516e-06
12 *551:10 *555:14 1.52665e-05
13 *551:10 *788:25 3.54456e-05
14 *551:14 *926:B 6.70433e-06
15 *551:14 *553:14 1.07377e-06
16 *551:14 *554:27 0
17 *551:14 *556:8 3.13426e-06
*RES
1 *921:Y *551:8 45.6313 
2 *551:8 *551:10 11.8265 
3 *551:10 *551:14 36.9885 
4 *551:14 *926:A1 17.2 
5 *551:10 *925:A1 37.2158 
*END

*D_NET *552 0.000579856
*CONN
*I *1692:A I *D BUFx3_ASAP7_75t_SL
*I *923:A I *D AND3x1_ASAP7_75t_SL
*I *922:Y O *D AND3x1_ASAP7_75t_SL
*CAP
1 *1692:A 5.50524e-06
2 *923:A 2.80386e-06
3 *922:Y 0
4 *552:21 8.45317e-05
5 *552:10 0.000110555
6 *552:6 7.18456e-05
7 *552:4 4.3121e-05
8 *923:A *553:6 1.79628e-05
9 *552:6 *922:B 1.2768e-05
10 *552:6 *734:8 3.09505e-05
11 *552:10 *1403:A 5.23062e-06
12 *552:10 *727:8 2.22736e-06
13 *552:10 *727:21 6.10236e-08
14 *552:10 *750:28 3.48708e-06
15 *552:10 *750:52 0
16 *552:21 *827:12 0
17 *552:21 *890:8 0
18 *923:B *923:A 1.2768e-05
19 *1099:A2 *552:10 0
20 *1406:A *552:21 1.09067e-06
21 *76:36 *552:21 2.33715e-05
22 *217:44 *552:21 2.93976e-05
23 *219:45 *552:21 5.67747e-07
24 *224:8 *552:10 0
25 *262:31 *552:6 2.52755e-07
26 *486:12 *552:6 2.91071e-05
27 *489:16 *923:A 2.28976e-06
28 *514:10 *552:10 4.51473e-06
29 *514:10 *552:21 3.77954e-05
30 *514:61 *552:21 4.17037e-05
31 *524:65 *552:10 0
32 *524:88 *552:21 5.94781e-06
*RES
1 *922:Y *552:4 17.2 
2 *552:4 *552:6 33.694 
3 *552:6 *552:10 38.0371 
4 *552:10 *923:A 39.7482 
5 *552:10 *552:21 73.2116 
6 *552:21 *1692:A 37.0741 
*END

*D_NET *553 0.000792729
*CONN
*I *925:A2 I *D OAI21x1_ASAP7_75t_SL
*I *923:Y O *D AND3x1_ASAP7_75t_SL
*CAP
1 *925:A2 0
2 *923:Y 0
3 *553:14 6.18914e-05
4 *553:12 6.36263e-05
5 *553:6 0.000141303
6 *553:4 0.000139568
7 *553:6 *753:19 9.91308e-05
8 *553:6 *753:28 5.41446e-06
9 *553:12 *575:16 8.06436e-06
10 *553:14 *555:8 1.99018e-05
11 *553:14 *753:19 1.3659e-05
12 *553:14 *785:21 8.87291e-05
13 *553:14 *786:10 5.34278e-06
14 *923:A *553:6 1.79628e-05
15 *923:B *553:6 1.44639e-06
16 *950:C *553:6 2.6409e-06
17 *15:30 *553:12 8.06436e-06
18 *16:27 *553:14 5.62196e-06
19 *18:16 *553:14 2.12481e-06
20 *486:20 *553:6 1.85565e-05
21 *486:26 *553:6 6.52266e-05
22 *489:16 *553:6 3.68565e-06
23 *490:23 *553:14 1.96943e-05
24 *551:14 *553:14 1.07377e-06
*RES
1 *923:Y *553:4 17.2 
2 *553:4 *553:6 68.9924 
3 *553:6 *553:12 37.2158 
4 *553:12 *553:14 50.8084 
5 *553:14 *925:A2 17.2 
*END

*D_NET *554 9.66429e-05
*CONN
*I *926:A2 I *D OA21x2_ASAP7_75t_SL
*I *925:B I *D OAI21x1_ASAP7_75t_SL
*I *924:Y O *D AND4x1_ASAP7_75t_SL
*CAP
1 *926:A2 0
2 *925:B 5.12293e-06
3 *924:Y 6.02602e-06
4 *554:27 2.2876e-05
5 *554:8 3.40249e-05
6 *925:B *556:8 8.87763e-06
7 *925:B *697:26 2.05045e-06
8 *554:8 *697:24 6.33206e-07
9 *554:8 *697:26 1.52942e-06
10 *554:8 *788:25 0
11 *554:27 *926:B 1.59615e-06
12 *554:27 *556:8 1.52651e-06
13 *554:27 *817:134 3.77773e-06
14 *554:27 *854:58 8.33296e-06
15 *542:10 *554:8 2.68933e-07
16 *551:14 *554:27 0
*RES
1 *924:Y *554:8 37.779 
2 *554:8 *925:B 38.7636 
3 *554:8 *554:27 45.2382 
4 *554:27 *926:A2 34.4 
*END

*D_NET *555 0.000133652
*CONN
*I *927:B I *D OA211x2_ASAP7_75t_SL
*I *925:Y O *D OAI21x1_ASAP7_75t_SL
*CAP
1 *927:B 0
2 *925:Y 7.63228e-06
3 *555:14 3.17295e-05
4 *555:8 3.93618e-05
5 *555:14 *556:12 4.33281e-06
6 *555:14 *697:26 0
7 *555:14 *788:25 2.77657e-06
8 *555:14 *827:39 0
9 *925:A1 *555:14 2.84286e-06
10 *158:8 *555:14 9.8079e-06
11 *551:10 *555:14 1.52665e-05
12 *553:14 *555:8 1.99018e-05
*RES
1 *925:Y *555:8 40.2831 
2 *555:8 *555:14 44.455 
3 *555:14 *927:B 17.2 
*END

*D_NET *556 7.72323e-05
*CONN
*I *927:C I *D OA211x2_ASAP7_75t_SL
*I *926:Y O *D OA21x2_ASAP7_75t_SL
*CAP
1 *927:C 0
2 *926:Y 2.66079e-06
3 *556:12 2.02702e-05
4 *556:8 2.29309e-05
5 *556:12 *697:26 2.71921e-06
6 *556:12 *827:39 1.02307e-05
7 *925:B *556:8 8.87763e-06
8 *158:8 *556:12 5.49212e-07
9 *551:14 *556:8 3.13426e-06
10 *554:27 *556:8 1.52651e-06
11 *555:14 *556:12 4.33281e-06
*RES
1 *926:Y *556:8 38.1438 
2 *556:8 *556:12 34.6581 
3 *556:12 *927:C 17.2 
*END

*D_NET *557 0.000142098
*CONN
*I *1710:A I *D BUFx3_ASAP7_75t_SL
*I *945:B I *D AND2x2_ASAP7_75t_SL
*I *928:Y O *D AND4x2_ASAP7_75t_SL
*CAP
1 *1710:A 0
2 *945:B 0
3 *928:Y 0
4 *557:23 2.65322e-05
5 *557:12 2.68587e-05
6 *557:6 5.33909e-05
7 *557:12 *753:30 0
8 *557:12 *854:12 2.17578e-05
9 *557:12 *855:20 0
10 *557:23 *558:12 3.56648e-06
11 *557:23 *742:6 5.22376e-06
12 *557:23 *854:14 1.26378e-06
13 *557:23 *855:20 0
14 *488:6 *557:12 1.52651e-06
15 *529:44 *557:23 2.68933e-07
16 *530:12 *557:12 1.70866e-06
*RES
1 *928:Y *557:6 34.4 
2 *557:6 *557:12 39.67 
3 *557:12 *945:B 17.2 
4 *557:6 *557:23 35.6391 
5 *557:23 *1710:A 17.2 
*END

*D_NET *558 0.000132074
*CONN
*I *934:A I *D NAND2x1_ASAP7_75t_SL
*I *930:B I *D AO21x1_ASAP7_75t_SL
*I *929:Y O *D INVx1_ASAP7_75t_SL
*CAP
1 *934:A 0
2 *930:B 3.76386e-06
3 *929:Y 9.8269e-06
4 *558:12 1.45717e-05
5 *558:8 2.06347e-05
6 *930:B *930:A2 7.38275e-06
7 *930:B *742:14 1.95129e-06
8 *930:B *854:14 6.70433e-06
9 *558:12 *930:A2 6.7842e-07
10 *558:12 *559:10 5.51397e-07
11 *558:12 *563:10 6.86929e-06
12 *558:12 *742:6 2.6401e-05
13 *558:12 *742:14 2.14137e-05
14 *15:12 *558:8 7.75768e-06
15 *557:23 *558:12 3.56648e-06
*RES
1 *929:Y *558:8 41.158 
2 *558:8 *558:12 31.6403 
3 *558:12 *930:B 22.5483 
4 *558:12 *934:A 17.2 
*END

*D_NET *559 6.11369e-05
*CONN
*I *935:A1 I *D OA211x2_ASAP7_75t_SL
*I *930:Y O *D AO21x1_ASAP7_75t_SL
*CAP
1 *935:A1 2.10889e-06
2 *930:Y 1.38153e-05
3 *559:10 1.59242e-05
4 *935:A1 *817:173 1.35684e-06
5 *559:10 *930:A2 9.30483e-06
6 *559:10 *575:16 1.63973e-05
7 *559:10 *579:10 1.67815e-06
8 *558:12 *559:10 5.51397e-07
*RES
1 *930:Y *559:10 43.7754 
2 *559:10 *935:A1 35.4697 
*END

*D_NET *560 7.99723e-05
*CONN
*I *933:A2 I *D OA21x2_ASAP7_75t_SL
*I *931:Y O *D OA21x2_ASAP7_75t_SL
*CAP
1 *933:A2 1.3356e-05
2 *931:Y 3.9114e-06
3 *560:8 1.72674e-05
4 *933:A2 *561:8 0
5 *933:A2 *565:10 0
6 *933:A2 *579:10 4.17737e-05
7 *933:A2 *832:37 1.62854e-06
8 *560:8 *841:22 2.03526e-06
*RES
1 *931:Y *560:8 36.0045 
2 *560:8 *933:A2 48.4791 
*END

*D_NET *561 3.78598e-05
*CONN
*I *933:A1 I *D OA21x2_ASAP7_75t_SL
*I *932:Y O *D NOR3x1_ASAP7_75t_SL
*CAP
1 *933:A1 4.06803e-06
2 *932:Y 5.89989e-06
3 *561:8 9.96793e-06
4 *561:8 *565:10 5.37569e-06
5 *933:A2 *561:8 0
6 *514:81 *933:A1 1.25483e-05
*RES
1 *932:Y *561:8 38.9053 
2 *561:8 *933:A1 38.1438 
*END

*D_NET *562 0.00015037
*CONN
*I *935:A2 I *D OA211x2_ASAP7_75t_SL
*I *933:Y O *D OA21x2_ASAP7_75t_SL
*CAP
1 *935:A2 0
2 *933:Y 1.16533e-05
3 *562:14 1.69985e-05
4 *562:8 2.86518e-05
5 *562:14 *575:16 8.87893e-06
6 *562:14 *579:10 6.44542e-05
7 *562:14 *817:173 2.66797e-07
8 *933:B *562:8 2.03526e-06
9 *1693:A *562:8 7.72307e-07
10 *514:81 *562:8 0
11 *524:50 *562:14 1.66587e-05
*RES
1 *933:Y *562:8 39.2134 
2 *562:8 *562:14 39.67 
3 *562:14 *935:A2 17.2 
*END

*D_NET *563 6.88047e-05
*CONN
*I *935:B I *D OA211x2_ASAP7_75t_SL
*I *934:Y O *D NAND2x1_ASAP7_75t_SL
*CAP
1 *935:B 0
2 *934:Y 1.3303e-05
3 *563:10 1.3303e-05
4 *563:10 *575:16 2.68658e-05
5 *563:10 *817:173 8.46363e-06
6 *15:12 *563:10 0
7 *558:12 *563:10 6.86929e-06
*RES
1 *934:Y *563:10 48.2241 
2 *563:10 *935:B 34.4 
*END

*D_NET *564 1.36578e-05
*CONN
*I *937:B I *D XNOR2x2_ASAP7_75t_SL
*I *936:Y O *D OR4x1_ASAP7_75t_SL
*CAP
1 *937:B 0
2 *936:Y 5.03429e-06
3 *564:8 5.03429e-06
4 *564:8 *830:25 4.26751e-07
5 *564:8 *872:56 0
6 *936:D *564:8 3.1625e-06
*RES
1 *936:Y *564:8 38.9053 
2 *564:8 *937:B 34.4 
*END

*D_NET *565 0.00050296
*CONN
*I *943:A2 I *D AO21x2_ASAP7_75t_SL
*I *937:Y O *D XNOR2x2_ASAP7_75t_SL
*CAP
1 *943:A2 2.06505e-06
2 *937:Y 1.59148e-05
3 *565:18 9.72463e-05
4 *565:16 0.000102255
5 *565:10 8.65254e-05
6 *565:8 9.53661e-05
7 *565:10 *579:10 0
8 *565:10 *704:8 5.22719e-06
9 *565:10 *816:107 5.37866e-07
10 *565:10 *817:107 9.67723e-06
11 *565:10 *817:116 8.33296e-06
12 *565:10 *832:31 1.15945e-06
13 *565:10 *832:37 1.47913e-06
14 *565:10 *842:18 9.48743e-06
15 *565:10 *850:50 3.79923e-06
16 *565:10 *850:54 1.1275e-05
17 *565:10 *850:60 4.59644e-06
18 *565:10 *872:92 2.22736e-06
19 *565:10 *872:100 1.93482e-06
20 *565:16 *854:128 3.48165e-06
21 *565:18 *567:10 2.83874e-07
22 *565:18 *697:8 4.1009e-06
23 *565:18 *817:78 0
24 *565:18 *817:86 0
25 *565:18 *817:97 0
26 *565:18 *817:107 1.45158e-05
27 *565:18 *854:128 1.12901e-05
28 *933:A2 *565:10 0
29 *413:34 *565:8 4.23705e-06
30 *490:12 *565:18 0
31 *522:20 *565:10 1.49407e-08
32 *524:35 *565:10 0
33 *525:8 *565:10 0
34 *525:8 *565:18 0
35 *536:12 *565:18 5.52807e-07
36 *561:8 *565:10 5.37569e-06
*RES
1 *937:Y *565:8 41.3527 
2 *565:8 *565:10 62.5114 
3 *565:10 *565:16 37.0741 
4 *565:16 *565:18 69.2694 
5 *565:18 *943:A2 35.4697 
*END

*D_NET *566 0.000265675
*CONN
*I *954:B2 I *D AO22x2_ASAP7_75t_SL
*I *949:B1 I *D AO22x2_ASAP7_75t_SL
*I *943:A1 I *D AO21x2_ASAP7_75t_SL
*I *938:Y O *D AND2x4_ASAP7_75t_SL
*CAP
1 *954:B2 1.05873e-05
2 *949:B1 9.47066e-06
3 *943:A1 0
4 *938:Y 0
5 *566:21 6.26494e-05
6 *566:12 9.36913e-06
7 *566:4 5.19606e-05
8 *949:B1 *573:18 5.13209e-07
9 *949:B1 *575:16 3.01196e-05
10 *949:B1 *827:106 1.31577e-05
11 *949:B1 *881:10 3.40048e-06
12 *954:B2 *954:B1 2.20493e-06
13 *954:B2 *575:16 1.45158e-05
14 *954:B2 *577:12 1.27802e-05
15 *566:12 *943:B 1.09067e-06
16 *566:12 *817:48 8.65792e-06
17 *566:21 *571:10 0
18 *566:21 *817:48 2.92189e-05
19 *525:8 *566:12 5.97901e-06
*RES
1 *938:Y *566:4 17.2 
2 *566:4 *566:12 41.5795 
3 *566:12 *943:A1 17.2 
4 *566:4 *566:21 35.9189 
5 *566:21 *949:B1 46.7897 
6 *566:21 *954:B2 43.7754 
*END

*D_NET *567 0.000296421
*CONN
*I *940:A2 I *D AOI21x1_ASAP7_75t_SL
*I *941:D I *D AND4x1_ASAP7_75t_SL
*I *939:Y O *D AND2x2_ASAP7_75t_SL
*CAP
1 *940:A2 0
2 *941:D 1.58168e-05
3 *939:Y 2.82744e-05
4 *567:29 3.65389e-05
5 *567:10 8.15702e-05
6 *567:8 5.74889e-05
7 *941:D *941:C 2.90209e-08
8 *941:D *569:8 9.61305e-06
9 *941:D *783:16 7.27208e-06
10 *941:D *783:31 2.06219e-05
11 *941:D *817:24 1.9992e-06
12 *567:8 *753:12 0
13 *567:10 *943:B 2.19685e-06
14 *567:10 *783:31 4.30755e-06
15 *567:10 *817:35 2.65573e-06
16 *567:10 *817:44 1.67815e-06
17 *567:10 *817:74 3.05118e-08
18 *567:10 *817:78 0
19 *567:29 *701:36 6.35292e-07
20 *567:29 *881:16 1.2101e-06
21 *939:A *567:8 3.56177e-06
22 *20:8 *567:29 3.05599e-06
23 *160:14 *941:D 3.05617e-06
24 *160:14 *567:10 1.45247e-05
25 *525:8 *567:10 0
26 *565:18 *567:10 2.83874e-07
*RES
1 *939:Y *567:8 46.701 
2 *567:8 *567:10 22.9959 
3 *567:10 *941:D 47.3333 
4 *567:10 *567:29 44.9557 
5 *567:29 *940:A2 34.4 
*END

*D_NET *568 3.28782e-05
*CONN
*I *942:A2 I *D OA21x2_ASAP7_75t_SL
*I *940:Y O *D AOI21x1_ASAP7_75t_SL
*CAP
1 *942:A2 6.93661e-06
2 *940:Y 6.93661e-06
3 *942:A2 *942:A1 6.5975e-06
4 *942:A2 *783:31 1.17291e-05
5 *525:14 *942:A2 6.7842e-07
*RES
1 *940:Y *942:A2 41.3527 
*END

*D_NET *569 6.54462e-05
*CONN
*I *942:A1 I *D OA21x2_ASAP7_75t_SL
*I *941:Y O *D AND4x1_ASAP7_75t_SL
*CAP
1 *942:A1 1.79695e-05
2 *941:Y 3.00393e-06
3 *569:8 2.09735e-05
4 *942:A1 *942:B 3.3921e-06
5 *942:A1 *783:31 2.90269e-07
6 *569:8 *817:24 3.60632e-06
7 *941:D *569:8 9.61305e-06
8 *942:A2 *942:A1 6.5975e-06
*RES
1 *941:Y *569:8 37.779 
2 *569:8 *942:A1 42.4224 
*END

*D_NET *570 0.000114973
*CONN
*I *943:B I *D AO21x2_ASAP7_75t_SL
*I *942:Y O *D OA21x2_ASAP7_75t_SL
*CAP
1 *943:B 1.37085e-05
2 *942:Y 1.84376e-05
3 *570:8 3.21461e-05
4 *570:8 *942:B 2.50424e-06
5 *570:8 *783:31 1.00976e-05
6 *160:14 *943:B 3.47914e-05
7 *525:8 *943:B 0
8 *566:12 *943:B 1.09067e-06
9 *567:10 *943:B 2.19685e-06
*RES
1 *942:Y *570:8 41.3527 
2 *570:8 *943:B 48.4791 
*END

*D_NET *571 1.99587e-05
*CONN
*I *949:A1 I *D AO22x2_ASAP7_75t_SL
*I *944:Y O *D AND2x2_ASAP7_75t_SL
*CAP
1 *949:A1 0
2 *944:Y 9.67425e-06
3 *571:10 9.67425e-06
4 *571:10 *575:16 0
5 *571:10 *817:35 6.10236e-07
6 *566:21 *571:10 0
*RES
1 *944:Y *571:10 39.3835 
2 *571:10 *949:A1 34.4 
*END

*D_NET *572 0.000170743
*CONN
*I *946:B I *D XNOR2x2_ASAP7_75t_SL
*I *945:Y O *D AND2x2_ASAP7_75t_SL
*CAP
1 *946:B 5.66321e-06
2 *945:Y 0
3 *572:10 4.02623e-05
4 *572:6 3.45991e-05
5 *946:B *946:A 3.81627e-06
6 *946:B *950:A 3.37667e-05
7 *946:B *753:19 4.26443e-05
8 *572:10 *1417:B 0
9 *572:10 *753:30 6.74311e-06
10 *572:10 *780:21 0
11 *572:10 *827:96 0
12 *229:23 *572:10 0
13 *230:8 *572:10 0
14 *496:22 *572:10 3.24832e-06
*RES
1 *945:Y *572:6 34.4 
2 *572:6 *572:10 39.7266 
3 *572:10 *946:B 30.0358 
*END

*D_NET *573 0.000269297
*CONN
*I *949:A2 I *D AO22x2_ASAP7_75t_SL
*I *946:Y O *D XNOR2x2_ASAP7_75t_SL
*CAP
1 *949:A2 0
2 *946:Y 0
3 *573:18 4.28464e-06
4 *573:12 5.79556e-05
5 *573:8 9.14832e-05
6 *573:6 3.78122e-05
7 *573:8 *951:B 1.34329e-05
8 *573:8 *577:8 5.79724e-07
9 *573:8 *780:10 2.62125e-05
10 *573:8 *780:21 2.76426e-05
11 *573:12 *949:B2 5.84952e-07
12 *573:12 *827:100 3.79998e-06
13 *573:12 *827:106 4.99576e-06
14 *949:B1 *573:18 5.13209e-07
15 *12:8 *573:8 0
16 *12:27 *573:8 0
*RES
1 *946:Y *573:6 34.4 
2 *573:6 *573:8 34.3531 
3 *573:8 *573:12 40.1975 
4 *573:12 *573:18 37.2158 
5 *573:18 *949:A2 17.2 
*END

*D_NET *574 1.10104e-05
*CONN
*I *948:B I *D XNOR2x1_ASAP7_75t_SL
*I *947:Y O *D OR3x1_ASAP7_75t_SL
*CAP
1 *948:B 5.50518e-06
2 *947:Y 5.50518e-06
*RES
1 *947:Y *948:B 37.0741 
*END

*D_NET *575 0.000862614
*CONN
*I *949:B2 I *D AO22x2_ASAP7_75t_SL
*I *948:Y O *D XNOR2x1_ASAP7_75t_SL
*CAP
1 *949:B2 1.9863e-06
2 *948:Y 5.30253e-06
3 *575:16 0.000158887
4 *575:14 0.000168504
5 *575:8 1.69059e-05
6 *575:8 *850:42 7.23818e-06
7 *575:8 *873:12 5.23359e-06
8 *575:14 *579:8 2.55346e-06
9 *575:14 *850:34 2.28613e-05
10 *575:16 *579:10 1.62854e-06
11 *575:16 *579:18 0.000181211
12 *575:16 *742:14 4.43244e-06
13 *575:16 *816:95 2.05484e-06
14 *575:16 *817:35 0
15 *575:16 *817:44 0
16 *575:16 *817:74 0
17 *949:B1 *575:16 3.01196e-05
18 *954:B2 *575:16 1.45158e-05
19 *1693:A *575:16 3.00916e-05
20 *14:29 *575:16 5.52807e-07
21 *14:39 *575:16 4.57907e-05
22 *15:12 *575:16 0
23 *15:20 *575:16 1.64764e-06
24 *15:30 *575:16 1.61913e-05
25 *159:8 *575:16 0
26 *413:36 *575:16 8.61943e-06
27 *490:23 *575:16 8.2174e-07
28 *496:40 *575:16 5.26713e-06
29 *524:50 *575:16 9.47659e-06
30 *533:8 *575:16 5.99291e-05
31 *553:12 *575:16 8.06436e-06
32 *559:10 *575:16 1.63973e-05
33 *562:14 *575:16 8.87893e-06
34 *563:10 *575:16 2.68658e-05
35 *571:10 *575:16 0
36 *573:12 *949:B2 5.84952e-07
*RES
1 *948:Y *575:8 41.158 
2 *575:8 *575:14 42.4224 
3 *575:14 *575:16 158.813 
4 *575:16 *949:B2 35.4697 
*END

*D_NET *576 0.000178724
*CONN
*I *951:B I *D NOR2x1_ASAP7_75t_SL
*I *950:Y O *D AND3x1_ASAP7_75t_SL
*CAP
1 *951:B 3.47077e-06
2 *950:Y 1.49024e-05
3 *576:16 3.58997e-05
4 *576:10 4.73313e-05
5 *951:B *577:8 3.95845e-06
6 *576:10 *781:8 0
7 *576:10 *827:96 3.86859e-05
8 *576:16 *780:8 0
9 *950:C *576:10 5.85387e-06
10 *1748:A *576:16 5.41446e-06
11 *13:23 *576:10 1.62854e-06
12 *490:35 *576:16 8.146e-06
13 *490:43 *951:B 0
14 *573:8 *951:B 1.34329e-05
*RES
1 *950:Y *576:10 48.9573 
2 *576:10 *576:16 48.8403 
3 *576:16 *951:B 38.9053 
*END

*D_NET *577 0.000179508
*CONN
*I *954:A2 I *D AO22x2_ASAP7_75t_SL
*I *951:Y O *D NOR2x1_ASAP7_75t_SL
*CAP
1 *954:A2 0
2 *951:Y 1.226e-05
3 *577:12 3.11837e-05
4 *577:8 4.34437e-05
5 *577:12 *780:8 1.64509e-05
6 *951:B *577:8 3.95845e-06
7 *954:B2 *577:12 1.27802e-05
8 *490:31 *577:12 3.09505e-05
9 *490:35 *577:12 2.73214e-05
10 *490:43 *577:8 5.79724e-07
11 *573:8 *577:8 5.79724e-07
*RES
1 *951:Y *577:8 42.2843 
2 *577:8 *577:12 45.5457 
3 *577:12 *954:A2 17.2 
*END

*D_NET *578 0.00013401
*CONN
*I *953:B I *D XNOR2x2_ASAP7_75t_SL
*I *952:Y O *D OR4x1_ASAP7_75t_SL
*CAP
1 *953:B 0
2 *952:Y 3.12353e-05
3 *578:6 3.12353e-05
4 *578:6 *919:A 6.1473e-07
5 *578:6 *653:26 5.19475e-06
6 *578:6 *873:12 6.24881e-06
7 *952:C *578:6 1.36155e-06
8 *952:D *578:6 3.90258e-06
9 *519:16 *578:6 4.06202e-06
10 *519:29 *578:6 2.14642e-05
11 *519:33 *578:6 3.89037e-06
12 *519:44 *578:6 2.48004e-05
*RES
1 *952:Y *578:6 38.593 
2 *578:6 *953:B 17.2 
*END

*D_NET *579 0.00070872
*CONN
*I *954:B1 I *D AO22x2_ASAP7_75t_SL
*I *953:Y O *D XNOR2x2_ASAP7_75t_SL
*CAP
1 *954:B1 2.75969e-06
2 *953:Y 3.34523e-06
3 *579:18 5.39099e-05
4 *579:16 5.95141e-05
5 *579:10 9.92473e-05
6 *579:8 9.42286e-05
7 *579:10 *742:14 4.43244e-06
8 *579:10 *816:95 2.17799e-05
9 *579:10 *816:107 0
10 *579:10 *817:97 1.62854e-06
11 *579:10 *832:37 0
12 *579:10 *841:20 6.41585e-07
13 *579:10 *842:18 0
14 *579:10 *843:24 4.25954e-06
15 *579:10 *850:50 0
16 *579:18 *753:12 2.31101e-05
17 *579:18 *817:78 0
18 *579:18 *817:97 0
19 *579:18 *882:20 9.48496e-06
20 *933:A2 *579:10 4.17737e-05
21 *954:B2 *954:B1 2.20493e-06
22 *1693:A *579:10 5.00394e-06
23 *490:23 *579:18 6.07185e-06
24 *499:118 *579:16 5.19552e-07
25 *522:8 *579:10 9.81516e-06
26 *524:50 *579:10 3.13615e-06
27 *533:8 *579:10 5.13216e-06
28 *536:6 *579:16 5.19475e-06
29 *559:10 *579:10 1.67815e-06
30 *562:14 *579:10 6.44542e-05
31 *565:10 *579:10 0
32 *575:14 *579:8 2.55346e-06
33 *575:16 *579:10 1.62854e-06
34 *575:16 *579:18 0.000181211
*RES
1 *953:Y *579:8 36.0045 
2 *579:8 *579:10 79.4064 
3 *579:10 *579:16 38.1438 
4 *579:16 *579:18 60.8219 
5 *579:18 *954:B1 36.0045 
*END

*D_NET *580 0.000172654
*CONN
*I *958:A1 I *D OA21x2_ASAP7_75t_SL
*I *955:Y O *D AND2x2_ASAP7_75t_SL
*CAP
1 *958:A1 0
2 *955:Y 2.08989e-05
3 *580:12 4.61553e-05
4 *580:8 6.70542e-05
5 *580:8 *818:126 0
6 *580:8 *818:165 0
7 *580:8 *874:90 0
8 *580:12 *958:A2 1.21211e-05
9 *580:12 *820:308 1.56713e-06
10 *29:16 *580:12 2.48575e-05
*RES
1 *955:Y *580:8 46.2265 
2 *580:8 *580:12 42.3368 
3 *580:12 *958:A1 17.2 
*END

*D_NET *581 0.000181802
*CONN
*I *957:A2 I *D OA211x2_ASAP7_75t_SL
*I *956:Y O *D INVx1_ASAP7_75t_SL
*CAP
1 *957:A2 0
2 *956:Y 4.74048e-06
3 *581:22 5.18837e-06
4 *581:14 4.50875e-05
5 *581:8 4.46396e-05
6 *581:8 *779:6 0
7 *581:14 *962:C 3.05118e-08
8 *581:14 *815:88 0
9 *581:14 *818:115 1.45042e-05
10 *581:14 *896:21 4.73164e-07
11 *581:22 *815:88 2.42571e-06
12 *581:22 *818:115 4.05232e-06
13 *957:B *581:22 1.82733e-06
14 *79:12 *581:14 9.74162e-07
15 *513:14 *581:14 4.96757e-05
16 *513:14 *581:22 1.49407e-08
17 *529:68 *581:14 8.16763e-06
*RES
1 *956:Y *581:8 36.0045 
2 *581:8 *581:14 46.8494 
3 *581:14 *581:22 38.2855 
4 *581:22 *957:A2 17.2 
*END

*D_NET *582 5.91702e-05
*CONN
*I *958:A2 I *D OA21x2_ASAP7_75t_SL
*I *957:Y O *D OA211x2_ASAP7_75t_SL
*CAP
1 *958:A2 7.28777e-06
2 *957:Y 3.26776e-06
3 *582:8 1.05555e-05
4 *958:A2 *820:308 6.70433e-06
5 *582:8 *820:310 4.88501e-06
6 *515:8 *958:A2 7.63254e-07
7 *515:14 *582:8 1.35855e-05
8 *580:12 *958:A2 1.21211e-05
*RES
1 *957:Y *582:8 38.9053 
2 *582:8 *958:A2 41.3527 
*END

*D_NET *583 0.000161603
*CONN
*I *961:C I *D AND3x1_ASAP7_75t_SL
*I *959:Y O *D XOR2x2_ASAP7_75t_SL
*CAP
1 *961:C 7.54263e-06
2 *959:Y 0
3 *583:10 4.25947e-05
4 *583:6 3.50521e-05
5 *961:C *971:A 3.00838e-05
6 *583:10 *846:175 1.21036e-06
7 *583:10 *853:23 0
8 *10:27 *961:C 7.14604e-06
9 *10:35 *961:C 1.7743e-05
10 *11:14 *583:10 0
11 *11:21 *583:10 0
12 *164:8 *583:10 0
13 *216:20 *583:10 0
14 *220:8 *583:10 2.02304e-05
*RES
1 *959:Y *583:6 34.4 
2 *583:6 *583:10 41.9793 
3 *583:10 *961:C 27.3617 
*END

*D_NET *584 0.000158274
*CONN
*I *961:B I *D AND3x1_ASAP7_75t_SL
*I *960:Y O *D AO21x1_ASAP7_75t_SL
*CAP
1 *961:B 0
2 *960:Y 9.51256e-06
3 *584:14 2.60862e-05
4 *584:8 3.55988e-05
5 *584:8 *883:23 6.70433e-06
6 *584:14 *663:70 5.47069e-05
7 *584:14 *820:81 0
8 *584:14 *823:86 1.36943e-05
9 *584:14 *871:10 1.19708e-05
*RES
1 *960:Y *584:8 39.2134 
2 *584:8 *584:14 41.8093 
3 *584:14 *961:B 17.2 
*END

*D_NET *585 0.000492785
*CONN
*I *966:C I *D AND3x1_ASAP7_75t_SL
*I *964:A2 I *D AOI22x1_ASAP7_75t_SL
*I *962:Y O *D AND3x1_ASAP7_75t_SL
*CAP
1 *966:C 7.77129e-06
2 *964:A2 0
3 *962:Y 3.36534e-05
4 *585:30 9.39723e-06
5 *585:22 4.18932e-05
6 *585:18 4.27598e-05
7 *585:10 6.70371e-05
8 *585:8 8.26553e-05
9 *966:C *836:31 0
10 *966:C *836:44 1.63048e-05
11 *966:C *889:46 5.22376e-07
12 *585:8 *962:C 1.06138e-05
13 *585:10 *593:10 0
14 *585:10 *818:187 3.66048e-06
15 *585:10 *836:31 0
16 *585:10 *836:44 1.15587e-05
17 *585:18 *965:A 1.67815e-06
18 *585:18 *967:B 3.15324e-05
19 *585:18 *607:12 3.15324e-05
20 *585:18 *836:31 4.74248e-06
21 *585:22 *967:A2 3.31198e-05
22 *585:22 *967:B 2.20493e-06
23 *585:22 *587:6 3.68565e-06
24 *585:22 *607:12 5.19552e-07
25 *585:22 *622:14 8.06588e-06
26 *585:30 *587:6 1.62434e-05
27 *585:30 *622:18 3.47607e-06
28 *962:B *585:8 2.90209e-08
29 *5:16 *585:30 8.58704e-06
30 *10:10 *585:10 0
31 *11:8 *585:8 0
32 *11:14 *585:10 8.18276e-06
33 *11:21 *585:10 5.37569e-06
34 *11:36 *585:10 5.69885e-06
35 *165:8 *585:10 2.83874e-07
*RES
1 *962:Y *585:8 47.7706 
2 *585:8 *585:10 38.8585 
3 *585:10 *585:18 47.4342 
4 *585:18 *585:22 41.2671 
5 *585:22 *585:30 43.0989 
6 *585:30 *964:A2 17.2 
7 *585:10 *966:C 41.1013 
*END

*D_NET *586 0.000147389
*CONN
*I *964:B2 I *D AOI22x1_ASAP7_75t_SL
*I *963:Y O *D XNOR2x2_ASAP7_75t_SL
*CAP
1 *964:B2 0
2 *963:Y 2.81393e-05
3 *586:14 2.71889e-05
4 *586:8 5.53282e-05
5 *586:8 *618:14 1.49352e-05
6 *586:14 *598:14 1.17772e-06
7 *586:14 *604:18 2.41931e-06
8 *586:14 *619:10 8.4433e-06
9 *586:14 *687:12 9.75735e-06
10 *586:14 *820:115 0
11 *586:14 *823:73 0
*RES
1 *963:Y *586:8 48.8403 
2 *586:8 *586:14 37.1055 
3 *586:14 *964:B2 17.2 
*END

*D_NET *587 0.000104545
*CONN
*I *967:A1 I *D AOI211x1_ASAP7_75t_SL
*I *964:Y O *D AOI22x1_ASAP7_75t_SL
*CAP
1 *967:A1 0
2 *964:Y 2.37145e-05
3 *587:6 2.37145e-05
4 *587:6 *967:A2 8.39579e-06
5 *587:6 *622:14 2.01337e-05
6 *587:6 *772:10 8.65792e-06
7 *585:22 *587:6 3.68565e-06
8 *585:30 *587:6 1.62434e-05
*RES
1 *964:Y *587:6 38.0582 
2 *587:6 *967:A1 17.2 
*END

*D_NET *588 1.75562e-05
*CONN
*I *966:A I *D AND3x1_ASAP7_75t_SL
*I *965:Y O *D INVx1_ASAP7_75t_SL
*CAP
1 *966:A 5.18901e-06
2 *965:Y 5.18901e-06
3 *966:A *598:22 2.97289e-06
4 *966:A *836:31 3.68287e-06
5 *966:A *889:37 5.22376e-07
*RES
1 *965:Y *966:A 38.1438 
*END

*D_NET *589 0.00010485
*CONN
*I *967:B I *D AOI211x1_ASAP7_75t_SL
*I *966:Y O *D AND3x1_ASAP7_75t_SL
*CAP
1 *967:B 1.08272e-05
2 *966:Y 6.49494e-06
3 *589:8 1.73221e-05
4 *967:B *607:12 4.24019e-06
5 *967:B *836:44 1.14221e-05
6 *589:8 *815:10 0
7 *589:8 *836:44 2.00962e-05
8 *589:8 *846:202 7.09787e-07
9 *585:18 *967:B 3.15324e-05
10 *585:22 *967:B 2.20493e-06
*RES
1 *966:Y *589:8 41.158 
2 *589:8 *967:B 46.701 
*END

*D_NET *590 7.01929e-05
*CONN
*I *970:A2 I *D OA21x2_ASAP7_75t_SL
*I *968:Y O *D AND4x1_ASAP7_75t_SL
*CAP
1 *970:A2 1.87635e-06
2 *968:Y 2.70327e-05
3 *590:10 2.8909e-05
4 *970:A2 *728:26 5.0551e-07
5 *590:10 *654:16 2.19685e-06
6 *590:10 *654:20 9.67251e-06
7 *590:10 *823:60 0
*RES
1 *968:Y *590:10 49.067 
2 *590:10 *970:A2 35.4697 
*END

*D_NET *591 0.000218099
*CONN
*I *970:A1 I *D OA21x2_ASAP7_75t_SL
*I *969:Y O *D OA31x2_ASAP7_75t_SL
*CAP
1 *970:A1 8.10106e-06
2 *969:Y 0
3 *591:8 5.17812e-05
4 *591:6 4.36801e-05
5 *970:A1 *728:26 7.13296e-06
6 *591:8 *596:10 1.96231e-05
7 *591:8 *654:16 2.43534e-06
8 *591:8 *716:10 0
9 *591:8 *728:18 6.28992e-05
10 *591:8 *823:10 5.65663e-06
11 *591:8 *877:28 0
12 *1709:A *591:8 0
13 *529:28 *591:8 1.67893e-05
*RES
1 *969:Y *591:6 34.4 
2 *591:6 *591:8 39.4216 
3 *591:8 *970:A1 39.7482 
*END

*D_NET *592 0.00054649
*CONN
*I *972:A2 I *D OA211x2_ASAP7_75t_SL
*I *970:Y O *D OA21x2_ASAP7_75t_SL
*CAP
1 *972:A2 0
2 *970:Y 7.35459e-06
3 *592:28 6.64455e-05
4 *592:26 6.64455e-05
5 *592:24 5.11314e-05
6 *592:18 5.53391e-05
7 *592:12 5.5768e-05
8 *592:10 5.15604e-05
9 *592:8 7.35459e-06
10 *592:8 *823:44 8.45637e-06
11 *592:8 *823:60 1.70866e-06
12 *592:12 *1009:A 1.06092e-05
13 *592:12 *626:10 3.73144e-06
14 *592:18 *1009:A 3.16603e-06
15 *592:24 *663:74 3.76935e-06
16 *592:24 *736:12 0
17 *592:24 *736:38 9.81516e-06
18 *592:24 *820:89 4.56363e-06
19 *592:24 *820:251 7.72307e-07
20 *592:24 *823:86 2.68933e-07
21 *592:28 *1833:A 1.46448e-05
22 *592:28 *593:14 1.76244e-05
23 *592:28 *593:25 3.571e-05
24 *592:28 *663:70 6.45454e-06
25 *592:28 *722:12 4.13457e-06
26 *592:28 *722:53 5.89052e-06
27 *592:28 *736:46 3.1923e-06
28 *592:28 *777:8 2.28976e-06
29 *1009:B *592:12 3.65663e-06
30 *217:8 *592:24 1.19507e-05
31 *217:20 *592:12 3.68287e-06
32 *217:26 *592:12 2.89992e-05
*RES
1 *970:Y *592:8 40.0317 
2 *592:8 *592:10 17.2 
3 *592:10 *592:12 34.7636 
4 *592:12 *592:18 37.2158 
5 *592:18 *592:24 43.7465 
6 *592:24 *592:26 17.2 
7 *592:26 *592:28 47.0646 
8 *592:28 *972:A2 17.2 
*END

*D_NET *593 0.000261998
*CONN
*I *985:C I *D AND3x1_ASAP7_75t_SL
*I *1690:A I *D BUFx3_ASAP7_75t_SL
*I *971:Y O *D AND3x1_ASAP7_75t_SL
*CAP
1 *985:C 9.33619e-06
2 *1690:A 0
3 *971:Y 1.24705e-05
4 *593:25 3.68545e-05
5 *593:14 3.50467e-05
6 *593:10 1.9999e-05
7 *985:C *775:60 3.89037e-06
8 *985:C *776:39 2.03526e-06
9 *985:C *815:99 2.59632e-05
10 *593:10 *818:187 1.31716e-05
11 *593:25 *722:53 1.28879e-06
12 *593:25 *896:47 2.36401e-05
13 *10:10 *593:10 2.33715e-05
14 *10:25 *593:10 1.59615e-06
15 *585:10 *593:10 0
16 *592:28 *593:14 1.76244e-05
17 *592:28 *593:25 3.571e-05
*RES
1 *971:Y *593:10 44.9585 
2 *593:10 *593:14 22.0134 
3 *593:14 *1690:A 17.2 
4 *593:14 *593:25 37.3853 
5 *593:25 *985:C 41.8876 
*END

*D_NET *594 6.66336e-06
*CONN
*I *974:A1 I *D OA21x2_ASAP7_75t_SL
*I *972:Y O *D OA211x2_ASAP7_75t_SL
*CAP
1 *974:A1 3.33168e-06
2 *972:Y 3.33168e-06
*RES
1 *972:Y *974:A1 36.5393 
*END

*D_NET *595 5.68599e-05
*CONN
*I *974:A2 I *D OA21x2_ASAP7_75t_SL
*I *973:Y O *D NOR2x1_ASAP7_75t_SL
*CAP
1 *974:A2 6.03891e-06
2 *973:Y 6.14836e-06
3 *595:8 1.21873e-05
4 *974:A2 *888:16 5.19552e-07
5 *595:8 *776:16 0
6 *595:8 *820:378 1.66587e-05
7 *595:8 *888:20 1.53071e-05
8 *216:10 *595:8 0
*RES
1 *973:Y *595:8 42.2843 
2 *595:8 *974:A2 37.609 
*END

*D_NET *596 0.000135049
*CONN
*I *976:B I *D XOR2x2_ASAP7_75t_SL
*I *975:Y O *D AO31x2_ASAP7_75t_SL
*CAP
1 *976:B 0
2 *975:Y 1.42589e-06
3 *596:10 4.69088e-05
4 *596:8 4.83347e-05
5 *596:8 *823:46 5.85387e-06
6 *596:8 *895:6 5.62196e-06
7 *596:10 *625:20 5.52807e-07
8 *596:10 *654:16 4.45472e-06
9 *596:10 *654:28 0
10 *596:10 *724:27 1.49407e-08
11 *596:10 *835:12 2.25787e-06
12 *596:10 *877:28 0
13 *591:8 *596:10 1.96231e-05
*RES
1 *975:Y *596:8 36.0045 
2 *596:8 *596:10 34.3531 
3 *596:10 *976:B 34.4 
*END

*D_NET *597 4.21656e-05
*CONN
*I *977:B I *D OR3x1_ASAP7_75t_SL
*I *976:Y O *D XOR2x2_ASAP7_75t_SL
*CAP
1 *977:B 6.62785e-06
2 *976:Y 6.62785e-06
3 *977:B *977:C 1.18416e-05
4 *977:B *604:18 9.9223e-06
5 *977:B *889:76 7.14604e-06
*RES
1 *976:Y *977:B 44.5617 
*END

*D_NET *598 0.000811239
*CONN
*I *981:A2 I *D AOI21x1_ASAP7_75t_SL
*I *977:Y O *D OR3x1_ASAP7_75t_SL
*CAP
1 *981:A2 0
2 *977:Y 2.82543e-05
3 *598:38 1.57047e-05
4 *598:30 0.000136152
5 *598:28 0.000125783
6 *598:22 4.55106e-05
7 *598:20 4.1759e-05
8 *598:14 1.03372e-05
9 *598:6 3.70078e-05
10 *598:6 *604:18 5.36402e-06
11 *598:14 *604:26 1.05781e-05
12 *598:14 *820:115 5.28388e-07
13 *598:14 *889:68 2.61465e-05
14 *598:20 *820:115 7.58669e-07
15 *598:22 *604:30 4.57952e-06
16 *598:22 *620:10 6.7842e-07
17 *598:22 *836:31 4.09005e-05
18 *598:22 *889:37 0.000122262
19 *598:30 *988:B 5.22376e-07
20 *598:30 *606:8 2.35969e-05
21 *598:30 *774:27 0
22 *598:30 *889:37 9.08513e-06
23 *598:30 *889:46 9.69259e-05
24 *598:38 *981:B 1.60115e-05
25 *598:38 *776:60 3.73518e-07
26 *598:38 *836:60 2.43869e-07
27 *966:A *598:22 2.97289e-06
28 *988:D *598:30 2.90209e-08
29 *167:10 *598:38 3.81627e-06
30 *529:99 *598:38 4.17901e-06
31 *586:14 *598:14 1.17772e-06
*RES
1 *977:Y *598:6 33.7796 
2 *598:6 *598:14 41.0753 
3 *598:14 *598:20 35.4325 
4 *598:20 *598:22 42.2512 
5 *598:22 *598:28 37.2158 
6 *598:28 *598:30 55.087 
7 *598:30 *598:38 47.3775 
8 *598:38 *981:A2 17.2 
*END

*D_NET *599 1.98745e-05
*CONN
*I *980:A1 I *D OAI21x1_ASAP7_75t_SL
*I *978:Y O *D AOI21x1_ASAP7_75t_SL
*CAP
1 *980:A1 9.93725e-06
2 *978:Y 9.93725e-06
*RES
1 *978:Y *980:A1 40.2831 
*END

*D_NET *600 9.18959e-05
*CONN
*I *980:A2 I *D OAI21x1_ASAP7_75t_SL
*I *979:Y O *D AND3x1_ASAP7_75t_SL
*CAP
1 *980:A2 2.38649e-05
2 *979:Y 8.48283e-06
3 *600:8 3.23478e-05
4 *980:A2 *776:71 0
5 *600:8 *776:8 2.66207e-05
6 *1744:A *980:A2 0
7 *529:99 *980:A2 5.79724e-07
*RES
1 *979:Y *600:8 42.4224 
2 *600:8 *980:A2 49.6055 
*END

*D_NET *601 1.80501e-05
*CONN
*I *981:A1 I *D AOI21x1_ASAP7_75t_SL
*I *980:Y O *D OAI21x1_ASAP7_75t_SL
*CAP
1 *981:A1 0
2 *980:Y 9.02507e-06
3 *601:8 9.02507e-06
4 *601:8 *978:B 0
5 *601:8 *836:60 0
6 *529:99 *601:8 0
*RES
1 *980:Y *601:8 40.0317 
2 *601:8 *981:A1 34.4 
*END

*D_NET *602 2.50405e-05
*CONN
*I *984:A1 I *D AOI21x1_ASAP7_75t_SL
*I *982:Y O *D OAI21x1_ASAP7_75t_SL
*CAP
1 *984:A1 0
2 *982:Y 5.91069e-06
3 *602:8 5.91069e-06
4 *602:8 *603:18 3.47854e-06
5 *602:8 *655:37 0
6 *334:10 *602:8 6.35725e-06
7 *469:8 *602:8 3.3833e-06
*RES
1 *982:Y *602:8 40.0317 
2 *602:8 *984:A1 34.4 
*END

*D_NET *603 0.000146619
*CONN
*I *984:A2 I *D AOI21x1_ASAP7_75t_SL
*I *983:Y O *D OR3x1_ASAP7_75t_SL
*CAP
1 *984:A2 0
2 *983:Y 2.86074e-06
3 *603:18 2.49778e-06
4 *603:12 4.62462e-05
5 *603:8 4.66091e-05
6 *603:8 *812:62 1.50718e-05
7 *603:8 *828:8 1.49579e-05
8 *603:12 *1000:A1 9.52454e-06
9 *603:12 *724:14 5.19552e-07
10 *603:12 *724:23 3.0471e-06
11 *603:18 *655:37 1.80596e-06
12 *602:8 *603:18 3.47854e-06
*RES
1 *983:Y *603:8 39.4685 
2 *603:8 *603:12 34.8492 
3 *603:12 *603:18 37.2158 
4 *603:18 *984:A2 17.2 
*END

*D_NET *604 0.000779036
*CONN
*I *987:A2 I *D OA211x2_ASAP7_75t_SL
*I *984:Y O *D AOI21x1_ASAP7_75t_SL
*CAP
1 *987:A2 2.8742e-05
2 *984:Y 3.70008e-05
3 *604:36 3.76295e-05
4 *604:30 7.16297e-05
5 *604:28 6.27422e-05
6 *604:26 1.55881e-05
7 *604:18 7.32788e-05
8 *604:12 7.23944e-05
9 *604:6 5.17045e-05
10 *987:A2 *990:A 7.26837e-05
11 *987:A2 *1004:B 1.25483e-05
12 *987:A2 *768:14 3.13882e-05
13 *604:6 *963:A 2.07157e-05
14 *604:6 *618:6 0
15 *604:6 *655:73 2.20493e-06
16 *604:6 *835:12 2.31575e-05
17 *604:12 *963:B 0
18 *604:12 *728:39 0
19 *604:12 *824:8 0
20 *604:12 *835:16 0
21 *604:18 *977:C 5.19552e-07
22 *604:18 *620:10 2.19448e-07
23 *604:26 *655:14 5.07619e-06
24 *604:26 *773:10 1.49407e-08
25 *604:26 *889:68 3.39848e-06
26 *604:30 *889:37 0.000104727
27 *604:36 *607:16 1.12894e-06
28 *604:36 *607:33 5.79724e-07
29 *977:B *604:18 9.9223e-06
30 *1736:A *987:A2 1.71006e-05
31 *5:16 *604:26 0
32 *586:14 *604:18 2.41931e-06
33 *598:6 *604:18 5.36402e-06
34 *598:14 *604:26 1.05781e-05
35 *598:22 *604:30 4.57952e-06
*RES
1 *984:Y *604:6 35.9189 
2 *604:6 *604:12 43.4107 
3 *604:12 *604:18 44.2512 
4 *604:18 *604:26 41.5215 
5 *604:26 *604:28 17.2 
6 *604:28 *604:30 34.7636 
7 *604:30 *604:36 40.0317 
8 *604:36 *987:A2 47.685 
*END

*D_NET *605 5.78318e-05
*CONN
*I *986:B I *D XNOR2x2_ASAP7_75t_SL
*I *985:Y O *D AND3x1_ASAP7_75t_SL
*CAP
1 *986:B 1.83097e-05
2 *985:Y 4.64869e-06
3 *605:8 2.29584e-05
4 *986:B *888:20 0
5 *605:8 *815:99 8.65792e-06
6 *9:27 *986:B 0
7 *216:10 *986:B 3.25708e-06
*RES
1 *985:Y *605:8 37.0741 
2 *605:8 *986:B 47.3528 
*END

*D_NET *606 0.000125584
*CONN
*I *987:B I *D OA211x2_ASAP7_75t_SL
*I *986:Y O *D XNOR2x2_ASAP7_75t_SL
*CAP
1 *987:B 0
2 *986:Y 8.0913e-06
3 *606:14 2.12712e-05
4 *606:8 2.93625e-05
5 *606:8 *986:A 1.51653e-06
6 *606:14 *1535:CLK 2.87795e-05
7 *6:27 *606:14 2.54626e-07
8 *9:27 *606:14 0
9 *168:8 *606:14 5.97352e-06
10 *216:8 *606:14 6.45454e-06
11 *216:10 *606:14 2.83874e-07
12 *598:30 *606:8 2.35969e-05
*RES
1 *986:Y *606:8 41.3527 
2 *606:8 *606:14 34.7679 
3 *606:14 *987:B 17.2 
*END

*D_NET *607 0.00051533
*CONN
*I *1708:A I *D BUFx3_ASAP7_75t_SL
*I *1004:C I *D AND3x1_ASAP7_75t_SL
*I *988:Y O *D AND4x1_ASAP7_75t_SL
*CAP
1 *1708:A 2.46956e-05
2 *1004:C 3.59701e-06
3 *988:Y 4.95121e-06
4 *607:33 4.31452e-05
5 *607:16 4.12804e-05
6 *607:12 0.000170059
7 *607:10 0.000150826
8 *607:8 4.95121e-06
9 *1004:C *1004:B 3.73144e-06
10 *1708:A *609:10 0
11 *1708:A *768:27 1.49407e-08
12 *607:12 *967:A2 1.04475e-06
13 *607:12 *1834:A 0
14 *607:12 *775:52 0
15 *607:16 *965:A 9.94583e-06
16 *607:16 *836:25 0
17 *607:16 *836:31 0
18 *607:33 *612:6 5.19552e-07
19 *607:33 *768:27 0
20 *607:33 *836:10 0
21 *967:B *607:12 4.24019e-06
22 *988:D *607:8 1.12894e-06
23 *9:23 *607:12 1.68856e-05
24 *529:99 *607:8 5.52807e-07
25 *585:18 *607:12 3.15324e-05
26 *585:22 *607:12 5.19552e-07
27 *604:36 *607:16 1.12894e-06
28 *604:36 *607:33 5.79724e-07
*RES
1 *988:Y *607:8 37.779 
2 *607:8 *607:10 17.2 
3 *607:10 *607:12 63.6442 
4 *607:12 *607:16 30.1528 
5 *607:16 *1004:C 37.0741 
6 *607:16 *607:33 44.9585 
7 *607:33 *1708:A 49.3504 
*END

*D_NET *608 3.23217e-05
*CONN
*I *990:B I *D AND2x2_ASAP7_75t_SL
*I *989:Y O *D XNOR2x2_ASAP7_75t_SL
*CAP
1 *990:B 0
2 *989:Y 1.22429e-05
3 *608:10 1.22429e-05
4 *608:10 *994:A1 2.12481e-06
5 *608:10 *609:10 4.1009e-06
6 *608:10 *612:6 5.19552e-07
7 *608:10 *768:27 1.09067e-06
*RES
1 *989:Y *608:10 41.5228 
2 *608:10 *990:B 34.4 
*END

*D_NET *609 6.16553e-05
*CONN
*I *994:A1 I *D OA21x2_ASAP7_75t_SL
*I *990:Y O *D AND2x2_ASAP7_75t_SL
*CAP
1 *994:A1 6.05652e-06
2 *990:Y 1.51793e-05
3 *609:10 2.12358e-05
4 *994:A1 *612:6 7.68501e-06
5 *609:10 *612:14 1.49407e-08
6 *609:10 *768:14 5.25794e-06
7 *609:10 *768:27 0
8 *1708:A *609:10 0
9 *608:10 *994:A1 2.12481e-06
10 *608:10 *609:10 4.1009e-06
*RES
1 *990:Y *609:10 43.7754 
2 *609:10 *994:A1 39.2134 
*END

*D_NET *610 7.90152e-06
*CONN
*I *993:A2 I *D OA211x2_ASAP7_75t_SL
*I *991:Y O *D OA21x2_ASAP7_75t_SL
*CAP
1 *993:A2 2.90601e-06
2 *991:Y 2.90601e-06
3 *993:A2 *849:41 2.0895e-06
*RES
1 *991:Y *993:A2 36.5393 
*END

*D_NET *611 2.62882e-05
*CONN
*I *993:A1 I *D OA211x2_ASAP7_75t_SL
*I *992:Y O *D NOR3x1_ASAP7_75t_SL
*CAP
1 *993:A1 2.26151e-06
2 *992:Y 7.25804e-06
3 *611:8 9.51955e-06
4 *611:8 *963:B 1.849e-06
5 *611:8 *992:B 4.67864e-06
6 *1656:A *611:8 7.21451e-07
*RES
1 *992:Y *611:8 40.0317 
2 *611:8 *993:A1 35.4697 
*END

*D_NET *612 0.000315459
*CONN
*I *994:A2 I *D OA21x2_ASAP7_75t_SL
*I *993:Y O *D OA211x2_ASAP7_75t_SL
*CAP
1 *994:A2 0
2 *993:Y 0
3 *612:20 1.20258e-06
4 *612:14 1.19238e-05
5 *612:6 0.000145289
6 *612:4 0.000134568
7 *612:6 *989:B 4.06202e-06
8 *612:14 *655:14 3.60604e-06
9 *612:20 *815:38 5.29676e-06
10 *994:A1 *612:6 7.68501e-06
11 *5:10 *612:6 7.72307e-07
12 *607:33 *612:6 5.19552e-07
13 *608:10 *612:6 5.19552e-07
14 *609:10 *612:14 1.49407e-08
*RES
1 *993:Y *612:4 17.2 
2 *612:4 *612:6 67.9228 
3 *612:6 *612:14 40.8168 
4 *612:14 *612:20 36.1834 
5 *612:20 *994:A2 17.2 
*END

*D_NET *613 1.98006e-05
*CONN
*I *998:A2 I *D AO31x2_ASAP7_75t_SL
*I *995:Y O *D NOR2x1_ASAP7_75t_SL
*CAP
1 *998:A2 0
2 *995:Y 9.90028e-06
3 *613:8 9.90028e-06
4 *613:8 *700:8 0
5 *613:8 *843:122 0
*RES
1 *995:Y *613:8 40.0317 
2 *613:8 *998:A2 34.4 
*END

*D_NET *614 1.65738e-05
*CONN
*I *998:A3 I *D AO31x2_ASAP7_75t_SL
*I *996:Y O *D INVx1_ASAP7_75t_SL
*CAP
1 *998:A3 5.57966e-06
2 *996:Y 5.57966e-06
3 *998:A3 *843:37 5.41446e-06
*RES
1 *996:Y *998:A3 37.0741 
*END

*D_NET *615 3.52279e-05
*CONN
*I *998:B I *D AO31x2_ASAP7_75t_SL
*I *997:Y O *D INVx1_ASAP7_75t_SL
*CAP
1 *998:B 3.36152e-06
2 *997:Y 7.38813e-06
3 *615:8 1.07497e-05
4 *998:B *842:83 9.89902e-06
5 *998:B *844:43 8.31044e-07
6 *615:8 *842:79 2.99852e-06
7 *615:8 *843:122 0
*RES
1 *997:Y *615:8 38.9053 
2 *615:8 *998:B 37.0741 
*END

*D_NET *616 8.77932e-05
*CONN
*I *1000:A1 I *D AO21x1_ASAP7_75t_SL
*I *998:Y O *D AO31x2_ASAP7_75t_SL
*CAP
1 *1000:A1 1.54833e-05
2 *998:Y 1.54833e-05
3 *1000:A1 *983:B 1.68781e-05
4 *1000:A1 *812:51 2.20964e-06
5 *1000:A1 *842:83 2.76948e-05
6 *1000:A1 *844:43 5.19552e-07
7 *603:12 *1000:A1 9.52454e-06
*RES
1 *998:Y *1000:A1 47.7706 
*END

*D_NET *617 4.91475e-05
*CONN
*I *1000:A2 I *D AO21x1_ASAP7_75t_SL
*I *999:Y O *D OR5x1_ASAP7_75t_SL
*CAP
1 *1000:A2 0
2 *999:Y 1.50657e-05
3 *617:10 1.50657e-05
4 *617:10 *982:B 2.03526e-06
5 *617:10 *999:A 1.01102e-06
6 *617:10 *655:22 0
7 *617:10 *844:77 1.59697e-05
8 *84:39 *617:10 0
*RES
1 *999:Y *617:10 43.7754 
2 *617:10 *1000:A2 34.4 
*END

*D_NET *618 0.000258302
*CONN
*I *1003:A1 I *D AOI211x1_ASAP7_75t_SL
*I *1000:Y O *D AO21x1_ASAP7_75t_SL
*CAP
1 *1003:A1 0
2 *1000:Y 3.66268e-05
3 *618:14 4.61101e-05
4 *618:12 4.95783e-05
5 *618:6 4.0095e-05
6 *618:6 *655:73 1.56713e-06
7 *618:6 *724:23 4.17916e-05
8 *618:12 *984:B 0
9 *618:12 *835:12 8.33296e-06
10 *618:14 *963:A 7.94045e-06
11 *618:14 *1003:A2 1.56713e-06
12 *618:14 *835:12 9.75735e-06
13 *586:8 *618:14 1.49352e-05
14 *604:6 *618:6 0
*RES
1 *1000:Y *618:6 35.9189 
2 *618:6 *618:12 37.2158 
3 *618:12 *618:14 34.2288 
4 *618:14 *1003:A1 17.2 
*END

*D_NET *619 0.000151634
*CONN
*I *1002:B I *D XOR2x2_ASAP7_75t_SL
*I *1001:Y O *D AND3x1_ASAP7_75t_SL
*CAP
1 *1002:B 0
2 *1001:Y 6.44197e-06
3 *619:10 5.31596e-05
4 *619:8 5.96016e-05
5 *619:10 *1009:A 0
6 *619:10 *1010:A2 6.62106e-06
7 *619:10 *626:10 0
8 *619:10 *820:115 0
9 *619:10 *823:73 6.74311e-06
10 *171:8 *619:10 2.22736e-06
11 *499:53 *619:10 0
12 *499:61 *619:10 0
13 *501:57 *619:10 0
14 *529:22 *619:8 8.39579e-06
15 *586:14 *619:10 8.4433e-06
*RES
1 *1001:Y *619:8 40.2831 
2 *619:8 *619:10 41.6743 
3 *619:10 *1002:B 34.4 
*END

*D_NET *620 5.61815e-05
*CONN
*I *1003:B I *D AOI211x1_ASAP7_75t_SL
*I *1002:Y O *D XOR2x2_ASAP7_75t_SL
*CAP
1 *1003:B 0
2 *1002:Y 2.10384e-05
3 *620:10 2.10384e-05
4 *620:10 *1002:A 9.31704e-06
5 *620:10 *820:115 3.88991e-06
6 *620:10 *823:73 0
7 *598:22 *620:10 6.7842e-07
8 *604:18 *620:10 2.19448e-07
*RES
1 *1002:Y *620:10 44.7884 
2 *620:10 *1003:B 34.4 
*END

*D_NET *621 0.000121467
*CONN
*I *1005:B I *D XNOR2x2_ASAP7_75t_SL
*I *1004:Y O *D AND3x1_ASAP7_75t_SL
*CAP
1 *1005:B 0
2 *1004:Y 2.17356e-05
3 *621:12 1.77257e-05
4 *621:6 3.94613e-05
5 *621:6 *1004:B 1.40724e-05
6 *621:6 *773:27 1.55335e-05
7 *621:12 *663:74 3.66739e-06
8 *621:12 *772:10 5.49212e-07
9 *621:12 *773:27 8.06436e-06
10 *5:10 *621:12 1.19526e-07
11 *5:16 *621:12 5.37866e-07
*RES
1 *1004:Y *621:6 33.7796 
2 *621:6 *621:12 46.7897 
3 *621:12 *1005:B 17.2 
*END

*D_NET *622 0.000250358
*CONN
*I *1010:A3 I *D AO32x2_ASAP7_75t_SL
*I *1005:Y O *D XNOR2x2_ASAP7_75t_SL
*CAP
1 *1010:A3 2.70375e-05
2 *1005:Y 5.78248e-06
3 *622:18 4.877e-05
4 *622:14 2.58943e-05
5 *622:8 9.94426e-06
6 *1010:A3 *1010:A1 8.87763e-06
7 *1010:A3 *1010:B1 2.12481e-06
8 *1010:A3 *1010:B2 3.90258e-06
9 *1010:A3 *820:93 2.89992e-05
10 *622:8 *663:74 1.66659e-05
11 *622:18 *663:74 2.71921e-06
12 *5:16 *622:18 1.12894e-06
13 *217:8 *622:18 1.69273e-05
14 *217:12 *1010:A3 1.99083e-05
15 *585:22 *622:14 8.06588e-06
16 *585:30 *622:18 3.47607e-06
17 *587:6 *622:14 2.01337e-05
*RES
1 *1005:Y *622:8 40.0317 
2 *622:8 *622:14 40.2831 
3 *622:14 *622:18 34.6581 
4 *622:18 *1010:A3 42.8716 
*END

*D_NET *623 1.17736e-05
*CONN
*I *1008:A1 I *D OA21x2_ASAP7_75t_SL
*I *1006:Y O *D NOR2x1p5_ASAP7_75t_SL
*CAP
1 *1008:A1 5.2549e-06
2 *1006:Y 5.2549e-06
3 *1008:A1 *872:38 1.26378e-06
*RES
1 *1006:Y *1008:A1 37.0741 
*END

*D_NET *624 3.66561e-05
*CONN
*I *1008:A2 I *D OA21x2_ASAP7_75t_SL
*I *1007:Y O *D OA21x2_ASAP7_75t_SL
*CAP
1 *1008:A2 0
2 *1007:Y 1.024e-05
3 *624:10 1.024e-05
4 *624:10 *872:30 4.15076e-06
5 *624:10 *872:38 2.19448e-07
6 *514:77 *624:10 1.18059e-05
*RES
1 *1007:Y *624:10 41.6361 
2 *624:10 *1008:A2 34.4 
*END

*D_NET *625 0.000633183
*CONN
*I *1010:B2 I *D AO32x2_ASAP7_75t_SL
*I *1008:Y O *D OA21x2_ASAP7_75t_SL
*CAP
1 *1010:B2 1.03866e-06
2 *1008:Y 0
3 *625:28 1.65028e-05
4 *625:22 0.000120275
5 *625:20 0.000116962
6 *625:12 2.04202e-05
7 *625:6 6.71985e-05
8 *625:4 5.89292e-05
9 *625:6 *1022:A 3.78646e-05
10 *625:6 *741:46 2.6409e-06
11 *625:6 *872:18 1.32074e-05
12 *625:6 *872:22 4.56456e-05
13 *625:6 *882:31 1.04475e-06
14 *625:12 *654:28 1.09842e-06
15 *625:12 *826:8 1.66587e-05
16 *625:12 *895:10 1.908e-06
17 *625:20 *1803:A 1.27255e-05
18 *625:20 *654:30 5.09299e-06
19 *625:22 *687:12 2.88479e-05
20 *625:28 *1009:A 8.3257e-06
21 *625:28 *820:115 3.84173e-05
22 *625:28 *889:8 2.71921e-06
23 *1010:A3 *1010:B2 3.90258e-06
24 *81:10 *625:6 9.75735e-06
25 *84:10 *625:12 0
26 *217:12 *1010:B2 1.44639e-06
27 *596:10 *625:20 5.52807e-07
*RES
1 *1008:Y *625:4 17.2 
2 *625:4 *625:6 49.7387 
3 *625:6 *625:12 42.2843 
4 *625:12 *625:20 46.3079 
5 *625:20 *625:22 50.8084 
6 *625:22 *625:28 49.6055 
7 *625:28 *1010:B2 18.2696 
*END

*D_NET *626 4.34955e-05
*CONN
*I *1010:B1 I *D AO32x2_ASAP7_75t_SL
*I *1009:Y O *D AND2x2_ASAP7_75t_SL
*CAP
1 *1010:B1 1.51306e-06
2 *1009:Y 1.19628e-05
3 *626:10 1.34758e-05
4 *626:10 *1009:A 5.06565e-06
5 *1010:A3 *1010:B1 2.12481e-06
6 *217:12 *1010:B1 5.62196e-06
7 *592:12 *626:10 3.73144e-06
8 *619:10 *626:10 0
*RES
1 *1009:Y *626:10 41.5795 
2 *626:10 *1010:B1 36.0045 
*END

*D_NET *627 5.38891e-05
*CONN
*I *1014:E I *D AND5x1_ASAP7_75t_SL
*I *1011:Y O *D INVx1_ASAP7_75t_SL
*CAP
1 *1014:E 0
2 *1011:Y 2.11683e-05
3 *627:10 2.11683e-05
4 *627:10 *663:25 0
5 *627:10 *722:34 4.33555e-07
6 *29:40 *627:10 1.11189e-05
*RES
1 *1011:Y *627:10 45.8014 
2 *627:10 *1014:E 34.4 
*END

*D_NET *628 7.7838e-05
*CONN
*I *1013:C I *D OA211x2_ASAP7_75t_SL
*I *1012:Y O *D OR3x1_ASAP7_75t_SL
*CAP
1 *1013:C 7.47339e-07
2 *1012:Y 2.89608e-05
3 *628:10 2.97081e-05
4 *1013:C *676:35 1.52651e-06
5 *628:10 *676:27 6.33206e-07
6 *628:10 *676:35 0
7 *628:10 *790:18 7.32095e-07
8 *628:10 *820:26 3.88306e-06
9 *1013:A2 *628:10 1.12439e-05
10 *502:12 *628:10 4.03043e-07
*RES
1 *1012:Y *628:10 48.5038 
2 *628:10 *1013:C 35.4697 
*END

*D_NET *629 0.000230933
*CONN
*I *1014:A I *D AND5x1_ASAP7_75t_SL
*I *1013:Y O *D OA211x2_ASAP7_75t_SL
*CAP
1 *1014:A 7.2996e-06
2 *1013:Y 0
3 *629:8 5.135e-05
4 *629:6 4.40504e-05
5 *1014:A *1014:B 6.92634e-06
6 *1014:A *1014:C 2.28976e-06
7 *1014:A *727:31 7.63254e-06
8 *1014:A *727:38 6.0212e-06
9 *629:8 *1420:A 2.57638e-06
10 *629:8 *1421:A2 1.65207e-05
11 *629:8 *1670:A 5.84968e-06
12 *629:8 *663:25 0
13 *629:8 *790:18 3.80472e-05
14 *629:8 *791:39 5.37569e-06
15 *629:8 *886:10 1.34466e-06
16 *172:8 *629:8 2.67633e-05
17 *262:46 *629:8 2.25196e-06
18 *485:8 *629:8 6.63372e-06
19 *502:12 *629:8 0
*RES
1 *1013:Y *629:6 34.4 
2 *629:6 *629:8 40.548 
3 *629:8 *1014:A 43.492 
*END

*D_NET *630 9.02689e-05
*CONN
*I *1018:A I *D NAND2x1_ASAP7_75t_SL
*I *1015:Y O *D OA21x2_ASAP7_75t_SL
*CAP
1 *1018:A 1.7226e-05
2 *1015:Y 1.7781e-05
3 *630:8 3.50071e-05
4 *1018:A *632:22 8.3281e-06
5 *1715:A *630:8 2.02432e-06
6 *279:16 *630:8 7.21596e-07
7 *524:65 *630:8 9.18073e-06
*RES
1 *1015:Y *630:8 49.6055 
2 *630:8 *1018:A 42.9572 
*END

*D_NET *631 0.000138288
*CONN
*I *1017:C I *D OR3x1_ASAP7_75t_SL
*I *1016:Y O *D OA21x2_ASAP7_75t_SL
*CAP
1 *1017:C 0
2 *1016:Y 3.51132e-06
3 *631:14 3.48241e-05
4 *631:8 3.83354e-05
5 *631:14 *755:8 0
6 *29:40 *631:8 2.12481e-06
7 *225:39 *631:14 2.6465e-05
8 *225:50 *631:14 7.27531e-06
9 *262:10 *631:14 2.42254e-05
10 *262:25 *631:14 1.52651e-06
*RES
1 *1016:Y *631:8 36.0045 
2 *631:8 *631:14 48.1174 
3 *631:14 *1017:C 17.2 
*END

*D_NET *632 0.000275261
*CONN
*I *1018:B I *D NAND2x1_ASAP7_75t_SL
*I *1017:Y O *D OR3x1_ASAP7_75t_SL
*CAP
1 *1018:B 0
2 *1017:Y 1.60775e-05
3 *632:22 3.31927e-05
4 *632:16 8.78921e-05
5 *632:12 7.1533e-05
6 *632:8 3.29111e-05
7 *632:8 *1017:A 5.0551e-07
8 *632:12 *922:A 1.64348e-06
9 *632:12 *647:8 5.52807e-07
10 *632:16 *747:31 0
11 *632:22 *747:31 0
12 *1018:A *632:22 8.3281e-06
13 *1099:A1 *632:16 1.04475e-06
14 *1099:A2 *632:22 0
15 *225:31 *632:12 0
16 *225:37 *632:8 9.08513e-06
17 *226:31 *632:16 2.6409e-06
18 *262:25 *632:8 3.05302e-06
19 *486:8 *632:12 6.80131e-06
20 *524:65 *632:22 0
*RES
1 *1017:Y *632:8 42.4224 
2 *632:8 *632:12 29.0265 
3 *632:12 *632:16 40.1975 
4 *632:16 *632:22 38.1469 
5 *632:22 *1018:B 17.2 
*END

*D_NET *636 0.00128215
*CONN
*P clk I
*I *1814:A I *D BUFx4_ASAP7_75t_SL
*CAP
1 clk 0.000329228
2 *1814:A 6.99058e-06
3 *636:22 1.12611e-05
4 *636:18 1.45954e-05
5 *636:10 0.000295575
6 *636:8 0.00028525
7 *636:6 0.000329228
8 *636:10 *846:19 0
9 *636:10 *846:111 0
10 *636:18 *863:102 7.68442e-06
11 *272:14 *636:18 4.73754e-07
12 *282:87 *636:18 0
13 *430:10 *636:18 1.86306e-06
*RES
1 clk *636:6 155.186 
2 *636:6 *636:8 11.8 
3 *636:8 *636:10 123.533 
4 *636:10 *636:18 34.8857 
5 *636:18 *636:22 19.0719 
6 *636:22 *1814:A 21.746 
*END

*D_NET *637 6.66336e-06
*CONN
*I *1109:A I *D BUFx2_ASAP7_75t_SL
*I *1034:Y O *D INVx1_ASAP7_75t_SL
*CAP
1 *1109:A 3.33168e-06
2 *1034:Y 3.33168e-06
*RES
1 *1034:Y *1109:A 36.5393 
*END

*D_NET *638 1.16609e-05
*CONN
*I *1107:A I *D BUFx2_ASAP7_75t_SL
*I *1033:Y O *D INVx1_ASAP7_75t_SL
*CAP
1 *1107:A 5.83044e-06
2 *1033:Y 5.83044e-06
*RES
1 *1033:Y *1107:A 38.1438 
*END

*D_NET *639 9.88493e-06
*CONN
*I *1106:A I *D BUFx2_ASAP7_75t_SL
*I *1032:Y O *D INVx1_ASAP7_75t_SL
*CAP
1 *1106:A 4.94246e-06
2 *1032:Y 4.94246e-06
*RES
1 *1032:Y *1106:A 37.0741 
*END

*D_NET *640 6.86786e-05
*CONN
*I *1095:A I *D BUFx2_ASAP7_75t_SL
*I *1031:Y O *D INVx1_ASAP7_75t_SL
*CAP
1 *1095:A 0
2 *1031:Y 7.04746e-06
3 *640:12 2.72918e-05
4 *640:8 3.43393e-05
*RES
1 *1031:Y *640:8 37.0741 
2 *640:8 *640:12 38.6003 
3 *640:12 *1095:A 17.2 
*END

*D_NET *641 0.000121294
*CONN
*I *1087:A I *D BUFx2_ASAP7_75t_SL
*I *1030:Y O *D INVx1_ASAP7_75t_SL
*CAP
1 *1087:A 1.08494e-05
2 *1030:Y 5.81306e-06
3 *641:12 3.94016e-05
4 *641:8 3.43653e-05
5 *1087:A *1212:B 2.88806e-06
6 *1213:B *641:8 2.52755e-07
7 *54:10 *641:12 0
8 *55:23 *641:12 0
9 *320:10 *641:12 2.77237e-05
*RES
1 *1030:Y *641:8 37.0741 
2 *641:8 *641:12 44.232 
3 *641:12 *1087:A 24.1527 
*END

*D_NET *642 2.70969e-05
*CONN
*I *1065:A I *D BUFx2_ASAP7_75t_SL
*I *1029:Y O *D INVx1_ASAP7_75t_SL
*CAP
1 *1065:A 6.28442e-06
2 *1029:Y 6.94366e-06
3 *642:8 1.32281e-05
4 *54:10 *642:8 0
5 *201:8 *642:8 6.40748e-07
*RES
1 *1029:Y *642:8 38.9053 
2 *642:8 *1065:A 38.1438 
*END

*D_NET *643 6.66336e-06
*CONN
*I *1061:A I *D BUFx2_ASAP7_75t_SL
*I *1028:Y O *D INVx1_ASAP7_75t_SL
*CAP
1 *1061:A 3.33168e-06
2 *1028:Y 3.33168e-06
*RES
1 *1028:Y *1061:A 36.5393 
*END

*D_NET *644 6.66336e-06
*CONN
*I *1054:A I *D BUFx2_ASAP7_75t_SL
*I *1027:Y O *D INVx1_ASAP7_75t_SL
*CAP
1 *1054:A 3.33168e-06
2 *1027:Y 3.33168e-06
*RES
1 *1027:Y *1054:A 36.5393 
*END

*D_NET *645 0.000116905
*CONN
*I *1220:A1 I *D OA21x2_ASAP7_75t_SL
*I *1441:Y O *D BUFx2_ASAP7_75t_SL
*CAP
1 *1220:A1 0
2 *1441:Y 6.38375e-06
3 *645:12 4.0131e-05
4 *645:8 4.65147e-05
5 *645:12 *690:266 1.56713e-06
6 *1220:A2 *645:12 2.09987e-05
7 *1868:A *645:8 5.37866e-07
8 *325:6 *645:12 7.72307e-07
*RES
1 *1441:Y *645:8 37.779 
2 *645:8 *645:12 37.5233 
3 *645:12 *1220:A1 17.2 
*END

*D_NET *646 3.64791e-05
*CONN
*I *1048:A I *D BUFx2_ASAP7_75t_SL
*I *1023:Y O *D INVx1_ASAP7_75t_SL
*CAP
1 *1048:A 1.25576e-05
2 *1023:Y 1.25576e-05
3 *1048:A *1441:A 1.1364e-05
*RES
1 *1023:Y *1048:A 44.5617 
*END

*D_NET *647 0.000662204
*CONN
*I *1022:A I *D INVx1_ASAP7_75t_SL
*I *1794:A I *D BUFx3_ASAP7_75t_SL
*I *1440:Y O *D BUFx2_ASAP7_75t_SL
*CAP
1 *1022:A 1.09867e-05
2 *1794:A 3.34677e-06
3 *1440:Y 0
4 *647:16 8.82947e-05
5 *647:14 7.63901e-05
6 *647:8 9.58215e-05
7 *647:6 9.33926e-05
8 *1794:A *741:46 2.0561e-05
9 *647:8 *922:A 0
10 *647:8 *677:14 1.13436e-05
11 *647:8 *677:18 6.64608e-06
12 *647:8 *728:10 0
13 *647:8 *728:97 2.27636e-05
14 *647:8 *755:8 2.5698e-06
15 *647:8 *822:8 0
16 *647:8 *890:16 0
17 *647:14 *1142:A 9.30483e-06
18 *647:16 *969:A2 1.09067e-06
19 *647:16 *969:A3 8.04031e-06
20 *647:16 *716:23 0
21 *647:16 *728:10 0
22 *647:16 *741:16 1.94229e-07
23 *647:16 *751:8 1.35473e-05
24 *647:16 *751:21 4.55339e-06
25 *647:16 *754:19 8.21017e-06
26 *647:16 *755:8 1.24619e-05
27 *647:16 *877:22 6.33206e-06
28 *647:16 *895:10 0
29 *969:B1 *647:16 0
30 *1099:A1 *647:8 1.65126e-05
31 *1142:B *647:14 5.19475e-06
32 *1703:A *647:8 0
33 *1790:A *647:8 4.71862e-06
34 *84:10 *1022:A 1.26641e-06
35 *84:10 *647:16 4.97941e-05
36 *219:20 *647:16 3.30589e-06
37 *224:26 *647:8 0
38 *225:31 *647:8 0
39 *225:58 *647:16 7.89181e-07
40 *262:10 *647:8 0
41 *279:10 *647:8 9.43723e-06
42 *485:34 *647:8 3.00843e-05
43 *486:8 *647:8 6.80131e-06
44 *493:29 *647:16 3.05118e-08
45 *625:6 *1022:A 3.78646e-05
46 *632:12 *647:8 5.52807e-07
*RES
1 *1440:Y *647:6 34.4 
2 *647:6 *647:8 74.3379 
3 *647:8 *647:14 37.0741 
4 *647:14 *647:16 65.8904 
5 *647:16 *1794:A 40.2831 
6 *647:16 *1022:A 47.3208 
*END

*D_NET *648 0.000137357
*CONN
*I *1802:A I *D BUFx3_ASAP7_75t_SL
*I *1285:D I *D OR5x1_ASAP7_75t_SL
*I *1433:Y O *D BUFx2_ASAP7_75t_SL
*CAP
1 *1802:A 0
2 *1285:D 0
3 *1433:Y 3.91401e-05
4 *648:21 2.13274e-05
5 *648:6 6.04675e-05
6 *648:6 *1285:B 3.68287e-06
7 *648:6 *649:10 3.81627e-06
8 *648:21 *1805:A 5.37866e-07
9 *648:21 *839:10 3.81627e-06
10 *509:13 *648:6 4.56834e-06
*RES
1 *1433:Y *648:6 34.3144 
2 *648:6 *1285:D 17.2 
3 *648:6 *648:21 46.9277 
4 *648:21 *1802:A 17.2 
*END

*D_NET *649 0.000103513
*CONN
*I *1801:A I *D BUFx3_ASAP7_75t_SL
*I *1285:E I *D OR5x1_ASAP7_75t_SL
*I *1430:Y O *D BUFx2_ASAP7_75t_SL
*CAP
1 *1801:A 0
2 *1285:E 0
3 *1430:Y 5.82067e-06
4 *649:35 1.83162e-05
5 *649:20 5.22102e-07
6 *649:14 3.40337e-05
7 *649:10 2.10161e-05
8 *649:10 *1285:C 1.49407e-08
9 *649:20 *1285:C 4.97876e-07
10 *649:35 *1285:C 0
11 *383:6 *649:35 1.94746e-05
12 *648:6 *649:10 3.81627e-06
*RES
1 *1430:Y *649:10 38.6698 
2 *649:10 *649:14 22.1781 
3 *649:14 *649:20 35.057 
4 *649:20 *1285:E 17.2 
5 *649:14 *649:35 45.3859 
6 *649:35 *1801:A 17.2 
*END

*D_NET *650 0.000161735
*CONN
*I *1799:A I *D BUFx3_ASAP7_75t_SL
*I *1318:A I *D OR3x1_ASAP7_75t_SL
*I *1415:Y O *D BUFx2_ASAP7_75t_SL
*CAP
1 *1799:A 1.93326e-05
2 *1318:A 9.88101e-06
3 *1415:Y 4.51739e-05
4 *650:8 2.92136e-05
5 *650:6 4.51739e-05
6 *1318:A *651:14 1.52651e-06
7 *1799:A *653:10 2.66797e-07
8 *448:13 *1799:A 5.51397e-07
9 *448:13 *650:6 1.06157e-05
*RES
1 *1415:Y *650:6 40.1975 
2 *650:6 *650:8 17.2 
3 *650:8 *1318:A 39.975 
4 *650:8 *1799:A 45.1815 
*END

*D_NET *651 0.00016079
*CONN
*I *1789:A I *D BUFx3_ASAP7_75t_SL
*I *1318:B I *D OR3x1_ASAP7_75t_SL
*I *1404:Y O *D BUFx2_ASAP7_75t_SL
*CAP
1 *1789:A 6.91599e-06
2 *1318:B 0
3 *1404:Y 2.95528e-05
4 *651:14 2.39302e-05
5 *651:10 4.6567e-05
6 *1789:A *1318:C 5.19475e-06
7 *1789:A *840:6 6.53466e-06
8 *651:10 *1318:C 0
9 *651:10 *652:6 0
10 *651:10 *660:12 0
11 *651:14 *1318:C 2.6401e-05
12 *651:14 *840:6 1.06856e-05
13 *1318:A *651:14 1.52651e-06
14 *413:10 *1789:A 3.48165e-06
*RES
1 *1404:Y *651:10 49.1237 
2 *651:10 *651:14 34.8492 
3 *651:14 *1318:B 17.2 
4 *651:14 *1789:A 24.1527 
*END

*D_NET *652 0.000226257
*CONN
*I *1318:C I *D OR3x1_ASAP7_75t_SL
*I *1797:A I *D BUFx3_ASAP7_75t_SL
*I *1367:Y O *D BUFx2_ASAP7_75t_SL
*CAP
1 *1318:C 1.18499e-05
2 *1797:A 0
3 *1367:Y 6.31198e-05
4 *652:10 1.80045e-05
5 *652:6 6.92744e-05
6 *1318:C *840:6 3.15957e-05
7 *1404:A *652:6 8.17002e-07
8 *1789:A *1318:C 5.19475e-06
9 *651:10 *1318:C 0
10 *651:10 *652:6 0
11 *651:14 *1318:C 2.6401e-05
*RES
1 *1367:Y *652:6 44.4761 
2 *652:6 *652:10 22.2685 
3 *652:10 *1797:A 34.4 
4 *652:10 *1318:C 49.6585 
*END

*D_NET *653 0.000605287
*CONN
*I *1327:A I *D OR4x1_ASAP7_75t_SL
*I *1320:A I *D XNOR2x2_ASAP7_75t_SL
*I *953:A I *D XNOR2x2_ASAP7_75t_SL
*I *1359:Y O *D BUFx2_ASAP7_75t_SL
*CAP
1 *1327:A 0
2 *1320:A 0
3 *953:A 0
4 *1359:Y 1.80519e-05
5 *653:50 1.1496e-05
6 *653:42 5.68681e-05
7 *653:26 2.10813e-05
8 *653:20 3.14378e-05
9 *653:18 7.44575e-05
10 *653:14 7.86671e-05
11 *653:12 5.99383e-05
12 *653:10 1.80519e-05
13 *653:10 *816:134 1.07573e-06
14 *653:10 *840:137 3.47607e-06
15 *653:14 *810:31 2.74863e-05
16 *653:14 *831:6 3.16328e-06
17 *653:14 *831:19 1.07377e-06
18 *653:14 *832:6 1.77898e-05
19 *653:14 *840:141 2.41882e-05
20 *653:14 *840:160 9.15905e-06
21 *653:18 *829:28 3.875e-06
22 *653:18 *832:12 0
23 *653:18 *832:62 0
24 *653:20 *829:28 1.67815e-06
25 *653:20 *832:25 8.85176e-06
26 *653:26 *1848:A 3.08125e-06
27 *653:26 *816:89 1.48371e-05
28 *653:26 *832:25 8.18867e-06
29 *653:26 *850:50 3.07925e-06
30 *653:50 *1327:C 3.89037e-06
31 *653:50 *745:32 1.36155e-06
32 *653:50 *844:128 0
33 *1799:A *653:10 2.66797e-07
34 *342:16 *653:26 4.80385e-05
35 *405:18 *653:18 4.45472e-06
36 *405:18 *653:20 4.45472e-06
37 *406:10 *653:18 2.72506e-05
38 *413:51 *653:42 8.23084e-06
39 *413:51 *653:50 0
40 *413:57 *653:50 1.09067e-06
41 *414:10 *653:26 0
42 *578:6 *653:26 5.19475e-06
*RES
1 *1359:Y *653:10 43.0989 
2 *653:10 *653:12 17.2 
3 *653:12 *653:14 51.878 
4 *653:14 *653:18 34.6581 
5 *653:18 *653:20 10.137 
6 *653:20 *653:26 41.3311 
7 *653:26 *953:A 17.2 
8 *653:20 *1320:A 34.4 
9 *653:18 *653:42 44.4761 
10 *653:42 *653:50 42.2276 
11 *653:50 *1327:A 17.2 
*END

*D_NET *654 0.000977152
*CONN
*I *968:B I *D AND4x1_ASAP7_75t_SL
*I *1232:A I *D OR3x1_ASAP7_75t_SL
*I *1037:A I *D INVx1_ASAP7_75t_SL
*I *1334:Y O *D BUFx2_ASAP7_75t_SL
*CAP
1 *968:B 0
2 *1232:A 0
3 *1037:A 5.67706e-06
4 *1334:Y 0
5 *654:45 5.68212e-06
6 *654:30 3.67074e-05
7 *654:28 3.46707e-05
8 *654:20 2.48039e-05
9 *654:16 9.4129e-05
10 *654:14 8.286e-05
11 *654:8 6.41785e-05
12 *654:6 5.99659e-05
13 *654:8 *1108:B 9.29587e-06
14 *654:8 *1861:A 4.26011e-06
15 *654:8 *734:19 3.16603e-06
16 *654:8 *820:10 9.43723e-06
17 *654:8 *823:18 1.30972e-05
18 *654:16 *663:25 2.1117e-06
19 *654:16 *663:33 4.908e-05
20 *654:16 *728:26 0
21 *654:16 *823:10 0.000136522
22 *654:16 *823:18 6.68566e-06
23 *654:16 *823:44 0
24 *654:20 *968:D 3.68287e-06
25 *654:20 *741:46 5.09299e-06
26 *654:28 *741:46 1.52651e-06
27 *654:28 *877:28 3.47607e-06
28 *654:28 *895:10 8.71771e-06
29 *654:30 *1232:B 3.46317e-06
30 *654:45 *724:12 1.15587e-05
31 *654:45 *746:87 1.16966e-05
32 *74:12 *654:14 2.05732e-05
33 *82:6 *1037:A 3.56177e-06
34 *82:6 *654:30 2.03526e-06
35 *82:6 *654:45 5.85387e-06
36 *84:6 *654:45 1.32074e-05
37 *84:35 *654:30 5.0551e-07
38 *84:35 *654:45 3.67067e-06
39 *225:39 *654:8 1.64348e-06
40 *227:14 *654:8 5.254e-05
41 *227:18 *654:16 8.30525e-05
42 *232:14 *654:16 6.10236e-08
43 *236:14 *654:8 2.94717e-05
44 *262:25 *654:8 1.63973e-05
45 *333:15 *654:8 3.26178e-06
46 *485:12 *654:14 2.03412e-05
47 *499:20 *654:16 2.25196e-06
48 *529:28 *654:16 2.22736e-06
49 *590:10 *654:16 2.19685e-06
50 *590:10 *654:20 9.67251e-06
51 *591:8 *654:16 2.43534e-06
52 *596:10 *654:16 4.45472e-06
53 *596:10 *654:28 0
54 *625:12 *654:28 1.09842e-06
55 *625:20 *654:30 5.09299e-06
*RES
1 *1334:Y *654:6 34.4 
2 *654:6 *654:8 57.4429 
3 *654:8 *654:14 40.2831 
4 *654:14 *654:16 83.9117 
5 *654:16 *654:20 30.0358 
6 *654:20 *654:28 42.2276 
7 *654:28 *654:30 12.301 
8 *654:30 *1037:A 19.8741 
9 *654:30 *654:45 43.1556 
10 *654:45 *1232:A 17.2 
11 *654:20 *968:B 17.2 
*END

*D_NET *655 0.00150299
*CONN
*I *1792:A I *D BUFx3_ASAP7_75t_SL
*I *1813:A I *D BUFx3_ASAP7_75t_SL
*I *1806:A I *D BUFx6f_ASAP7_75t_SL
*I *1232:B I *D OR3x1_ASAP7_75t_SL
*I *1333:Y O *D BUFx2_ASAP7_75t_SL
*CAP
1 *1792:A 0
2 *1813:A 0
3 *1806:A 4.18649e-05
4 *1232:B 1.10547e-06
5 *1333:Y 9.28606e-06
6 *655:73 2.46263e-06
7 *655:60 6.38004e-06
8 *655:47 0.000103789
9 *655:41 0.00012044
10 *655:37 8.00368e-05
11 *655:22 3.82219e-05
12 *655:16 6.47324e-05
13 *655:14 0.000317834
14 *655:12 0.000330128
15 *655:8 3.65179e-05
16 *1806:A *843:122 3.13777e-05
17 *1806:A *850:34 1.55142e-05
18 *655:12 *775:10 0
19 *655:14 *820:344 3.079e-06
20 *655:14 *836:60 0
21 *655:14 *846:198 0
22 *655:14 *889:68 0
23 *655:22 *724:12 0
24 *655:22 *826:8 1.19507e-05
25 *655:22 *844:77 0
26 *655:22 *844:85 1.12901e-05
27 *655:37 *984:B 1.38201e-06
28 *655:37 *835:12 0
29 *655:41 *999:A 6.04945e-05
30 *655:41 *849:12 1.86176e-05
31 *655:41 *849:32 3.49549e-05
32 *655:47 *828:8 0
33 *655:47 *843:72 1.6372e-05
34 *655:47 *850:32 1.3516e-06
35 *655:47 *850:34 3.28736e-05
36 *8:21 *655:12 8.41057e-06
37 *84:10 *655:22 2.19685e-06
38 *84:35 *655:22 1.31716e-05
39 *84:39 *655:22 3.63423e-05
40 *84:47 *655:37 0
41 *334:10 *655:22 1.09842e-06
42 *334:12 *655:22 1.31689e-05
43 *426:13 *655:8 1.88216e-05
44 *469:8 *655:37 0
45 *476:10 *655:47 0
46 *602:8 *655:37 0
47 *603:18 *655:37 1.80596e-06
48 *604:6 *655:73 2.20493e-06
49 *604:26 *655:14 5.07619e-06
50 *612:14 *655:14 3.60604e-06
51 *617:10 *655:22 0
52 *618:6 *655:73 1.56713e-06
53 *654:30 *1232:B 3.46317e-06
*RES
1 *1333:Y *655:8 39.2134 
2 *655:8 *655:12 39.6328 
3 *655:12 *655:14 95.2327 
4 *655:14 *655:16 3.67945 
5 *655:16 *655:22 43.2814 
6 *655:22 *1232:B 35.4697 
7 *655:16 *655:37 45.5695 
8 *655:37 *655:41 45.5457 
9 *655:41 *655:47 45.9992 
10 *655:47 *1806:A 35.384 
11 *655:47 *655:60 38.9053 
12 *655:60 *1813:A 17.2 
13 *655:14 *655:73 36.6615 
14 *655:73 *1792:A 17.2 
*END

*D_NET *656 0.00027174
*CONN
*I *1812:A I *D BUFx3_ASAP7_75t_SL
*I *1229:A I *D OR4x1_ASAP7_75t_SL
*I *1284:Y O *D BUFx2_ASAP7_75t_SL
*CAP
1 *1812:A 0
2 *1229:A 0
3 *1284:Y 1.88378e-05
4 *656:27 3.49325e-05
5 *656:20 3.49325e-05
6 *656:18 2.68766e-05
7 *656:10 4.57144e-05
8 *656:10 *659:16 0
9 *656:18 *659:16 0
10 *656:18 *816:10 0
11 *656:27 *1810:A 5.25522e-05
12 *656:27 *657:25 3.23251e-05
13 *656:27 *839:68 1.82028e-05
14 *656:27 *839:85 6.73256e-06
15 *331:10 *656:10 6.33206e-07
*RES
1 *1284:Y *656:10 42.9484 
2 *656:10 *656:18 44.885 
3 *656:18 *656:20 17.2 
4 *656:20 *1229:A 17.2 
5 *656:20 *656:27 34.2288 
6 *656:27 *1812:A 17.2 
*END

*D_NET *657 0.000242021
*CONN
*I *1811:A I *D BUFx3_ASAP7_75t_SL
*I *1229:B I *D OR4x1_ASAP7_75t_SL
*I *1257:Y O *D BUFx2_ASAP7_75t_SL
*CAP
1 *1811:A 0
2 *1229:B 2.05923e-06
3 *1257:Y 5.2831e-05
4 *657:25 3.50981e-05
5 *657:10 4.91252e-05
6 *657:6 6.47989e-05
7 *657:6 *659:16 1.51653e-06
8 *657:10 *659:16 2.25787e-06
9 *657:25 *1810:A 1.07377e-06
10 *657:25 *659:16 9.35143e-07
11 *656:27 *657:25 3.23251e-05
*RES
1 *1257:Y *657:6 40.1975 
2 *657:6 *657:10 26.2107 
3 *657:10 *1229:B 35.4697 
4 *657:10 *657:25 44.0263 
5 *657:25 *1811:A 17.2 
*END

*D_NET *658 0.000182977
*CONN
*I *1810:A I *D BUFx3_ASAP7_75t_SL
*I *1229:C I *D OR4x1_ASAP7_75t_SL
*I *1250:Y O *D BUFx2_ASAP7_75t_SL
*CAP
1 *1810:A 2.30368e-05
2 *1229:C 3.4725e-06
3 *1250:Y 1.87841e-05
4 *658:12 4.46611e-05
5 *658:8 3.69358e-05
6 *658:8 *1805:A 1.46238e-06
7 *658:12 *659:10 9.97906e-07
8 *656:27 *1810:A 5.25522e-05
9 *657:25 *1810:A 1.07377e-06
*RES
1 *1250:Y *658:8 42.4224 
2 *658:8 *658:12 30.1528 
3 *658:12 *1229:C 18.8045 
4 *658:12 *1810:A 32.7099 
*END

*D_NET *659 0.000143715
*CONN
*I *1229:D I *D OR4x1_ASAP7_75t_SL
*I *1809:A I *D BUFx3_ASAP7_75t_SL
*I *1239:Y O *D BUFx2_ASAP7_75t_SL
*CAP
1 *1229:D 2.54534e-06
2 *1809:A 0
3 *1239:Y 2.85679e-05
4 *659:16 2.80977e-05
5 *659:10 5.9211e-05
6 *659:16 *816:8 1.90474e-05
7 *331:10 *659:16 5.37866e-07
8 *656:10 *659:16 0
9 *656:18 *659:16 0
10 *657:6 *659:16 1.51653e-06
11 *657:10 *659:16 2.25787e-06
12 *657:25 *659:16 9.35143e-07
13 *658:12 *659:10 9.97906e-07
*RES
1 *1239:Y *659:10 48.054 
2 *659:10 *659:16 37.3853 
3 *659:16 *1809:A 17.2 
4 *659:10 *1229:D 35.4697 
*END

*D_NET *660 6.68363e-05
*CONN
*I *1808:A I *D BUFx3_ASAP7_75t_SL
*I *1285:A I *D OR5x1_ASAP7_75t_SL
*I *1238:Y O *D BUFx2_ASAP7_75t_SL
*CAP
1 *1808:A 0
2 *1285:A 0
3 *1238:Y 1.27665e-05
4 *660:12 2.06517e-05
5 *660:6 3.34182e-05
6 *487:9 *660:12 0
7 *651:10 *660:12 0
*RES
1 *1238:Y *660:6 24.1527 
2 *660:6 *660:12 48.4791 
3 *660:12 *1285:A 17.2 
4 *660:6 *1808:A 17.2 
*END

*D_NET *661 0.00018439
*CONN
*I *1285:B I *D OR5x1_ASAP7_75t_SL
*I *1807:A I *D BUFx3_ASAP7_75t_SL
*I *1235:Y O *D BUFx2_ASAP7_75t_SL
*CAP
1 *1285:B 1.00916e-05
2 *1807:A 0
3 *1235:Y 3.86116e-05
4 *661:10 2.4942e-05
5 *661:8 5.3462e-05
6 *1285:B *1285:C 1.12901e-05
7 *1285:B *1805:A 1.55612e-05
8 *661:10 *1805:A 1.66981e-05
9 *1239:A *661:8 1.00503e-05
10 *648:6 *1285:B 3.68287e-06
*RES
1 *1235:Y *661:8 48.8403 
2 *661:8 *661:10 12.9528 
3 *661:10 *1807:A 34.4 
4 *661:10 *1285:B 44.4803 
*END

*D_NET *662 0.000111968
*CONN
*I *1285:C I *D OR5x1_ASAP7_75t_SL
*I *1805:A I *D BUFx3_ASAP7_75t_SL
*I *1234:Y O *D BUFx2_ASAP7_75t_SL
*CAP
1 *1285:C 8.60334e-06
2 *1805:A 1.41727e-05
3 *1234:Y 1.01769e-05
4 *662:8 3.29529e-05
5 *1285:B *1285:C 1.12901e-05
6 *1285:B *1805:A 1.55612e-05
7 *648:21 *1805:A 5.37866e-07
8 *649:10 *1285:C 1.49407e-08
9 *649:20 *1285:C 4.97876e-07
10 *649:35 *1285:C 0
11 *658:8 *1805:A 1.46238e-06
12 *661:10 *1805:A 1.66981e-05
*RES
1 *1234:Y *662:8 38.1438 
2 *662:8 *1805:A 47.2111 
3 *662:8 *1285:C 41.158 
*END

*D_NET *663 0.00238319
*CONN
*I *1060:A I *D OR5x1_ASAP7_75t_SL
*I *1793:A I *D BUFx3_ASAP7_75t_SL
*I *1804:A I *D BUFx3_ASAP7_75t_SL
*I *1104:B I *D AO31x2_ASAP7_75t_SL
*I *1161:A I *D INVx1_ASAP7_75t_SL
*I *1231:Y O *D BUFx2_ASAP7_75t_SL
*CAP
1 *1060:A 2.05307e-06
2 *1793:A 0
3 *1804:A 0
4 *1104:B 0
5 *1161:A 0
6 *1231:Y 0
7 *663:106 2.33644e-05
8 *663:95 4.14931e-05
9 *663:93 5.46271e-05
10 *663:85 3.44454e-05
11 *663:83 0.000119319
12 *663:74 0.000191182
13 *663:72 7.18622e-05
14 *663:70 3.47019e-05
15 *663:64 9.80306e-05
16 *663:60 6.55798e-05
17 *663:54 3.65062e-05
18 *663:43 9.47894e-06
19 *663:37 5.42778e-05
20 *663:33 9.31773e-05
21 *663:31 1.94037e-05
22 *663:25 0.000105236
23 *663:18 7.24587e-06
24 *663:12 4.67927e-05
25 *663:6 0.000139502
26 *663:12 *677:6 0.000107785
27 *663:18 *677:14 1.26417e-05
28 *663:25 *676:35 2.74606e-06
29 *663:25 *722:42 0
30 *663:25 *820:18 2.02432e-06
31 *663:25 *823:18 0
32 *663:25 *876:12 8.33296e-06
33 *663:25 *886:10 0
34 *663:43 *741:18 8.80472e-06
35 *663:43 *741:27 2.35211e-06
36 *663:54 *846:143 5.14087e-06
37 *663:54 *846:167 1.5506e-05
38 *663:70 *736:46 1.62312e-05
39 *663:70 *823:86 1.01014e-05
40 *663:70 *846:175 0
41 *663:74 *772:10 0
42 *663:74 *823:86 1.60673e-05
43 *663:74 *836:10 1.35739e-05
44 *663:74 *836:25 0
45 *663:74 *836:71 1.02642e-06
46 *663:83 *692:109 1.07368e-06
47 *663:83 *717:47 1.09067e-06
48 *663:83 *770:8 2.94666e-06
49 *663:83 *770:12 2.53163e-05
50 *663:83 *770:42 2.15771e-05
51 *663:83 *836:71 1.23709e-05
52 *663:83 *836:129 5.47831e-06
53 *663:95 *825:12 5.19475e-06
54 *663:95 *825:25 4.41457e-05
55 *1044:B *663:83 3.05118e-08
56 *1060:B *1060:A 1.35684e-06
57 *1105:D *663:25 0
58 *1188:B *663:106 5.22376e-07
59 *1712:A *663:83 1.25812e-05
60 *5:10 *663:74 0
61 *5:16 *663:74 0
62 *10:35 *663:70 0
63 *84:10 *663:43 2.90547e-05
64 *85:10 *663:83 4.71319e-05
65 *86:12 *663:83 0
66 *86:27 *663:83 8.33296e-06
67 *87:10 *663:83 7.97766e-06
68 *88:10 *663:83 0
69 *164:8 *663:70 0
70 *176:22 *663:83 4.51575e-06
71 *179:32 *663:83 7.53304e-06
72 *180:10 *663:83 3.3563e-06
73 *180:22 *663:95 0.000120105
74 *186:76 *663:106 3.32257e-05
75 *189:75 *663:106 2.43404e-05
76 *189:92 *663:106 4.97876e-07
77 *216:20 *663:70 0
78 *216:22 *663:64 8.93844e-06
79 *216:30 *663:37 7.80516e-06
80 *216:32 *663:37 7.37901e-05
81 *217:8 *663:74 3.875e-06
82 *219:14 *663:54 5.90718e-05
83 *220:20 *663:64 2.60494e-05
84 *220:30 *663:54 3.52089e-05
85 *225:94 *663:25 4.50962e-06
86 *227:18 *663:25 4.47523e-05
87 *227:30 *663:25 1.15945e-06
88 *227:30 *663:33 0
89 *232:14 *663:33 7.25627e-06
90 *262:31 *663:25 1.12778e-05
91 *264:39 *663:83 0
92 *264:39 *663:93 5.49212e-07
93 *264:45 *663:83 0
94 *268:54 *663:93 3.16603e-06
95 *268:56 *663:95 2.71368e-06
96 *268:94 *663:93 1.96943e-05
97 *268:94 *663:95 3.56648e-06
98 *268:94 *663:106 2.68282e-05
99 *272:12 *663:83 0
100 *279:16 *663:12 1.36155e-06
101 *289:12 *663:83 0
102 *298:34 *663:106 0
103 *304:8 *663:83 7.24542e-06
104 *485:8 *663:25 0
105 *502:12 *663:25 4.83015e-06
106 *584:14 *663:70 5.47069e-05
107 *592:24 *663:74 3.76935e-06
108 *592:28 *663:70 6.45454e-06
109 *621:12 *663:74 3.66739e-06
110 *622:8 *663:74 1.66659e-05
111 *622:18 *663:74 2.71921e-06
112 *627:10 *663:25 0
113 *629:8 *663:25 0
114 *654:16 *663:25 2.1117e-06
115 *654:16 *663:33 4.908e-05
*RES
1 *1231:Y *663:6 34.4 
2 *663:6 *663:12 48.3616 
3 *663:12 *663:18 40.0317 
4 *663:18 *1161:A 17.2 
5 *663:6 *663:25 80.5327 
6 *663:25 *663:31 37.0741 
7 *663:31 *663:33 16.3318 
8 *663:33 *663:37 41.2671 
9 *663:37 *663:43 44.537 
10 *663:43 *1104:B 17.2 
11 *663:33 *663:54 40.3589 
12 *663:54 *663:60 35.4325 
13 *663:60 *663:64 48.7547 
14 *663:64 *663:70 49.0454 
15 *663:70 *663:72 17.2 
16 *663:72 *663:74 59.6956 
17 *663:74 *1804:A 34.4 
18 *663:74 *663:83 101.933 
19 *663:83 *663:85 17.2 
20 *663:85 *663:93 44.2252 
21 *663:93 *663:95 40.1119 
22 *663:95 *1793:A 17.2 
23 *663:85 *663:106 38.625 
24 *663:106 *1060:A 35.4697 
*END

*D_NET *664 0.000172278
*CONN
*I *1046:A I *D BUFx2_ASAP7_75t_SL
*I *1189:A2 I *D OA211x2_ASAP7_75t_SL
*I *1036:Y O *D INVx1_ASAP7_75t_SL
*CAP
1 *1046:A 1.71243e-05
2 *1189:A2 0
3 *1036:Y 4.23561e-05
4 *664:12 2.66588e-05
5 *664:8 4.37831e-05
6 *664:6 4.23561e-05
7 *1046:A *862:170 0
8 *664:12 *862:170 0
9 *1036:A *664:6 0
10 *99:8 *664:12 0
11 *303:8 *664:12 0
*RES
1 *1036:Y *664:6 34.8492 
2 *664:6 *664:8 17.2 
3 *664:8 *664:12 36.9108 
4 *664:12 *1189:A2 17.2 
5 *664:8 *1046:A 47.3528 
*END

*D_NET *665 7.02321e-05
*CONN
*I *1045:A I *D BUFx2_ASAP7_75t_SL
*I *1035:Y O *D INVx1_ASAP7_75t_SL
*CAP
1 *1045:A 0
2 *1035:Y 6.09819e-06
3 *665:12 2.49614e-05
4 *665:8 3.10596e-05
5 *1035:A *665:8 0
6 *182:8 *665:12 8.11281e-06
*RES
1 *1035:Y *665:8 37.0741 
2 *665:8 *665:12 38.6003 
3 *665:12 *1045:A 17.2 
*END

*D_NET *666 1.87658e-05
*CONN
*I *1042:A I *D BUFx2_ASAP7_75t_SL
*I *1026:Y O *D INVx1_ASAP7_75t_SL
*CAP
1 *1042:A 9.38289e-06
2 *1026:Y 9.38289e-06
*RES
1 *1026:Y *1042:A 40.2831 
*END

*D_NET *667 4.77832e-05
*CONN
*I *1401:B I *D OR2x2_ASAP7_75t_SL
*I *1230:Y O *D BUFx2_ASAP7_75t_SL
*CAP
1 *1401:B 5.41038e-06
2 *1230:Y 1.38596e-05
3 *667:8 1.927e-05
4 *1401:B *836:93 1.26378e-06
5 *667:8 *836:95 7.97945e-06
*RES
1 *1230:Y *667:8 46.2265 
2 *667:8 *1401:B 37.0741 
*END

*D_NET *668 0.000167785
*CONN
*I *1111:A1 I *D OA21x2_ASAP7_75t_SL
*I *1200:Y O *D BUFx2_ASAP7_75t_SL
*CAP
1 *1111:A1 1.16644e-05
2 *1200:Y 2.31912e-05
3 *668:18 5.93953e-05
4 *668:10 7.09221e-05
5 *1111:A1 *1111:A2 2.0895e-06
6 *668:10 *1110:B 5.22376e-07
7 *668:10 *713:181 0
*RES
1 *1200:Y *668:10 44.1491 
2 *668:10 *668:18 49.1255 
3 *668:18 *1111:A1 39.7482 
*END

*D_NET *669 0.000177649
*CONN
*I *1115:A1 I *D OA21x2_ASAP7_75t_SL
*I *1195:Y O *D BUFx2_ASAP7_75t_SL
*CAP
1 *1115:A1 0
2 *1195:Y 2.38102e-05
3 *669:14 1.57023e-05
4 *669:8 3.95125e-05
5 *669:14 *678:43 6.09672e-05
6 *669:14 *713:160 2.55355e-05
7 *29:6 *669:8 0
8 *308:13 *669:8 1.21211e-05
*RES
1 *1195:Y *669:8 44.5617 
2 *669:8 *669:14 38.5436 
3 *669:14 *1115:A1 17.2 
*END

*D_NET *670 0.000142114
*CONN
*I *1119:A1 I *D OA21x2_ASAP7_75t_SL
*I *1194:Y O *D BUFx2_ASAP7_75t_SL
*CAP
1 *1119:A1 0
2 *1194:Y 6.6015e-06
3 *670:12 5.2286e-05
4 *670:8 5.88875e-05
5 *670:12 *1119:A2 7.35354e-06
6 *670:12 *713:156 5.62196e-06
7 *1119:B *670:12 1.1364e-05
8 *245:8 *670:12 0
*RES
1 *1194:Y *670:8 38.9053 
2 *670:8 *670:12 43.4064 
3 *670:12 *1119:A1 17.2 
*END

*D_NET *671 0.000105483
*CONN
*I *1123:A1 I *D OA21x2_ASAP7_75t_SL
*I *1177:Y O *D BUFx2_ASAP7_75t_SL
*CAP
1 *1123:A1 0
2 *1177:Y 4.96246e-05
3 *671:6 4.96246e-05
4 *671:6 *713:124 1.0391e-06
5 *248:10 *671:6 5.19475e-06
*RES
1 *1177:Y *671:6 46.6154 
2 *671:6 *1123:A1 17.2 
*END

*D_NET *672 1.33124e-05
*CONN
*I *1127:A1 I *D OA21x2_ASAP7_75t_SL
*I *1166:Y O *D BUFx2_ASAP7_75t_SL
*CAP
1 *1127:A1 0
2 *1166:Y 5.88639e-06
3 *672:8 5.88639e-06
4 *251:12 *672:8 1.53963e-06
*RES
1 *1166:Y *672:8 38.9053 
2 *672:8 *1127:A1 34.4 
*END

*D_NET *673 2.05316e-05
*CONN
*I *1131:A1 I *D OA21x2_ASAP7_75t_SL
*I *1162:Y O *D BUFx2_ASAP7_75t_SL
*CAP
1 *1131:A1 7.21276e-06
2 *1162:Y 7.21276e-06
3 *1131:A1 *713:20 6.10603e-06
*RES
1 *1162:Y *1131:A1 38.6786 
*END

*D_NET *674 5.95156e-05
*CONN
*I *1135:A1 I *D OA21x2_ASAP7_75t_SL
*I *1157:Y O *D BUFx2_ASAP7_75t_SL
*CAP
1 *1135:A1 2.31517e-05
2 *1157:Y 3.98682e-06
3 *674:8 2.71385e-05
4 *1135:A1 *713:20 3.18377e-06
5 *1135:A1 *713:27 2.05484e-06
6 *1135:A1 *871:46 0
*RES
1 *1157:Y *674:8 36.0045 
2 *674:8 *1135:A1 49.5488 
*END

*D_NET *675 0.000148524
*CONN
*I *1139:A1 I *D OA21x2_ASAP7_75t_SL
*I *1154:Y O *D BUFx2_ASAP7_75t_SL
*CAP
1 *1139:A1 0
2 *1154:Y 1.59617e-05
3 *675:14 4.40616e-05
4 *675:8 6.00233e-05
5 *675:14 *1139:A2 2.03526e-06
6 *675:14 *714:46 1.26923e-05
7 *675:14 *714:61 7.86436e-06
8 *675:14 *871:40 7.35063e-07
9 *1154:A *675:8 5.1503e-06
*RES
1 *1154:Y *675:8 41.3527 
2 *675:8 *675:14 49.6936 
3 *675:14 *1139:A1 17.2 
*END

*D_NET *676 0.000307996
*CONN
*I *1013:A1 I *D OA211x2_ASAP7_75t_SL
*I *1041:A I *D BUFx2_ASAP7_75t_SL
*I *1021:Y O *D INVx1_ASAP7_75t_SL
*CAP
1 *1013:A1 1.74821e-06
2 *1041:A 1.77291e-05
3 *1021:Y 0
4 *676:35 1.89548e-05
5 *676:27 3.75943e-05
6 *676:10 5.33075e-05
7 *676:6 5.59661e-05
8 *676:10 *790:10 1.75292e-05
9 *676:10 *790:18 0
10 *676:10 *791:8 5.83613e-05
11 *676:27 *790:18 3.47607e-06
12 *676:27 *791:8 8.58704e-06
13 *676:27 *820:26 5.52807e-07
14 *1013:C *676:35 1.52651e-06
15 *3:14 *676:27 3.13426e-06
16 *141:8 *676:10 3.56395e-06
17 *269:13 *676:10 0
18 *269:17 *1041:A 1.4252e-05
19 *502:12 *676:35 8.33296e-06
20 *628:10 *676:27 6.33206e-07
21 *628:10 *676:35 0
22 *663:25 *676:35 2.74606e-06
*RES
1 *1021:Y *676:6 34.4 
2 *676:6 *676:10 48.1741 
3 *676:10 *1041:A 30.5706 
4 *676:6 *676:27 49.1237 
5 *676:27 *676:35 44.1686 
6 *676:35 *1013:A1 35.4697 
*END

*D_NET *677 0.000422738
*CONN
*I *1094:A I *D INVx1_ASAP7_75t_SL
*I *1403:B I *D OR3x1_ASAP7_75t_SL
*I *1150:Y O *D BUFx2_ASAP7_75t_SL
*CAP
1 *1094:A 0
2 *1403:B 2.60037e-06
3 *1150:Y 0
4 *677:18 4.21852e-05
5 *677:14 5.57601e-05
6 *677:6 7.36868e-05
7 *677:4 5.75116e-05
8 *1403:B *750:14 2.12481e-06
9 *677:6 *820:18 1.91973e-05
10 *677:14 *747:12 2.03526e-06
11 *677:18 *747:8 7.21451e-07
12 *677:18 *747:31 9.81412e-07
13 *1099:A1 *677:18 6.27284e-06
14 *1099:A2 *677:18 0
15 *1790:A *677:18 2.24968e-06
16 *224:8 *677:18 0
17 *279:10 *677:14 9.49598e-06
18 *279:16 *677:6 6.02341e-06
19 *485:34 *677:18 3.47607e-06
20 *647:8 *677:14 1.13436e-05
21 *647:8 *677:18 6.64608e-06
22 *663:12 *677:6 0.000107785
23 *663:18 *677:14 1.26417e-05
*RES
1 *1150:Y *677:4 17.2 
2 *677:4 *677:6 39.0422 
3 *677:6 *677:14 48.9573 
4 *677:14 *677:18 46.4846 
5 *677:18 *1403:B 36.0045 
6 *677:14 *1094:A 17.2 
*END

*D_NET *678 0.00091223
*CONN
*I *1039:A I *D BUFx2_ASAP7_75t_SL
*I *1431:B I *D AO21x1_ASAP7_75t_SL
*I *1025:Y O *D INVx1_ASAP7_75t_SL
*CAP
1 *1039:A 4.61858e-06
2 *1431:B 0
3 *1025:Y 0
4 *678:43 0.000102604
5 *678:41 9.79859e-05
6 *678:39 1.75502e-05
7 *678:31 8.84326e-05
8 *678:29 7.48772e-05
9 *678:20 1.56966e-05
10 *678:12 8.11441e-05
11 *678:10 7.35147e-05
12 *678:6 1.2062e-05
13 *678:10 *820:302 0
14 *678:12 *818:18 4.1108e-05
15 *678:12 *820:298 0.000125414
16 *678:20 *820:275 0
17 *678:20 *820:277 1.96943e-05
18 *678:29 *820:302 0
19 *678:31 *1125:A1 1.20471e-05
20 *678:39 *713:133 5.52807e-07
21 *678:39 *875:42 6.68208e-06
22 *678:43 *1111:A2 3.76935e-06
23 *678:43 *713:156 1.67005e-05
24 *678:43 *713:160 9.91634e-06
25 *678:43 *871:110 1.12894e-06
26 *678:43 *875:38 0
27 *678:43 *875:42 0
28 *678:43 *875:55 5.52807e-07
29 *1117:B *678:43 0
30 *1125:A2 *678:31 3.46317e-06
31 *1432:B *678:20 3.13426e-06
32 *1515:D *678:39 3.56648e-06
33 *29:14 *678:43 0
34 *72:6 *678:12 2.27479e-06
35 *144:8 *678:43 9.94583e-06
36 *145:10 *678:43 1.28841e-05
37 *147:10 *678:39 8.8135e-06
38 *238:10 *678:43 0
39 *239:12 *678:43 0
40 *240:10 *678:43 0
41 *242:10 *678:43 1.12894e-06
42 *669:14 *678:43 6.09672e-05
*RES
1 *1025:Y *678:6 34.4 
2 *678:6 *678:10 21.7053 
3 *678:10 *678:12 54.0173 
4 *678:12 *678:20 46.4496 
5 *678:20 *1431:B 17.2 
6 *678:6 *678:29 21.1422 
7 *678:29 *678:31 44.3905 
8 *678:31 *678:39 48.3374 
9 *678:39 *678:41 17.2 
10 *678:41 *678:43 88.9802 
11 *678:43 *1039:A 37.0741 
*END

*D_NET *679 9.06108e-05
*CONN
*I *1652:A I *D BUFx2_ASAP7_75t_SL
*I *1024:Y O *D INVx1_ASAP7_75t_SL
*CAP
1 *1652:A 0
2 *1024:Y 4.07146e-05
3 *679:6 4.07146e-05
4 *427:17 *679:6 5.45014e-06
5 *517:17 *679:6 3.73144e-06
*RES
1 *1024:Y *679:6 43.4064 
2 *679:6 *1652:A 17.2 
*END

*D_NET *680 0.000285912
*CONN
*I *1843:A I *D BUFx3_ASAP7_75t_SL
*I *1460:B I *D HAxp5_ASAP7_75t_SL
*I *1019:Y O *D INVx1_ASAP7_75t_SL
*CAP
1 *1843:A 0
2 *1460:B 0
3 *1019:Y 1.27187e-05
4 *680:18 5.65461e-06
5 *680:12 2.17935e-05
6 *680:8 2.88576e-05
7 *680:8 *692:133 3.93602e-06
8 *680:12 *763:6 4.15475e-05
9 *680:12 *763:14 2.31575e-05
10 *680:12 *815:61 8.80822e-05
11 *680:18 *763:93 0
12 *680:18 *836:129 1.692e-05
13 *85:23 *680:12 1.52651e-06
14 *209:22 *680:8 3.80325e-05
15 *209:22 *680:12 3.68565e-06
*RES
1 *1019:Y *680:8 47.3528 
2 *680:8 *680:12 43.4064 
3 *680:12 *680:18 40.0317 
4 *680:18 *1460:B 17.2 
5 *680:12 *1843:A 17.2 
*END

*D_NET *681 8.4121e-05
*CONN
*I *1412:A1 I *D OA211x2_ASAP7_75t_SL
*I *1456:A I *D HAxp5_ASAP7_75t_SL
*I *1020:Y O *D INVx2_ASAP7_75t_SL
*CAP
1 *1412:A1 1.05887e-05
2 *1456:A 8.98003e-06
3 *1020:Y 0
4 *681:4 1.95688e-05
5 *1020:A *1412:A1 1.56713e-06
6 *1020:A *1456:A 3.13426e-06
7 *1412:A2 *1412:A1 1.17077e-05
8 *1412:B *1412:A1 1.52651e-06
9 *492:14 *1412:A1 1.95129e-06
10 *492:14 *1456:A 2.50966e-05
*RES
1 *1020:Y *681:4 17.2 
2 *681:4 *1456:A 25.7572 
3 *681:4 *1412:A1 24.1527 
*END

*D_NET *684 8.52405e-05
*CONN
*P txd O
*I *1652:Y O *D BUFx2_ASAP7_75t_SL
*CAP
1 txd 2.03574e-05
2 *1652:Y 0
3 *684:14 4.26203e-05
4 *684:6 2.22628e-05
5 *333:9 txd 0
6 *427:11 txd 0
7 *427:17 *684:14 0
*RES
1 *1652:Y *684:6 34.4 
2 *684:6 *684:14 46.8513 
3 *684:14 txd 11.0921 
*END

*D_NET *685 0.000105314
*CONN
*I *1846:A I *D BUFx6f_ASAP7_75t_SL
*I *1849:A I *D BUFx12f_ASAP7_75t_SL
*I *1850:A I *D BUFx12f_ASAP7_75t_SL
*I *1653:Y O *D BUFx6f_ASAP7_75t_SL
*CAP
1 *1846:A 1.17095e-05
2 *1849:A 2.92359e-06
3 *1850:A 1.75695e-05
4 *1653:Y 0
5 *685:19 3.01722e-05
6 *685:6 3.31086e-05
7 *1846:A *736:14 3.46317e-06
8 *1846:A *889:8 2.98814e-07
9 *1850:A *820:81 0
10 *1850:A *883:10 1.67815e-06
11 *685:19 *820:81 0
12 *216:22 *1849:A 1.36155e-06
13 *219:10 *1850:A 0
14 *219:60 *685:19 0
15 *529:20 *1846:A 3.05118e-08
16 *529:20 *685:19 3.05118e-08
17 *529:22 *1846:A 2.96818e-06
*RES
1 *1653:Y *685:6 34.4 
2 *685:6 *1850:A 44.4803 
3 *685:6 *685:19 9.01066 
4 *685:19 *1849:A 35.4697 
5 *685:19 *1846:A 40.9879 
*END

*D_NET *686 0.00107271
*CONN
*I *1085:A2 I *D OAI21x1_ASAP7_75t_SL
*I *1086:A1 I *D OA21x2_ASAP7_75t_SL
*I *1062:B I *D NOR2x1_ASAP7_75t_SL
*I *1078:D I *D OR4x1_ASAP7_75t_SL
*I *1070:D I *D OR4x1_ASAP7_75t_SL
*I *1068:D I *D OR4x1_ASAP7_75t_SL
*I *1072:D I *D OR4x1_ASAP7_75t_SL
*I *1074:D I *D OR4x1_ASAP7_75t_SL
*I *1076:A I *D OR4x1_ASAP7_75t_SL
*I *1066:D I *D OR4x1_ASAP7_75t_SL
*I *1654:Y O *D BUFx6f_ASAP7_75t_SL
*CAP
1 *1085:A2 0
2 *1086:A1 0
3 *1062:B 6.1359e-06
4 *1078:D 1.87411e-06
5 *1070:D 1.62989e-05
6 *1068:D 0
7 *1072:D 0
8 *1074:D 0
9 *1076:A 1.79835e-06
10 *1066:D 2.6766e-06
11 *1654:Y 0
12 *686:149 6.02146e-05
13 *686:138 8.09618e-05
14 *686:136 3.75394e-05
15 *686:91 8.7451e-06
16 *686:76 2.75558e-05
17 *686:61 2.22893e-05
18 *686:51 3.93017e-05
19 *686:49 1.20869e-05
20 *686:41 2.76389e-05
21 *686:37 5.94012e-05
22 *686:26 3.65775e-05
23 *686:22 2.61488e-05
24 *686:14 6.74537e-05
25 *686:10 8.24438e-05
26 *686:4 4.35705e-05
27 *1062:B *1062:A 5.79724e-07
28 *1062:B *846:83 8.78514e-07
29 *1066:D *848:77 0
30 *1070:D *848:19 0
31 *686:10 *1062:A 1.12894e-06
32 *686:10 *846:83 2.61761e-06
33 *686:10 *869:25 1.12894e-06
34 *686:14 *869:29 3.38293e-05
35 *686:26 *711:74 9.93857e-06
36 *686:26 *819:8 4.11766e-06
37 *686:26 *861:36 3.32579e-06
38 *686:37 *711:74 8.21945e-06
39 *686:37 *711:87 2.52676e-05
40 *686:37 *819:8 1.03383e-05
41 *686:37 *848:8 0
42 *686:37 *848:19 0
43 *686:37 *861:36 4.68418e-06
44 *686:49 *1068:B 6.7842e-07
45 *686:61 *711:99 9.48786e-06
46 *686:61 *869:74 8.20723e-06
47 *686:76 *1074:C 1.35684e-06
48 *686:76 *711:99 1.34751e-05
49 *686:76 *711:112 1.90089e-05
50 *686:76 *711:125 2.60565e-05
51 *686:91 *1072:B 8.21855e-06
52 *686:91 *1072:C 1.4797e-05
53 *686:91 *1074:C 1.35684e-06
54 *686:91 *711:125 8.33296e-06
55 *686:149 *711:64 0
56 *686:149 *819:126 0
57 *1060:D *686:10 5.19552e-07
58 *1079:B *1078:D 2.12481e-06
59 *1079:B *686:22 3.73144e-06
60 *1086:B *686:149 1.72202e-05
61 *61:25 *686:149 1.07573e-06
62 *62:23 *686:61 4.43846e-06
63 *66:29 *686:76 6.1956e-06
64 *66:35 *686:61 5.63702e-07
65 *66:35 *686:76 6.14798e-06
66 *101:10 *686:37 1.02072e-05
67 *107:10 *686:149 1.08167e-05
68 *191:10 *686:10 0
69 *191:10 *686:136 3.54456e-05
70 *191:18 *686:10 6.05911e-06
71 *191:18 *686:136 5.25794e-06
72 *202:14 *686:22 6.94376e-06
73 *203:8 *686:37 2.45021e-07
74 *203:8 *686:49 5.13209e-07
75 *206:8 *686:76 9.77575e-06
76 *207:10 *1070:D 0
77 *207:10 *686:49 7.98765e-06
78 *207:10 *686:76 6.12368e-06
79 *211:6 *686:138 3.28266e-05
80 *211:6 *686:149 1.27365e-05
81 *294:60 *686:22 5.37569e-06
82 *303:8 *1062:B 4.48222e-07
83 *303:8 *686:10 2.18135e-06
84 *303:8 *686:136 0
*RES
1 *1654:Y *686:4 17.2 
2 *686:4 *686:10 35.5861 
3 *686:10 *686:14 39.1278 
4 *686:14 *686:22 46.9844 
5 *686:22 *686:26 23.958 
6 *686:26 *1066:D 35.4697 
7 *686:26 *686:37 28.1583 
8 *686:37 *686:41 25.2224 
9 *686:41 *686:49 40.9596 
10 *686:49 *686:51 17.2 
11 *686:51 *686:61 45.4083 
12 *686:61 *1076:A 35.4697 
13 *686:51 *686:76 39.0501 
14 *686:76 *1074:D 17.2 
15 *686:76 *686:91 43.2973 
16 *686:91 *1072:D 17.2 
17 *686:41 *1068:D 17.2 
18 *686:37 *1070:D 44.3669 
19 *686:22 *1078:D 18.8045 
20 *686:10 *1062:B 38.9053 
21 *686:4 *686:136 49.9703 
22 *686:136 *686:138 8.5572 
23 *686:138 *1086:A1 17.2 
24 *686:138 *686:149 46.7571 
25 *686:149 *1085:A2 34.4 
*END

*D_NET *687 0.000126451
*CONN
*I *964:B1 I *D AOI22x1_ASAP7_75t_SL
*I *1655:Y O *D BUFx3_ASAP7_75t_SL
*CAP
1 *964:B1 0
2 *1655:Y 3.09733e-06
3 *687:12 2.43629e-05
4 *687:8 2.74603e-05
5 *687:8 *728:39 1.6528e-05
6 *501:57 *687:8 1.63973e-05
7 *586:14 *687:12 9.75735e-06
8 *625:22 *687:12 2.88479e-05
*RES
1 *1655:Y *687:8 40.0317 
2 *687:8 *687:12 40.1975 
3 *687:12 *964:B1 17.2 
*END

*D_NET *688 4.62134e-05
*CONN
*I *1003:A2 I *D AOI211x1_ASAP7_75t_SL
*I *1656:Y O *D BUFx3_ASAP7_75t_SL
*CAP
1 *1003:A2 3.25424e-06
2 *1656:Y 1.62302e-05
3 *688:8 1.94844e-05
4 *688:8 *820:123 0
5 *688:8 *823:73 5.67735e-06
6 *501:57 *688:8 0
7 *618:14 *1003:A2 1.56713e-06
*RES
1 *1656:Y *688:8 46.2265 
2 *688:8 *1003:A2 36.0045 
*END

*D_NET *689 0.000883333
*CONN
*I *1280:B I *D OR3x1_ASAP7_75t_SL
*I *1324:B I *D OR3x1_ASAP7_75t_SL
*I *1315:C I *D AOI211x1_ASAP7_75t_SL
*I *1303:B I *D OR3x1_ASAP7_75t_SL
*I *1289:B I *D OR4x1_ASAP7_75t_SL
*I *1399:A1 I *D OA21x2_ASAP7_75t_SL
*I *1316:C I *D OR4x1_ASAP7_75t_SL
*I *1657:Y O *D BUFx3_ASAP7_75t_SL
*CAP
1 *1280:B 0
2 *1324:B 9.18817e-06
3 *1315:C 0
4 *1303:B 6.0639e-06
5 *1289:B 0
6 *1399:A1 0
7 *1316:C 1.97787e-06
8 *1657:Y 2.0975e-05
9 *689:100 2.18009e-05
10 *689:85 3.95056e-05
11 *689:64 2.35587e-05
12 *689:53 3.23125e-05
13 *689:47 5.58712e-05
14 *689:45 3.39801e-05
15 *689:35 7.67966e-05
16 *689:31 3.98457e-05
17 *689:25 8.64892e-06
18 *689:21 2.23249e-05
19 *689:10 3.12053e-05
20 *1324:B *1324:A 5.22376e-07
21 *689:10 *1316:A 5.37866e-07
22 *689:10 *801:8 2.83874e-07
23 *689:10 *859:18 0
24 *689:21 *739:30 1.92692e-05
25 *689:21 *859:18 0
26 *689:25 *739:24 3.65131e-06
27 *689:31 *859:18 5.8241e-06
28 *689:35 *739:14 9.34831e-06
29 *689:35 *739:20 2.28134e-05
30 *689:35 *885:12 1.83477e-05
31 *689:45 *739:14 7.10112e-06
32 *689:45 *802:25 1.16806e-05
33 *689:45 *846:27 1.66025e-05
34 *689:45 *885:12 0.000113092
35 *689:53 *1399:A2 5.19475e-06
36 *689:53 *756:24 2.61056e-05
37 *689:53 *820:197 0
38 *689:64 *738:12 2.70419e-05
39 *689:64 *739:10 1.23603e-05
40 *689:64 *739:70 3.92196e-05
41 *689:85 *1324:A 2.22736e-06
42 *689:85 *739:30 8.33296e-06
43 *689:100 *1324:A 2.67122e-06
44 *689:100 *800:40 0
45 *689:100 *800:48 5.85387e-06
46 *1279:A *689:53 8.13022e-06
47 *1303:C *1303:B 1.35684e-06
48 *1315:A2 *689:21 3.47607e-06
49 *1315:A2 *689:85 1.26641e-06
50 *1316:D *689:21 4.72861e-06
51 *1399:B *689:53 5.52807e-07
52 *33:29 *689:53 7.52553e-06
53 *33:29 *689:64 2.00551e-06
54 *189:27 *689:10 5.0551e-07
55 *193:18 *689:10 2.77657e-06
56 *193:18 *689:21 1.32107e-06
57 *193:18 *689:85 2.68462e-06
58 *193:18 *689:100 7.11252e-08
59 *285:6 *689:100 5.17782e-06
60 *287:38 *689:45 1.13052e-05
61 *287:89 *689:64 9.51027e-06
62 *288:10 *689:53 3.31686e-06
63 *288:16 *689:53 5.19498e-06
64 *377:33 *689:100 3.46317e-06
65 *378:8 *689:100 1.01102e-06
66 *400:10 *689:64 4.10345e-06
67 *408:18 *689:21 8.53502e-07
68 *408:22 *1316:C 5.22376e-07
69 *409:16 *689:25 6.53466e-06
70 *423:16 *689:10 3.65131e-06
71 *442:10 *689:53 7.58535e-06
72 *442:18 *689:53 1.64348e-06
73 *452:10 *689:100 0
74 *478:10 *689:53 8.60306e-07
75 *478:10 *689:64 6.10236e-08
*RES
1 *1657:Y *689:10 45.9147 
2 *689:10 *1316:C 35.4697 
3 *689:10 *689:21 9.01066 
4 *689:21 *689:25 22.0134 
5 *689:25 *689:31 36.5588 
6 *689:31 *689:35 32.5671 
7 *689:35 *689:45 40.499 
8 *689:45 *689:47 17.2 
9 *689:47 *689:53 46.3057 
10 *689:53 *1399:A1 17.2 
11 *689:47 *689:64 39.6788 
12 *689:64 *1289:B 17.2 
13 *689:35 *1303:B 37.0741 
14 *689:25 *1315:C 17.2 
15 *689:21 *689:85 7.88432 
16 *689:85 *1324:B 39.2134 
17 *689:85 *689:100 34.233 
18 *689:100 *1280:B 17.2 
*END

*D_NET *690 0.00148149
*CONN
*I *1220:B I *D OA21x2_ASAP7_75t_SL
*I *1196:B I *D NAND2x1p5_ASAP7_75t_SL
*I *1203:B I *D NAND2x1_ASAP7_75t_SL
*I *1213:A1 I *D OA211x2_ASAP7_75t_SL
*I *1212:B I *D NAND2x1_ASAP7_75t_SL
*I *1209:B I *D NAND2x1_ASAP7_75t_SL
*I *1206:B I *D NAND2x1_ASAP7_75t_SL
*I *1210:A1 I *D OA211x2_ASAP7_75t_SL
*I *1207:A1 I *D OA211x2_ASAP7_75t_SL
*I *1204:A1 I *D OA211x2_ASAP7_75t_SL
*I *1201:A1 I *D OA211x2_ASAP7_75t_SL
*I *1199:B I *D NAND2x1_ASAP7_75t_SL
*I *1218:B I *D NAND2x1_ASAP7_75t_SL
*I *1215:B I *D NAND2x1_ASAP7_75t_SL
*I *1216:A1 I *D OA211x2_ASAP7_75t_SL
*I *1219:A1 I *D OA211x2_ASAP7_75t_SL
*I *1197:A2 I *D OA211x2_ASAP7_75t_SL
*I *1658:Y O *D BUFx6f_ASAP7_75t_SL
*CAP
1 *1220:B 0
2 *1196:B 0
3 *1203:B 5.84292e-06
4 *1213:A1 0
5 *1212:B 1.08931e-05
6 *1209:B 0
7 *1206:B 5.35038e-06
8 *1210:A1 2.95045e-06
9 *1207:A1 7.22318e-06
10 *1204:A1 1.84445e-06
11 *1201:A1 1.54097e-05
12 *1199:B 1.09771e-05
13 *1218:B 1.80761e-06
14 *1215:B 0
15 *1216:A1 0
16 *1219:A1 6.19074e-06
17 *1197:A2 2.04254e-06
18 *1658:Y 2.53775e-05
19 *690:266 1.78893e-05
20 *690:251 2.91434e-05
21 *690:238 2.28291e-05
22 *690:216 4.12464e-05
23 *690:205 5.55442e-05
24 *690:190 3.99017e-05
25 *690:179 2.31932e-05
26 *690:168 2.90568e-05
27 *690:166 2.28339e-05
28 *690:158 1.68585e-05
29 *690:150 2.84783e-05
30 *690:135 4.18709e-05
31 *690:127 4.69002e-05
32 *690:114 4.98656e-05
33 *690:108 5.48784e-05
34 *690:97 5.37652e-05
35 *690:86 3.4773e-05
36 *690:75 5.96048e-06
37 *690:67 5.30401e-05
38 *690:63 7.16877e-05
39 *690:52 1.06705e-05
40 *690:44 4.84509e-05
41 *690:40 3.90023e-05
42 *690:21 3.82124e-05
43 *690:10 3.53483e-05
44 *690:6 6.09553e-05
45 *1201:A1 *1201:C 3.68287e-06
46 *1201:A1 *819:198 0
47 *1201:A1 *862:81 0
48 *1206:B *862:126 1.2768e-05
49 *1207:A1 *1207:C 5.41446e-06
50 *1219:A1 *819:136 2.71839e-06
51 *1219:A1 *819:142 3.46317e-06
52 *1219:A1 *819:155 1.95129e-06
53 *690:10 *819:132 5.79724e-07
54 *690:10 *861:72 0
55 *690:21 *819:132 2.74606e-06
56 *690:21 *819:155 5.31503e-06
57 *690:21 *861:72 0
58 *690:40 *819:142 4.83862e-06
59 *690:40 *819:164 1.74682e-05
60 *690:40 *861:68 0
61 *690:40 *861:72 0
62 *690:52 *819:172 3.89037e-06
63 *690:52 *819:183 3.05118e-08
64 *690:52 *861:64 2.90209e-08
65 *690:63 *819:172 6.33206e-07
66 *690:97 *1483:CLK 1.12894e-06
67 *690:97 *819:172 2.53282e-06
68 *690:97 *819:183 0
69 *690:108 *819:198 0
70 *690:114 *819:198 0
71 *690:127 *819:198 0
72 *690:135 *1204:C 1.36155e-06
73 *690:135 *819:202 3.16539e-06
74 *690:150 *819:202 5.83666e-07
75 *690:150 *819:217 1.8895e-05
76 *690:150 *819:225 1.52651e-06
77 *690:158 *819:217 0
78 *690:158 *819:225 6.33206e-07
79 *690:166 *819:225 3.32579e-06
80 *690:166 *862:102 1.61287e-05
81 *690:168 *1207:C 1.2768e-05
82 *690:168 *819:231 9.50284e-06
83 *690:168 *862:102 2.03526e-06
84 *690:179 *1210:C 3.3563e-06
85 *690:179 *862:126 5.00394e-06
86 *690:190 *862:126 3.84449e-06
87 *690:238 *819:202 1.02842e-06
88 *690:238 *819:217 3.05118e-08
89 *1087:A *1212:B 2.88806e-06
90 *1197:A1 *1197:A2 5.22376e-07
91 *1199:A *1199:B 1.35684e-06
92 *1204:B *690:135 1.75044e-06
93 *1204:B *690:238 1.1455e-05
94 *1207:B *1207:A1 7.79295e-06
95 *1209:A *690:205 9.67723e-06
96 *1209:A *690:216 6.0212e-06
97 *1213:B *690:150 5.0551e-07
98 *1215:A *690:67 1.52651e-06
99 *1219:B *1219:A1 5.85387e-06
100 *1220:A2 *690:266 3.05302e-06
101 *52:10 *690:86 0
102 *52:16 *1218:B 1.04475e-06
103 *52:16 *690:86 0
104 *53:18 *690:75 6.33206e-07
105 *53:18 *690:97 5.52807e-07
106 *55:23 *690:216 2.02764e-05
107 *55:29 *690:216 6.12523e-05
108 *56:22 *1206:B 9.07421e-06
109 *56:35 *690:205 0
110 *58:12 *690:97 1.66659e-05
111 *59:16 *690:251 5.34278e-06
112 *59:16 *690:266 5.25794e-06
113 *112:10 *690:168 5.51397e-07
114 *112:10 *690:190 5.52807e-07
115 *115:8 *690:97 4.10928e-06
116 *305:8 *690:21 2.21622e-06
117 *305:8 *690:40 4.92599e-06
118 *309:8 *690:10 0
119 *311:6 *1199:B 5.25278e-06
120 *311:14 *1201:A1 2.28976e-06
121 *311:14 *690:97 0
122 *314:10 *1203:B 1.81012e-06
123 *314:10 *690:238 1.45556e-05
124 *318:12 *690:190 2.19685e-06
125 *318:12 *690:205 3.3563e-06
126 *322:14 *690:67 4.20803e-06
127 *322:14 *690:75 1.42799e-05
128 *324:18 *690:21 1.39177e-05
129 *325:6 *690:266 1.25483e-05
130 *645:12 *690:266 1.56713e-06
*RES
1 *1658:Y *690:6 32.7099 
2 *690:6 *690:10 34.6581 
3 *690:10 *1197:A2 35.4697 
4 *690:10 *690:21 10.137 
5 *690:21 *1219:A1 38.6786 
6 *690:21 *690:40 49.7336 
7 *690:40 *690:44 23.0831 
8 *690:44 *690:52 39.975 
9 *690:52 *1216:A1 17.2 
10 *690:44 *690:63 27.5317 
11 *690:63 *690:67 24.1527 
12 *690:67 *690:75 41.4944 
13 *690:75 *1215:B 17.2 
14 *690:67 *690:86 42.3441 
15 *690:86 *1218:B 35.4697 
16 *690:63 *690:97 30.411 
17 *690:97 *1199:B 41.8876 
18 *690:97 *690:108 4.50533 
19 *690:108 *690:114 49.9099 
20 *690:114 *1201:A1 45.4366 
21 *690:108 *690:127 9.01066 
22 *690:127 *690:135 43.0989 
23 *690:135 *1204:A1 35.4697 
24 *690:135 *690:150 36.1493 
25 *690:150 *690:158 38.2855 
26 *690:158 *690:166 44.4803 
27 *690:166 *690:168 10.1617 
28 *690:168 *1207:A1 22.0134 
29 *690:168 *690:179 26.2107 
30 *690:179 *1210:A1 36.0045 
31 *690:179 *690:190 7.88432 
32 *690:190 *1206:B 40.8179 
33 *690:190 *690:205 34.8245 
34 *690:205 *1209:B 17.2 
35 *690:205 *690:216 48.6166 
36 *690:216 *1212:B 40.8179 
37 *690:158 *1213:A1 17.2 
38 *690:127 *690:238 47.3775 
39 *690:238 *1203:B 38.2855 
40 *690:6 *690:251 8.02238 
41 *690:251 *1196:B 17.2 
42 *690:251 *690:266 48.6455 
43 *690:266 *1220:B 17.2 
*END

*D_NET *691 4.8508e-05
*CONN
*I *1332:C I *D AOI211x1_ASAP7_75t_SL
*I *1659:Y O *D BUFx3_ASAP7_75t_SL
*CAP
1 *1332:C 0
2 *1659:Y 1.71031e-05
3 *691:8 1.71031e-05
4 *302:8 *691:8 0
5 *304:8 *691:8 1.43018e-05
*RES
1 *1659:Y *691:8 47.3528 
2 *691:8 *1332:C 34.4 
*END

*D_NET *692 0.00235333
*CONN
*I *1185:A I *D NAND2x1_ASAP7_75t_SL
*I *1181:A2 I *D AO21x1_ASAP7_75t_SL
*I *1375:A1 I *D OA211x2_ASAP7_75t_SL
*I *1191:C I *D AND3x1_ASAP7_75t_SL
*I *1379:A1 I *D OAI21x1_ASAP7_75t_SL
*I *1339:A1 I *D OA211x2_ASAP7_75t_SL
*I *1348:B I *D OR3x1_ASAP7_75t_SL
*I *1660:Y O *D BUFx6f_ASAP7_75t_SL
*CAP
1 *1185:A 0
2 *1181:A2 1.88882e-06
3 *1375:A1 6.58864e-06
4 *1191:C 0
5 *1379:A1 5.47305e-06
6 *1339:A1 8.02729e-06
7 *1348:B 0
8 *1660:Y 0
9 *692:141 4.05491e-05
10 *692:133 5.64713e-05
11 *692:129 2.22375e-05
12 *692:125 1.86714e-05
13 *692:117 6.41135e-05
14 *692:113 0.000123541
15 *692:111 7.36726e-05
16 *692:109 5.8361e-05
17 *692:103 6.17812e-05
18 *692:97 0.000116827
19 *692:81 1.59093e-05
20 *692:73 0.00011699
21 *692:64 0.000117224
22 *692:49 3.04965e-05
23 *692:45 2.10302e-05
24 *692:39 4.67118e-05
25 *692:33 7.20828e-05
26 *692:27 9.89634e-05
27 *692:18 7.93611e-05
28 *692:14 3.12587e-05
29 *692:10 6.19169e-05
30 *692:8 6.13863e-05
31 *692:4 0.000122547
32 *1181:A2 *815:68 1.35684e-06
33 *1339:A1 *1339:B 8.11704e-06
34 *1339:A1 *708:19 1.16588e-05
35 *692:8 *693:20 5.00816e-06
36 *692:10 *1176:C 5.23062e-06
37 *692:10 *1399:A2 3.16603e-06
38 *692:10 *723:38 2.83874e-07
39 *692:10 *731:21 4.32559e-05
40 *692:10 *731:36 6.74503e-05
41 *692:10 *738:18 4.83862e-06
42 *692:10 *756:10 2.83872e-05
43 *692:10 *756:16 5.03172e-05
44 *692:10 *820:187 5.48826e-06
45 *692:10 *880:23 1.7518e-05
46 *692:14 *1700:A 4.82734e-05
47 *692:14 *738:22 5.54317e-05
48 *692:18 *723:44 1.07428e-05
49 *692:27 *705:36 0
50 *692:27 *797:14 0
51 *692:45 *708:19 0
52 *692:45 *795:24 2.98532e-06
53 *692:64 *708:19 1.04198e-05
54 *692:64 *865:75 0
55 *692:73 *860:126 2.03526e-06
56 *692:73 *860:134 4.92332e-06
57 *692:81 *862:170 0
58 *692:97 *1147:C 2.6409e-06
59 *692:97 *693:20 1.65418e-05
60 *692:103 *723:72 1.40354e-06
61 *692:103 *863:117 1.07183e-05
62 *692:109 *717:18 0
63 *692:125 *711:37 1.39719e-05
64 *692:125 *711:50 5.92989e-06
65 *692:133 *808:25 0
66 *692:141 *815:59 3.09718e-06
67 *1182:B *692:133 2.22331e-05
68 *1184:B *692:133 3.05118e-08
69 *1244:A *692:49 3.15324e-05
70 *1379:B *692:39 6.7842e-07
71 *1:12 *692:141 0
72 *1:51 *692:109 0
73 *40:10 *692:73 9.59239e-06
74 *70:33 *692:141 2.78959e-06
75 *108:10 *692:81 2.77657e-06
76 *132:10 *692:27 0
77 *135:10 *692:27 2.22736e-06
78 *179:12 *692:125 1.85565e-05
79 *183:10 *1375:A1 1.97709e-05
80 *183:10 *692:27 3.54529e-05
81 *183:14 *692:27 3.00916e-05
82 *209:16 *692:141 0
83 *209:22 *692:133 9.41265e-07
84 *264:45 *692:109 0
85 *264:53 *692:113 1.22212e-05
86 *266:10 *692:97 0
87 *271:10 *692:129 9.75645e-06
88 *287:49 *692:18 0
89 *289:12 *692:109 3.36331e-07
90 *292:10 *692:10 3.55835e-05
91 *298:12 *692:125 1.87371e-05
92 *298:12 *692:133 2.68623e-05
93 *298:18 *692:117 0
94 *298:18 *692:125 2.84286e-06
95 *300:8 *692:125 1.49407e-08
96 *357:6 *1339:A1 1.52651e-06
97 *357:20 *1375:A1 4.59165e-06
98 *357:20 *692:27 2.63279e-05
99 *398:59 *692:18 8.21944e-06
100 *398:59 *692:27 8.68362e-06
101 *433:8 *1339:A1 5.19498e-06
102 *436:10 *1339:A1 0
103 *437:8 *692:27 2.02632e-06
104 *438:12 *692:27 6.06688e-06
105 *442:18 *692:10 3.31197e-06
106 *462:10 *692:10 0
107 *462:10 *692:18 0
108 *462:10 *692:27 0
109 *462:10 *692:39 3.29527e-06
110 *463:14 *692:39 0
111 *464:8 *692:45 6.33206e-07
112 *466:8 *692:45 2.01457e-05
113 *471:16 *692:27 0
114 *663:83 *692:109 1.07368e-06
115 *680:8 *692:133 3.93602e-06
*RES
1 *1660:Y *692:4 17.2 
2 *692:4 *692:8 20.9438 
3 *692:8 *692:10 65.8904 
4 *692:10 *692:14 33.7796 
5 *692:14 *692:18 33.5318 
6 *692:18 *1348:B 34.4 
7 *692:18 *692:27 54.6271 
8 *692:27 *692:33 47.7706 
9 *692:33 *692:39 40.9307 
10 *692:39 *692:45 43.4107 
11 *692:45 *692:49 26.292 
12 *692:49 *1339:A1 44.4803 
13 *692:49 *692:64 26.2107 
14 *692:64 *1379:A1 19.8741 
15 *692:64 *692:73 64.7138 
16 *692:73 *692:81 45.6066 
17 *692:81 *1191:C 17.2 
18 *692:27 *1375:A1 41.158 
19 *692:4 *692:97 49.7387 
20 *692:97 *692:103 38.0606 
21 *692:103 *692:109 38.3479 
22 *692:109 *692:111 17.2 
23 *692:111 *692:113 43.3208 
24 *692:113 *692:117 49.3005 
25 *692:117 *692:125 48.2241 
26 *692:125 *692:129 19.8741 
27 *692:129 *692:133 35.3152 
28 *692:133 *692:141 44.9557 
29 *692:141 *1181:A2 35.4697 
30 *692:129 *1185:A 17.2 
*END

*D_NET *693 0.00105466
*CONN
*I *1227:A I *D OR3x1_ASAP7_75t_SL
*I *1156:B I *D OR3x1_ASAP7_75t_SL
*I *1163:A1 I *D OA211x2_ASAP7_75t_SL
*I *1321:C I *D AO221x1_ASAP7_75t_SL
*I *1311:C I *D AO221x1_ASAP7_75t_SL
*I *1661:Y O *D BUFx3_ASAP7_75t_SL
*CAP
1 *1227:A 0
2 *1156:B 5.88199e-06
3 *1163:A1 0
4 *1321:C 1.44605e-05
5 *1311:C 0
6 *1661:Y 3.75683e-06
7 *693:94 3.56243e-05
8 *693:78 1.43143e-05
9 *693:70 2.36605e-05
10 *693:66 5.84028e-05
11 *693:64 0.000115915
12 *693:44 6.23575e-06
13 *693:36 4.09284e-05
14 *693:30 4.91532e-05
15 *693:28 0.000122559
16 *693:26 0.000125378
17 *693:20 5.28469e-05
18 *693:18 5.00284e-05
19 *693:16 5.31064e-05
20 *693:10 7.84588e-05
21 *693:8 3.75683e-06
22 *1156:B *1156:A 1.35684e-06
23 *693:8 *723:10 7.84037e-07
24 *693:16 *706:14 1.43997e-05
25 *693:26 *863:10 1.12894e-06
26 *693:44 *718:14 8.53501e-06
27 *693:64 *706:14 1.97598e-05
28 *693:66 *695:50 0
29 *693:66 *717:18 2.00515e-06
30 *693:66 *820:167 0
31 *693:66 *878:16 4.26773e-06
32 *693:78 *1159:B 0
33 *693:78 *695:50 0
34 *693:78 *711:29 0
35 *693:78 *771:31 5.42019e-06
36 *693:94 *825:12 6.94376e-06
37 *88:22 *693:78 4.47696e-06
38 *266:37 *693:66 0
39 *266:37 *693:78 1.02359e-06
40 *278:10 *693:78 8.24135e-06
41 *282:28 *693:66 7.75e-06
42 *284:16 *693:94 8.32972e-06
43 *284:35 *693:94 0
44 *285:28 *693:94 0
45 *291:6 *1156:B 1.66706e-05
46 *291:6 *693:70 9.30483e-06
47 *292:33 *693:20 4.17901e-06
48 *292:39 *693:20 1.21017e-05
49 *391:20 *693:36 2.52755e-07
50 *391:20 *693:44 3.05118e-08
51 *392:10 *1321:C 0
52 *403:26 *1321:C 3.89037e-06
53 *403:37 *693:36 3.05118e-08
54 *403:37 *693:44 8.58704e-06
55 *406:25 *693:44 8.2174e-07
56 *406:33 *1321:C 2.20493e-06
57 *406:33 *693:36 6.05245e-06
58 *407:10 *1321:C 0
59 *407:10 *693:36 0
60 *415:29 *693:44 0
61 *430:10 *693:16 6.65157e-06
62 *436:10 *693:8 9.81516e-06
63 *442:10 *693:16 0
64 *471:8 *693:26 3.6269e-06
65 *692:8 *693:20 5.00816e-06
66 *692:97 *693:20 1.65418e-05
*RES
1 *1661:Y *693:8 37.779 
2 *693:8 *693:10 17.2 
3 *693:10 *693:16 45.0429 
4 *693:16 *693:18 17.2 
5 *693:18 *693:20 36.9029 
6 *693:20 *693:26 37.2158 
7 *693:26 *693:28 72.2014 
8 *693:28 *693:30 17.2 
9 *693:30 *693:36 34.9662 
10 *693:36 *693:44 40.5381 
11 *693:44 *1311:C 17.2 
12 *693:30 *1321:C 44.1686 
13 *693:10 *693:64 31.6403 
14 *693:64 *693:66 36.6058 
15 *693:66 *693:70 19.8741 
16 *693:70 *693:78 45.6066 
17 *693:78 *1163:A1 17.2 
18 *693:70 *1156:B 22.0134 
19 *693:64 *693:94 41.9793 
20 *693:94 *1227:A 17.2 
*END

*D_NET *694 1.17957e-05
*CONN
*I *1447:A I *D AND5x2_ASAP7_75t_SL
*I *1662:Y O *D BUFx3_ASAP7_75t_SL
*CAP
1 *1447:A 0
2 *1662:Y 5.89784e-06
3 *694:8 5.89784e-06
4 *493:10 *694:8 0
5 *496:16 *694:8 0
*RES
1 *1662:Y *694:8 38.9053 
2 *694:8 *1447:A 34.4 
*END

*D_NET *695 0.000338231
*CONN
*I *1174:C I *D AND3x1_ASAP7_75t_SL
*I *1159:A2 I *D AO21x1_ASAP7_75t_SL
*I *1352:A1 I *D AOI22x1_ASAP7_75t_SL
*I *1338:A1 I *D AO21x1_ASAP7_75t_SL
*I *1663:Y O *D BUFx6f_ASAP7_75t_SL
*CAP
1 *1174:C 5.06643e-06
2 *1159:A2 0
3 *1352:A1 2.32819e-06
4 *1338:A1 7.00312e-06
5 *1663:Y 0
6 *695:50 1.42119e-05
7 *695:42 5.99655e-05
8 *695:27 2.40939e-05
9 *695:8 3.95404e-05
10 *695:6 5.14587e-05
11 *1352:A1 *712:14 5.51397e-07
12 *695:27 *712:8 2.68933e-07
13 *695:50 *1159:B 8.06436e-06
14 *695:50 *1174:A 7.6881e-06
15 *695:50 *711:29 2.41931e-06
16 *1174:B *1174:C 3.67067e-06
17 *1174:B *695:42 2.01337e-05
18 *88:22 *695:50 3.68287e-06
19 *270:12 *695:42 6.47554e-05
20 *272:106 *695:42 1.48586e-06
21 *429:14 *1338:A1 3.46317e-06
22 *429:14 *1352:A1 5.85387e-06
23 *429:14 *695:27 4.83862e-06
24 *430:10 *1338:A1 1.49407e-08
25 *430:10 *695:8 2.91344e-06
26 *430:10 *695:42 8.3668e-07
27 *436:10 *695:50 0
28 *442:10 *695:8 0
29 *442:10 *695:27 3.92132e-06
30 *442:10 *695:42 0
31 *693:66 *695:50 0
32 *693:78 *695:50 0
*RES
1 *1663:Y *695:6 34.4 
2 *695:6 *695:8 9.01066 
3 *695:8 *1338:A1 38.8486 
4 *695:8 *695:27 46.9844 
5 *695:27 *1352:A1 36.0045 
6 *695:6 *695:42 46.3356 
7 *695:42 *695:50 45.6066 
8 *695:50 *1159:A2 17.2 
9 *695:42 *1174:C 20.409 
*END

*D_NET *696 6.34689e-05
*CONN
*I *1148:B I *D NAND2x1_ASAP7_75t_SL
*I *1664:Y O *D BUFx3_ASAP7_75t_SL
*CAP
1 *1148:B 2.37549e-05
2 *1664:Y 6.67365e-06
3 *696:8 3.04285e-05
4 *1148:B *1148:A 2.61188e-06
5 *696:8 *703:10 0
6 *696:8 *771:31 0
*RES
1 *1664:Y *696:8 38.9053 
2 *696:8 *1148:B 47.2358 
*END

*D_NET *697 0.000526056
*CONN
*I *1856:A I *D BUFx6f_ASAP7_75t_SL
*I *911:B I *D AND2x4_ASAP7_75t_SL
*I *924:D I *D AND4x1_ASAP7_75t_SL
*I *1669:A I *D BUFx3_ASAP7_75t_SL
*I *1665:Y O *D BUFx6f_ASAP7_75t_SL
*CAP
1 *1856:A 1.68689e-06
2 *911:B 3.75122e-06
3 *924:D 2.67083e-06
4 *1669:A 3.48677e-06
5 *1665:Y 4.2527e-06
6 *697:26 3.72833e-05
7 *697:24 5.19452e-05
8 *697:14 1.9229e-05
9 *697:12 7.82448e-05
10 *697:10 7.99317e-05
11 *697:8 4.2527e-06
12 *697:8 *817:78 0
13 *697:24 *827:24 6.97416e-06
14 *697:26 *827:24 4.48918e-05
15 *697:26 *827:39 9.63076e-06
16 *697:26 *854:62 1.50385e-05
17 *697:26 *854:64 3.20014e-05
18 *911:A *911:B 2.12481e-06
19 *911:A *697:12 3.13426e-06
20 *925:B *697:26 2.05045e-06
21 *1100:D *697:12 1.40419e-08
22 *17:31 *697:24 1.96943e-05
23 *18:25 *697:12 4.71816e-05
24 *228:6 *1856:A 1.36155e-06
25 *228:6 *697:12 1.32437e-05
26 *542:10 *697:24 8.06436e-06
27 *542:21 *911:B 4.83862e-06
28 *542:21 *697:24 1.15587e-05
29 *543:6 *697:12 0
30 *544:8 *911:B 5.37866e-07
31 *544:8 *697:24 2.68933e-07
32 *550:16 *697:26 7.7278e-06
33 *554:8 *697:24 6.33206e-07
34 *554:8 *697:26 1.52942e-06
35 *555:14 *697:26 0
36 *556:12 *697:26 2.71921e-06
37 *565:18 *697:8 4.1009e-06
*RES
1 *1665:Y *697:8 37.779 
2 *697:8 *697:10 17.2 
3 *697:10 *697:12 39.0422 
4 *697:12 *697:14 17.2 
5 *697:14 *697:24 49.8569 
6 *697:24 *697:26 38.2953 
7 *697:26 *1669:A 36.0045 
8 *697:24 *924:D 35.4697 
9 *697:14 *911:B 38.7636 
10 *697:10 *1856:A 18.2696 
*END

*D_NET *698 0.000111743
*CONN
*I *1084:A I *D INVx1_ASAP7_75t_SL
*I *1222:D I *D OR4x1_ASAP7_75t_SL
*I *1666:Y O *D BUFx3_ASAP7_75t_SL
*CAP
1 *1084:A 1.56311e-05
2 *1222:D 0
3 *1666:Y 6.22045e-06
4 *698:14 3.13486e-05
5 *698:8 5.32002e-05
6 *1084:A *711:64 0
7 *698:14 *711:64 0
8 *1223:A *698:14 5.34278e-06
*RES
1 *1666:Y *698:8 37.0741 
2 *698:8 *698:14 37.6651 
3 *698:14 *1222:D 17.2 
4 *698:8 *1084:A 46.2265 
*END

*D_NET *699 0.000647591
*CONN
*I *1289:A I *D OR4x1_ASAP7_75t_SL
*I *1845:A I *D BUFx6f_ASAP7_75t_SL
*I *1844:A I *D BUFx4f_ASAP7_75t_SL
*I *1667:Y O *D BUFx6f_ASAP7_75t_SL
*CAP
1 *1289:A 4.63473e-05
2 *1845:A 1.62831e-06
3 *1844:A 5.71234e-06
4 *1667:Y 1.26044e-05
5 *699:52 5.41822e-05
6 *699:46 0.000101784
7 *699:44 9.95679e-05
8 *699:31 1.75401e-05
9 *699:29 3.53033e-05
10 *699:23 5.17986e-05
11 *699:10 3.25006e-05
12 *699:8 1.26044e-05
13 *1845:A *710:8 5.85387e-06
14 *1845:A *710:14 5.85387e-06
15 *699:8 *869:12 9.76728e-06
16 *699:23 *707:33 2.92669e-05
17 *699:23 *870:8 1.15055e-05
18 *699:23 *879:10 9.67723e-06
19 *699:29 *1332:A2 0
20 *699:29 *799:14 5.85387e-06
21 *699:31 *710:14 4.71862e-06
22 *699:31 *862:37 1.54585e-06
23 *699:44 *1331:B 7.86436e-06
24 *699:44 *710:14 4.71862e-06
25 *699:46 *1228:B 2.03526e-06
26 *1167:A *1289:A 1.88216e-05
27 *1167:B *1289:A 1.08639e-05
28 *194:8 *699:52 3.20655e-06
29 *195:37 *1844:A 2.0895e-06
30 *195:37 *699:23 5.51397e-07
31 *264:24 *699:23 0
32 *268:10 *699:31 0
33 *268:20 *699:44 0
34 *268:54 *699:8 0
35 *284:12 *699:46 1.9285e-05
36 *304:8 *699:8 2.22736e-06
37 *304:8 *699:23 2.03106e-05
*RES
1 *1667:Y *699:8 43.4107 
2 *699:8 *699:10 17.2 
3 *699:10 *1844:A 19.8741 
4 *699:10 *699:23 44.7101 
5 *699:23 *699:29 44.5617 
6 *699:29 *699:31 7.88432 
7 *699:31 *1845:A 36.0045 
8 *699:31 *699:44 21.7053 
9 *699:44 *699:46 40.1119 
10 *699:46 *699:52 38.9053 
11 *699:52 *1289:A 42.8716 
*END

*D_NET *700 4.70598e-05
*CONN
*I *998:A1 I *D AO31x2_ASAP7_75t_SL
*I *1668:Y O *D BUFx3_ASAP7_75t_SL
*CAP
1 *998:A1 0
2 *1668:Y 2.03196e-05
3 *700:8 2.03196e-05
4 *700:8 *812:33 0
5 *700:8 *812:39 4.74248e-06
6 *700:8 *843:47 0
7 *476:10 *700:8 1.67815e-06
8 *613:8 *700:8 0
*RES
1 *1668:Y *700:8 48.4791 
2 *700:8 *998:A1 34.4 
*END

*D_NET *701 0.000355776
*CONN
*I *940:A1 I *D AOI21x1_ASAP7_75t_SL
*I *1451:B I *D NAND2x1_ASAP7_75t_SL
*I *1450:A1 I *D AO21x1_ASAP7_75t_SL
*I *1669:Y O *D BUFx3_ASAP7_75t_SL
*CAP
1 *940:A1 0
2 *1451:B 1.38464e-06
3 *1450:A1 0
4 *1669:Y 0
5 *701:36 4.57253e-05
6 *701:21 2.46217e-05
7 *701:17 9.4751e-05
8 *701:10 1.14786e-05
9 *701:4 3.72672e-05
10 *701:10 *827:39 1.97947e-06
11 *701:36 *783:31 2.71274e-05
12 *154:8 *701:21 2.91303e-06
13 *525:8 *701:36 4.33555e-07
14 *525:14 *701:36 0
15 *525:20 *701:17 2.24633e-05
16 *525:20 *701:36 3.33671e-05
17 *526:10 *701:10 0
18 *526:16 *701:10 0
19 *526:16 *701:21 7.35063e-07
20 *527:10 *701:21 2.97641e-06
21 *528:8 *1451:B 4.06202e-06
22 *528:14 *701:21 4.38553e-05
23 *567:29 *701:36 6.35292e-07
*RES
1 *1669:Y *701:4 17.2 
2 *701:4 *701:10 42.2843 
3 *701:10 *1450:A1 17.2 
4 *701:4 *701:17 10.1617 
5 *701:17 *701:21 38.0371 
6 *701:21 *1451:B 35.4697 
7 *701:17 *701:36 37.6651 
8 *701:36 *940:A1 34.4 
*END

*D_NET *702 0.000177397
*CONN
*I *1409:B I *D AND3x4_ASAP7_75t_SL
*I *1427:C I *D AND4x1_ASAP7_75t_SL
*I *1670:Y O *D BUFx3_ASAP7_75t_SL
*CAP
1 *1409:B 7.44233e-06
2 *1427:C 0
3 *1670:Y 1.66203e-06
4 *702:20 1.47403e-05
5 *702:12 2.82607e-05
6 *702:8 7.74003e-06
7 *1409:B *1409:A 3.65131e-06
8 *1409:B *727:61 1.7743e-05
9 *702:8 *728:103 8.19503e-06
10 *702:12 *727:61 5.85387e-06
11 *702:20 *727:57 4.83862e-06
12 *702:20 *727:69 0
13 *3:12 *702:8 8.06436e-06
14 *3:12 *702:20 0
15 *74:12 *1409:B 3.76571e-05
16 *74:12 *702:12 2.40363e-05
17 *499:22 *1409:B 1.10279e-06
18 *499:22 *702:12 4.20803e-06
19 *505:27 *702:20 2.20128e-06
*RES
1 *1670:Y *702:8 37.2158 
2 *702:8 *702:12 24.1527 
3 *702:12 *702:20 43.8888 
4 *702:20 *1427:C 17.2 
5 *702:12 *1409:B 28.4313 
*END

*D_NET *703 3.04191e-05
*CONN
*I *1345:B I *D AOI21x1_ASAP7_75t_SL
*I *1671:Y O *D BUFx3_ASAP7_75t_SL
*CAP
1 *1345:B 0
2 *1671:Y 1.46879e-05
3 *703:10 1.46879e-05
4 *1664:A *703:10 5.0551e-07
5 *435:10 *703:10 5.37866e-07
6 *436:10 *703:10 0
7 *696:8 *703:10 0
*RES
1 *1671:Y *703:10 42.6491 
2 *703:10 *1345:B 34.4 
*END

*D_NET *704 6.02431e-05
*CONN
*I *932:C I *D NOR3x1_ASAP7_75t_SL
*I *1672:Y O *D BUFx3_ASAP7_75t_SL
*CAP
1 *932:C 5.21716e-06
2 *1672:Y 3.62874e-06
3 *704:8 8.8459e-06
4 *932:C *872:48 5.51397e-07
5 *932:C *872:50 4.17901e-06
6 *704:8 *872:92 1.27817e-05
7 *522:20 *704:8 1.05534e-07
8 *533:23 *932:C 1.97065e-05
9 *565:10 *704:8 5.22719e-06
*RES
1 *1672:Y *704:8 38.9053 
2 *704:8 *932:C 40.2831 
*END

*D_NET *705 0.000354529
*CONN
*I *1387:A2 I *D AOI21x1_ASAP7_75t_SL
*I *1386:C I *D AND3x1_ASAP7_75t_SL
*I *1353:A2 I *D OA22x2_ASAP7_75t_SL
*I *1673:Y O *D BUFx6f_ASAP7_75t_SL
*CAP
1 *1387:A2 0
2 *1386:C 0
3 *1353:A2 2.97971e-05
4 *1673:Y 6.06231e-06
5 *705:58 2.02563e-05
6 *705:36 4.92518e-05
7 *705:28 2.72645e-05
8 *705:22 2.717e-05
9 *705:12 1.93602e-05
10 *705:10 2.06405e-05
11 *705:6 4.69591e-05
12 *1353:A2 *797:20 2.53132e-05
13 *705:10 *1386:B 7.75768e-06
14 *705:10 *767:10 2.98532e-06
15 *705:10 *794:33 0
16 *705:22 *1386:B 2.03526e-06
17 *705:28 *1392:A1 0
18 *705:36 *797:20 5.63702e-07
19 *705:36 *819:54 8.66876e-06
20 *705:58 *794:27 5.79724e-07
21 *705:58 *794:33 1.69183e-06
22 *705:58 *860:32 0
23 *1392:A2 *705:22 1.04475e-06
24 *1392:B2 *705:22 1.39182e-06
25 *1392:B2 *705:28 1.87645e-05
26 *183:44 *705:6 4.22446e-06
27 *183:44 *705:58 9.34096e-06
28 *287:68 *705:22 5.70209e-06
29 *346:24 *705:10 0
30 *346:24 *705:22 0
31 *346:28 *705:22 0
32 *346:28 *705:28 0
33 *466:18 *705:58 6.33206e-07
34 *471:16 *705:36 8.14727e-06
35 *477:16 *705:36 8.92288e-06
36 *692:27 *705:36 0
*RES
1 *1673:Y *705:6 19.8741 
2 *705:6 *705:10 33.5318 
3 *705:10 *705:12 17.2 
4 *705:12 *705:22 47.6893 
5 *705:22 *705:28 41.158 
6 *705:28 *705:36 47.3775 
7 *705:36 *1353:A2 35.9189 
8 *705:12 *1386:C 17.2 
9 *705:6 *705:58 47.5192 
10 *705:58 *1387:A2 17.2 
*END

*D_NET *706 0.000365055
*CONN
*I *1860:A I *D BUFx6f_ASAP7_75t_SL
*I *1176:A I *D AND3x4_ASAP7_75t_SL
*I *1172:A I *D AND5x2_ASAP7_75t_SL
*I *1674:Y O *D BUFx6f_ASAP7_75t_SL
*CAP
1 *1860:A 1.46048e-05
2 *1176:A 0
3 *1172:A 0
4 *1674:Y 0
5 *706:14 6.69946e-05
6 *706:12 7.41708e-05
7 *706:8 2.18744e-05
8 *706:6 2.93031e-05
9 *706:14 *1172:B 2.12481e-06
10 *706:14 *1172:E 2.10457e-05
11 *1172:C *706:14 1.99018e-05
12 *268:60 *706:8 1.1648e-05
13 *268:60 *706:12 1.56807e-06
14 *268:64 *706:12 7.75768e-06
15 *282:22 *706:14 1.66706e-05
16 *288:22 *1860:A 2.19685e-06
17 *288:22 *706:8 5.79724e-07
18 *350:8 *1860:A 0
19 *350:21 *1860:A 2.52755e-07
20 *430:10 *706:8 1.64764e-06
21 *430:16 *1860:A 2.12481e-06
22 *479:12 *1860:A 1.08639e-05
23 *479:12 *706:8 6.49127e-06
24 *482:12 *706:8 9.29587e-06
25 *482:12 *706:12 9.77825e-06
26 *693:16 *706:14 1.43997e-05
27 *693:64 *706:14 1.97598e-05
*RES
1 *1674:Y *706:6 34.4 
2 *706:6 *706:8 15.2055 
3 *706:8 *706:12 25.0843 
4 *706:12 *706:14 51.878 
5 *706:14 *1172:A 17.2 
6 *706:8 *1176:A 34.4 
7 *706:6 *1860:A 46.0848 
*END

*D_NET *707 0.000595939
*CONN
*I *1187:A I *D NOR2x2_ASAP7_75t_SL
*I *1332:B I *D AOI211x1_ASAP7_75t_SL
*I *1175:A3 I *D AO32x1_ASAP7_75t_SL
*I *1675:Y O *D BUFx6f_ASAP7_75t_SL
*CAP
1 *1187:A 0
2 *1332:B 0
3 *1175:A3 2.84777e-06
4 *1675:Y 0
5 *707:44 4.70974e-05
6 *707:33 6.24665e-06
7 *707:27 8.1197e-05
8 *707:23 5.33111e-05
9 *707:10 8.68516e-05
10 *707:8 9.17132e-05
11 *707:4 3.31674e-05
12 *707:8 *869:14 5.17782e-06
13 *707:10 *1172:B 1.21832e-05
14 *707:10 *744:31 0
15 *707:10 *744:37 1.79289e-07
16 *707:10 *809:68 6.10236e-07
17 *707:10 *809:79 3.10828e-06
18 *707:10 *878:10 1.53596e-05
19 *707:27 *1225:A 8.23084e-06
20 *707:27 *862:20 1.56713e-06
21 *707:27 *870:12 7.63254e-06
22 *707:44 *862:16 0
23 *707:44 *862:20 1.31174e-05
24 *1:51 *707:10 1.53157e-06
25 *1:55 *707:10 3.66718e-06
26 *174:8 *707:10 0
27 *180:18 *707:10 0
28 *186:68 *707:23 1.36169e-05
29 *189:48 *707:10 1.37455e-06
30 *189:48 *707:23 0
31 *189:52 *707:10 4.36269e-06
32 *195:25 *707:23 6.89935e-06
33 *264:24 *707:23 1.00883e-05
34 *264:39 *707:10 0
35 *264:39 *707:23 1.49407e-08
36 *268:10 *707:23 0
37 *281:14 *1175:A3 7.63254e-07
38 *281:14 *707:10 1.27635e-05
39 *289:12 *707:10 0
40 *291:14 *707:10 2.68255e-06
41 *298:34 *707:44 2.1416e-06
42 *303:8 *707:44 7.90032e-06
43 *304:8 *707:33 2.92669e-05
44 *699:23 *707:33 2.92669e-05
*RES
1 *1675:Y *707:4 17.2 
2 *707:4 *707:8 20.9438 
3 *707:8 *707:10 63.0746 
4 *707:10 *1175:A3 36.0045 
5 *707:4 *707:23 37.474 
6 *707:23 *707:27 31.6403 
7 *707:27 *707:33 44.537 
8 *707:33 *1332:B 17.2 
9 *707:27 *707:44 40.874 
10 *707:44 *1187:A 34.4 
*END

*D_NET *708 0.00153097
*CONN
*I *1357:B I *D OA21x2_ASAP7_75t_SL
*I *1276:A I *D NAND2x1_ASAP7_75t_SL
*I *1277:A1 I *D OA211x2_ASAP7_75t_SL
*I *1260:A I *D NAND2x1_ASAP7_75t_SL
*I *1268:A I *D NAND2x1_ASAP7_75t_SL
*I *1269:A1 I *D OA211x2_ASAP7_75t_SL
*I *1261:A1 I *D OA211x2_ASAP7_75t_SL
*I *1342:B I *D OA21x2_ASAP7_75t_SL
*I *1676:Y O *D BUFx6f_ASAP7_75t_SL
*CAP
1 *1357:B 0
2 *1276:A 0
3 *1277:A1 1.149e-05
4 *1260:A 0
5 *1268:A 0
6 *1269:A1 2.17255e-05
7 *1261:A1 1.1125e-05
8 *1342:B 0
9 *1676:Y 1.08887e-05
10 *708:97 4.39872e-05
11 *708:95 3.12871e-05
12 *708:89 3.71549e-05
13 *708:81 3.35826e-05
14 *708:79 2.34452e-05
15 *708:73 5.40403e-05
16 *708:67 0.000106368
17 *708:61 5.63862e-05
18 *708:55 3.46261e-05
19 *708:53 2.59451e-05
20 *708:51 1.03582e-05
21 *708:43 5.66836e-05
22 *708:37 5.8991e-05
23 *708:31 9.26981e-05
24 *708:29 8.57602e-05
25 *708:23 5.93784e-05
26 *708:19 0.000101497
27 *708:10 7.3288e-05
28 *708:8 3.63302e-05
29 *1277:A1 *1277:B 2.28976e-06
30 *708:10 *1339:B 1.64764e-06
31 *708:19 *1339:B 2.80709e-06
32 *708:19 *865:75 0
33 *708:23 *865:79 9.04784e-05
34 *708:23 *865:87 5.19552e-07
35 *708:31 *797:64 2.00282e-05
36 *708:37 *1501:CLK 0
37 *708:43 *1356:C 0
38 *708:51 *860:44 8.87763e-06
39 *708:55 *860:44 4.89116e-05
40 *708:55 *860:46 7.89954e-05
41 *708:73 *867:79 0
42 *1269:A2 *1269:A1 8.3281e-06
43 *1339:A1 *708:19 1.16588e-05
44 *1357:A1 *708:43 5.22376e-07
45 *1357:A2 *708:43 1.36155e-06
46 *1366:B *708:31 2.27522e-06
47 *1375:C *708:23 6.7842e-07
48 *1378:B *708:29 0
49 *123:8 *708:67 7.84037e-07
50 *132:10 *708:29 1.67893e-05
51 *183:20 *708:10 0
52 *183:20 *708:19 0
53 *268:32 *708:8 0
54 *268:38 *708:8 1.23489e-06
55 *357:12 *708:19 0
56 *357:43 *708:55 8.31096e-06
57 *357:47 *708:55 3.07985e-05
58 *360:14 *708:81 7.63254e-06
59 *361:8 *708:89 0
60 *361:8 *708:95 0
61 *361:20 *1261:A1 0
62 *361:20 *708:95 0
63 *361:20 *708:97 0
64 *372:10 *708:79 5.06565e-06
65 *374:10 *708:61 0
66 *375:10 *708:55 5.51397e-07
67 *375:10 *708:61 4.10928e-06
68 *375:14 *1277:A1 1.96943e-05
69 *375:14 *708:67 3.41815e-05
70 *428:22 *708:19 2.20028e-06
71 *430:18 *708:10 1.89317e-05
72 *430:30 *708:10 0
73 *436:10 *708:10 0
74 *444:10 *708:37 5.52807e-07
75 *444:10 *708:43 0
76 *445:10 *708:37 5.37569e-06
77 *446:8 *708:37 2.18135e-06
78 *454:10 *708:31 3.56177e-06
79 *464:8 *708:19 2.18135e-06
80 *465:8 *708:19 0
81 *466:8 *708:19 0
82 *692:45 *708:19 0
83 *692:64 *708:19 1.04198e-05
*RES
1 *1676:Y *708:8 38.1438 
2 *708:8 *708:10 22.5266 
3 *708:10 *1342:B 34.4 
4 *708:10 *708:19 37.7321 
5 *708:19 *708:23 46.6154 
6 *708:23 *708:29 40.0317 
7 *708:29 *708:31 48.6691 
8 *708:31 *708:37 44.537 
9 *708:37 *708:43 47.9154 
10 *708:43 *708:51 39.89 
11 *708:51 *708:53 17.2 
12 *708:53 *708:55 39.0422 
13 *708:55 *708:61 41.158 
14 *708:61 *708:67 45.2093 
15 *708:67 *708:73 46.0028 
16 *708:73 *708:79 38.9053 
17 *708:79 *708:81 11.7662 
18 *708:81 *708:89 45.4933 
19 *708:89 *708:95 28.1516 
20 *708:95 *708:97 7.88432 
21 *708:97 *1261:A1 43.4107 
22 *708:97 *1269:A1 46.1661 
23 *708:95 *1268:A 34.4 
24 *708:81 *1260:A 17.2 
25 *708:67 *1277:A1 43.492 
26 *708:55 *1276:A 17.2 
27 *708:37 *1357:B 17.2 
*END

*D_NET *709 0.000801003
*CONN
*I *1288:B2 I *D OAI22x1_ASAP7_75t_SL
*I *1273:B2 I *D OAI22x1_ASAP7_75t_SL
*I *1243:B2 I *D OAI22x1_ASAP7_75t_SL
*I *1264:B2 I *D OAI22x1_ASAP7_75t_SL
*I *1255:B2 I *D OAI22x1_ASAP7_75t_SL
*I *1677:Y O *D BUFx3_ASAP7_75t_SL
*CAP
1 *1288:B2 1.79195e-06
2 *1273:B2 0
3 *1243:B2 0
4 *1264:B2 2.40721e-05
5 *1255:B2 1.49534e-05
6 *1677:Y 0
7 *709:57 2.25945e-05
8 *709:39 2.40721e-05
9 *709:37 2.55773e-05
10 *709:24 1.79361e-05
11 *709:22 7.46959e-05
12 *709:20 7.46959e-05
13 *709:18 5.62656e-05
14 *709:12 6.20144e-05
15 *709:6 9.59034e-05
16 *709:4 8.83626e-05
17 *1255:B2 *1255:A1 1.86022e-05
18 *1264:B2 *863:58 2.74873e-05
19 *1264:B2 *863:66 1.0391e-06
20 *709:18 *847:14 2.02204e-06
21 *709:22 *1243:A1 5.51397e-07
22 *709:37 *1255:A1 1.15587e-05
23 *709:37 *863:37 3.22574e-06
24 *709:57 *1273:A1 3.48708e-06
25 *709:57 *863:37 1.6705e-05
26 *1251:A2 *709:57 2.83449e-06
27 *1264:B1 *1264:B2 3.73144e-06
28 *1273:A2 *709:57 1.01709e-06
29 *1273:B1 *709:57 6.51288e-06
30 *1322:C *709:18 7.35354e-06
31 *1677:A *709:6 1.78333e-06
32 *127:10 *709:6 5.85387e-06
33 *127:10 *709:12 4.83862e-06
34 *344:20 *1255:B2 2.53282e-06
35 *344:20 *709:22 9.75645e-06
36 *345:8 *709:22 0
37 *363:10 *1255:B2 9.93746e-06
38 *363:10 *709:37 5.8198e-06
39 *363:10 *709:57 3.90659e-06
40 *363:16 *709:57 1.02506e-06
41 *385:8 *1288:B2 4.97654e-06
42 *385:8 *709:18 2.68586e-05
43 *407:10 *709:12 7.57697e-06
44 *412:12 *709:6 2.35069e-05
45 *412:12 *709:18 3.56648e-06
*RES
1 *1677:Y *709:4 17.2 
2 *709:4 *709:6 42.2512 
3 *709:6 *709:12 40.5948 
4 *709:12 *709:18 47.0688 
5 *709:18 *709:20 17.2 
6 *709:20 *709:22 34.7636 
7 *709:22 *709:24 17.2 
8 *709:24 *1255:B2 47.0977 
9 *709:24 *709:37 5.06849 
10 *709:37 *709:39 17.2 
11 *709:39 *1264:B2 33.7796 
12 *709:39 *1243:B2 17.2 
13 *709:37 *709:57 34.233 
14 *709:57 *1273:B2 17.2 
15 *709:18 *1288:B2 36.0895 
*END

*D_NET *710 0.000154396
*CONN
*I *1331:B I *D AND2x2_ASAP7_75t_SL
*I *1226:A2 I *D AOI21x1_ASAP7_75t_SL
*I *1678:Y O *D BUFx3_ASAP7_75t_SL
*CAP
1 *1331:B 1.34694e-05
2 *1226:A2 0
3 *1678:Y 6.23288e-06
4 *710:14 3.45042e-05
5 *710:8 5.42064e-05
6 *1331:B *799:14 2.76797e-06
7 *1331:B *862:37 1.53963e-06
8 *1226:B *710:14 2.20493e-06
9 *1845:A *710:8 5.85387e-06
10 *1845:A *710:14 5.85387e-06
11 *268:20 *710:14 1.04611e-05
12 *699:31 *710:14 4.71862e-06
13 *699:44 *1331:B 7.86436e-06
14 *699:44 *710:14 4.71862e-06
*RES
1 *1678:Y *710:8 37.0741 
2 *710:8 *710:14 37.6651 
3 *710:14 *1226:A2 17.2 
4 *710:8 *1331:B 46.2265 
*END

*D_NET *711 0.00155451
*CONN
*I *1078:C I *D OR4x1_ASAP7_75t_SL
*I *1076:C I *D OR4x1_ASAP7_75t_SL
*I *1072:C I *D OR4x1_ASAP7_75t_SL
*I *1074:C I *D OR4x1_ASAP7_75t_SL
*I *1070:C I *D OR4x1_ASAP7_75t_SL
*I *1068:C I *D OR4x1_ASAP7_75t_SL
*I *1066:C I *D OR4x1_ASAP7_75t_SL
*I *1184:A1 I *D OAI21x1_ASAP7_75t_SL
*I *1159:B I *D AO21x1_ASAP7_75t_SL
*I *1679:Y O *D BUFx6f_ASAP7_75t_SL
*CAP
1 *1078:C 0
2 *1076:C 2.36933e-06
3 *1072:C 1.08487e-05
4 *1074:C 5.81263e-06
5 *1070:C 5.78814e-06
6 *1068:C 2.73147e-06
7 *1066:C 0
8 *1184:A1 0
9 *1159:B 5.92378e-06
10 *1679:Y 9.11301e-06
11 *711:125 2.95349e-05
12 *711:112 2.38366e-05
13 *711:99 2.19765e-05
14 *711:91 2.39695e-05
15 *711:87 2.71243e-05
16 *711:74 2.76411e-05
17 *711:68 1.0463e-05
18 *711:64 8.59908e-05
19 *711:62 9.15012e-05
20 *711:58 2.5591e-05
21 *711:50 3.48618e-05
22 *711:37 2.15292e-05
23 *711:31 8.74072e-05
24 *711:29 8.47471e-05
25 *711:16 1.74121e-05
26 *711:10 1.89295e-05
27 *1070:C *1070:B 6.7378e-06
28 *1072:C *848:49 3.47607e-06
29 *711:31 *809:64 5.62271e-06
30 *711:31 *820:228 1.44735e-05
31 *711:31 *863:102 6.99016e-06
32 *711:50 *759:6 4.32473e-06
33 *711:58 *809:10 8.06436e-06
34 *711:58 *809:25 3.22574e-06
35 *711:58 *820:363 1.12901e-05
36 *711:62 *1178:A1 5.85387e-06
37 *711:62 *759:6 2.35969e-05
38 *711:64 *1468:CLK 0
39 *711:64 *809:25 0
40 *711:64 *819:8 0.000120053
41 *711:64 *820:363 0
42 *711:64 *861:62 0
43 *711:64 *869:33 2.69965e-05
44 *711:64 *869:44 6.58216e-06
45 *711:74 *819:8 1.68065e-05
46 *711:87 *819:8 2.67953e-05
47 *711:87 *869:65 9.08513e-06
48 *711:99 *869:74 7.35063e-07
49 *711:125 *1070:B 2.98247e-06
50 *711:125 *1072:B 5.49212e-07
51 *711:125 *869:100 1.70866e-06
52 *1069:A1 *711:91 0
53 *1069:A1 *711:99 0
54 *1079:B *711:68 1.95129e-06
55 *1079:B *711:74 7.36575e-06
56 *1084:A *711:64 0
57 *1174:B *711:10 1.04475e-06
58 *1:27 *711:50 7.75665e-06
59 *61:10 *711:64 0
60 *62:23 *1076:C 8.6329e-06
61 *62:23 *711:91 2.36118e-05
62 *62:23 *711:99 2.55293e-06
63 *63:12 *1072:C 0
64 *65:16 *1070:C 5.655e-06
65 *66:25 *1070:C 1.00976e-05
66 *66:25 *711:125 9.75645e-06
67 *66:29 *711:125 4.71862e-06
68 *67:8 *711:87 7.46759e-06
69 *88:14 *711:31 5.28774e-05
70 *88:22 *1159:B 0
71 *88:22 *711:16 1.62434e-05
72 *97:20 *711:31 0.000146089
73 *179:12 *711:50 2.93253e-06
74 *207:10 *1072:C 1.64764e-06
75 *207:10 *711:99 2.30443e-05
76 *207:10 *711:112 1.76445e-05
77 *207:10 *711:125 2.19685e-06
78 *213:10 *711:64 0
79 *272:14 *711:31 3.38749e-05
80 *278:10 *1159:B 0
81 *294:6 *711:58 7.58545e-06
82 *294:16 *711:58 9.08513e-06
83 *300:8 *711:37 1.03251e-06
84 *436:10 *1159:B 0
85 *436:10 *711:10 9.11384e-07
86 *686:26 *711:74 9.93857e-06
87 *686:37 *711:74 8.21945e-06
88 *686:37 *711:87 2.52676e-05
89 *686:61 *711:99 9.48786e-06
90 *686:76 *1074:C 1.35684e-06
91 *686:76 *711:99 1.34751e-05
92 *686:76 *711:112 1.90089e-05
93 *686:76 *711:125 2.60565e-05
94 *686:91 *1072:C 1.4797e-05
95 *686:91 *1074:C 1.35684e-06
96 *686:91 *711:125 8.33296e-06
97 *686:149 *711:64 0
98 *692:125 *711:37 1.39719e-05
99 *692:125 *711:50 5.92989e-06
100 *693:78 *1159:B 0
101 *693:78 *711:29 0
102 *695:50 *1159:B 8.06436e-06
103 *695:50 *711:29 2.41931e-06
104 *698:14 *711:64 0
*RES
1 *1679:Y *711:10 39.3835 
2 *711:10 *711:16 39.2134 
3 *711:16 *1159:B 39.4685 
4 *711:16 *711:29 18.6079 
5 *711:29 *711:31 51.0794 
6 *711:31 *711:37 39.1869 
7 *711:37 *1184:A1 17.2 
8 *711:37 *711:50 46.3079 
9 *711:50 *711:58 45.2949 
10 *711:58 *711:62 24.1527 
11 *711:62 *711:64 78.8432 
12 *711:64 *711:68 18.2696 
13 *711:68 *711:74 24.971 
14 *711:74 *1066:C 34.4 
15 *711:74 *711:87 37.442 
16 *711:87 *711:91 25.0843 
17 *711:91 *711:99 49.4638 
18 *711:99 *1068:C 35.4697 
19 *711:99 *711:112 23.958 
20 *711:112 *1070:C 23.0831 
21 *711:112 *711:125 31.1374 
22 *711:125 *1074:C 37.0741 
23 *711:125 *1072:C 43.8321 
24 *711:91 *1076:C 37.1591 
25 *711:68 *1078:C 17.2 
*END

*D_NET *712 0.000206514
*CONN
*I *1352:B2 I *D AOI22x1_ASAP7_75t_SL
*I *1343:B I *D OR3x1_ASAP7_75t_SL
*I *1344:B I *D NAND2x1_ASAP7_75t_SL
*I *1680:Y O *D BUFx6f_ASAP7_75t_SL
*CAP
1 *1352:B2 0
2 *1343:B 0
3 *1344:B 0
4 *1680:Y 4.4603e-06
5 *712:33 1.84926e-05
6 *712:22 3.88627e-05
7 *712:14 5.43085e-05
8 *712:8 3.83988e-05
9 *712:22 *1344:A 7.63254e-07
10 *712:22 *1350:B 2.54626e-07
11 *712:33 *835:16 3.31686e-06
12 *1352:A1 *712:14 5.51397e-07
13 *1352:A2 *712:14 5.25794e-06
14 *294:34 *712:33 3.32524e-06
15 *429:14 *712:8 5.49212e-07
16 *429:14 *712:14 5.10911e-06
17 *429:14 *712:22 0
18 *430:10 *712:22 6.33206e-07
19 *434:8 *712:33 8.2174e-07
20 *435:10 *712:33 8.31096e-06
21 *436:8 *712:33 5.25794e-06
22 *436:10 *712:33 7.98637e-06
23 *440:8 *712:22 1.09842e-06
24 *442:8 *712:14 0
25 *442:10 *712:8 4.07215e-06
26 *470:8 *712:8 1.63733e-06
27 *470:8 *712:14 2.77657e-06
28 *695:27 *712:8 2.68933e-07
*RES
1 *1680:Y *712:8 38.9053 
2 *712:8 *712:14 35.6391 
3 *712:14 *712:22 46.9844 
4 *712:22 *1344:B 17.2 
5 *712:22 *712:33 34.2897 
6 *712:33 *1343:B 34.4 
7 *712:8 *1352:B2 34.4 
*END

*D_NET *713 0.00170915
*CONN
*I *1130:B I *D NAND2x1_ASAP7_75t_SL
*I *1119:A2 I *D OA21x2_ASAP7_75t_SL
*I *1114:B I *D NAND2x1_ASAP7_75t_SL
*I *1110:B I *D NAND2x1_ASAP7_75t_SL
*I *1111:A2 I *D OA21x2_ASAP7_75t_SL
*I *1115:A2 I *D OA21x2_ASAP7_75t_SL
*I *1118:B I *D NAND2x1_ASAP7_75t_SL
*I *1123:A2 I *D OA21x2_ASAP7_75t_SL
*I *1122:B I *D NAND2x1_ASAP7_75t_SL
*I *1126:B I *D NAND2x1_ASAP7_75t_SL
*I *1127:A2 I *D OA21x2_ASAP7_75t_SL
*I *1134:B I *D NAND2x1_ASAP7_75t_SL
*I *1135:A2 I *D OA21x2_ASAP7_75t_SL
*I *1131:A2 I *D OA21x2_ASAP7_75t_SL
*I *1681:Y O *D BUFx6f_ASAP7_75t_SL
*CAP
1 *1130:B 0
2 *1119:A2 3.47752e-06
3 *1114:B 2.63053e-06
4 *1110:B 4.36021e-06
5 *1111:A2 1.44985e-05
6 *1115:A2 0
7 *1118:B 2.2145e-05
8 *1123:A2 0
9 *1122:B 2.52259e-06
10 *1126:B 0
11 *1127:A2 0
12 *1134:B 0
13 *1135:A2 1.90473e-06
14 *1131:A2 0
15 *1681:Y 5.44472e-06
16 *713:221 2.03125e-05
17 *713:181 4.4668e-05
18 *713:175 4.51767e-05
19 *713:171 3.41486e-05
20 *713:164 2.32244e-05
21 *713:160 2.38182e-05
22 *713:158 2.14649e-05
23 *713:156 2.35824e-05
24 *713:139 4.99177e-05
25 *713:133 6.88096e-05
26 *713:124 4.39904e-05
27 *713:105 6.70612e-05
28 *713:103 5.79082e-05
29 *713:94 3.79306e-05
30 *713:86 3.12122e-05
31 *713:73 2.56593e-05
32 *713:65 4.26504e-05
33 *713:59 6.0306e-05
34 *713:50 7.10973e-06
35 *713:42 6.92285e-05
36 *713:27 5.86028e-05
37 *713:20 3.76233e-05
38 *713:14 4.54953e-05
39 *713:12 0.000110919
40 *713:10 0.000110919
41 *713:8 5.44472e-06
42 *1110:B *875:74 1.12894e-06
43 *1111:A2 *875:55 3.47607e-06
44 *713:12 *871:48 6.45814e-06
45 *713:27 *871:59 0
46 *713:42 *871:59 0
47 *713:65 *874:40 1.45556e-05
48 *713:65 *874:51 1.68602e-05
49 *713:73 *874:36 0
50 *713:73 *874:51 1.43515e-05
51 *713:105 *1128:B 0
52 *713:124 *875:42 0
53 *713:133 *875:42 0
54 *713:156 *875:55 8.85176e-06
55 *713:160 *875:55 0.000103387
56 *713:181 *875:59 2.12481e-06
57 *713:181 *875:68 1.21272e-05
58 *713:221 *818:136 1.81284e-05
59 *1111:A1 *1111:A2 2.0895e-06
60 *1111:B *1111:A2 3.09382e-05
61 *1111:B *713:181 1.07377e-06
62 *1114:A *713:175 1.15587e-05
63 *1115:B *713:171 3.0096e-05
64 *1117:A2 *713:164 6.7842e-07
65 *1124:A *713:156 2.68933e-07
66 *1128:A *713:105 0
67 *1131:A1 *713:20 6.10603e-06
68 *1135:A1 *713:20 3.18377e-06
69 *1135:A1 *713:27 2.05484e-06
70 *1135:B *713:42 2.08701e-05
71 *23:12 *713:65 3.55137e-06
72 *23:12 *713:221 4.61888e-06
73 *24:25 *713:105 0
74 *26:10 *713:139 0
75 *26:10 *713:156 1.09067e-06
76 *147:10 *713:133 4.10928e-06
77 *147:10 *713:156 4.40256e-06
78 *150:10 *713:50 1.30801e-05
79 *239:8 *1111:A2 6.53938e-06
80 *242:10 *713:171 5.19552e-07
81 *244:10 *1118:B 5.51397e-07
82 *245:8 *1119:A2 2.52755e-07
83 *247:8 *713:124 7.57697e-06
84 *247:8 *713:133 7.84037e-07
85 *248:10 *713:133 0
86 *249:12 *1118:B 0
87 *249:12 *713:133 0
88 *249:12 *713:156 0
89 *250:10 *713:86 1.21348e-05
90 *250:10 *713:94 9.33147e-06
91 *251:8 *713:86 1.7689e-06
92 *251:8 *713:94 4.7125e-06
93 *251:12 *713:86 4.90042e-07
94 *253:8 *713:50 1.26923e-05
95 *253:8 *713:65 2.82699e-06
96 *253:8 *713:221 1.07612e-05
97 *254:10 *713:65 3.41635e-07
98 *258:10 *713:42 5.96787e-07
99 *258:10 *713:59 2.90269e-07
100 *307:9 *1118:B 0
101 *312:9 *1110:B 5.79724e-07
102 *668:10 *1110:B 5.22376e-07
103 *668:10 *713:181 0
104 *669:14 *713:160 2.55355e-05
105 *670:12 *1119:A2 7.35354e-06
106 *670:12 *713:156 5.62196e-06
107 *671:6 *713:124 1.0391e-06
108 *678:39 *713:133 5.52807e-07
109 *678:43 *1111:A2 3.76935e-06
110 *678:43 *713:156 1.67005e-05
111 *678:43 *713:160 9.91634e-06
*RES
1 *1681:Y *713:8 37.779 
2 *713:8 *713:10 17.2 
3 *713:10 *713:12 39.0422 
4 *713:12 *713:14 17.2 
5 *713:14 *713:20 42.3688 
6 *713:20 *1131:A2 17.2 
7 *713:14 *713:27 5.63166 
8 *713:27 *1135:A2 35.4697 
9 *713:27 *713:42 38.7914 
10 *713:42 *713:50 40.5098 
11 *713:50 *1134:B 17.2 
12 *713:42 *713:59 22.0134 
13 *713:59 *713:65 35.5824 
14 *713:65 *713:73 43.0989 
15 *713:73 *1127:A2 17.2 
16 *713:73 *713:86 42.0293 
17 *713:86 *713:94 49.5168 
18 *713:94 *1126:B 17.2 
19 *713:94 *713:103 25.2224 
20 *713:103 *713:105 32.1005 
21 *713:105 *1122:B 35.4697 
22 *713:105 *713:124 48.7872 
23 *713:124 *1123:A2 34.4 
24 *713:124 *713:133 15.2055 
25 *713:133 *713:139 46.701 
26 *713:139 *1118:B 48.8723 
27 *713:133 *713:156 37.389 
28 *713:156 *713:158 17.2 
29 *713:158 *713:160 34.3531 
30 *713:160 *713:164 18.2696 
31 *713:164 *1115:A2 17.2 
32 *713:164 *713:171 13.9054 
33 *713:171 *713:175 25.0843 
34 *713:175 *713:181 49.9099 
35 *713:181 *1111:A2 48.982 
36 *713:175 *1110:B 38.2855 
37 *713:171 *1114:B 18.8045 
38 *713:156 *1119:A2 19.8741 
39 *713:59 *713:221 38.6003 
40 *713:221 *1130:B 17.2 
*END

*D_NET *714 0.000583341
*CONN
*I *1138:B I *D NAND2x1_ASAP7_75t_SL
*I *1139:A2 I *D OA21x2_ASAP7_75t_SL
*I *1418:B I *D AND3x1_ASAP7_75t_SL
*I *1428:B I *D OAI21x1_ASAP7_75t_SL
*I *1682:Y O *D BUFx3_ASAP7_75t_SL
*CAP
1 *1138:B 0
2 *1139:A2 4.42108e-06
3 *1418:B 0
4 *1428:B 9.23324e-06
5 *1682:Y 0
6 *714:69 6.60118e-06
7 *714:61 4.41006e-05
8 *714:46 4.68409e-05
9 *714:42 9.95484e-05
10 *714:35 1.18386e-05
11 *714:25 0.000116451
12 *714:10 6.18359e-05
13 *714:4 6.25876e-05
14 *714:10 *820:51 0
15 *714:35 *1510:CLK 5.82745e-07
16 *714:35 *818:40 0
17 *714:42 *1510:CLK 3.52155e-06
18 *714:42 *871:32 5.26656e-05
19 *714:61 *874:12 6.33206e-07
20 *714:61 *874:22 0
21 *1138:A *714:61 7.30263e-06
22 *21:10 *714:61 2.98814e-08
23 *73:34 *714:10 5.11764e-06
24 *75:12 *714:35 2.90209e-08
25 *142:8 *714:10 9.6421e-06
26 *236:29 *714:10 8.67685e-06
27 *236:42 *714:10 6.1473e-07
28 *236:48 *714:10 6.07405e-06
29 *259:10 *714:61 1.94557e-07
30 *492:32 *714:10 0
31 *503:53 *714:10 0
32 *507:22 *1428:B 2.20493e-06
33 *675:14 *1139:A2 2.03526e-06
34 *675:14 *714:46 1.26923e-05
35 *675:14 *714:61 7.86436e-06
*RES
1 *1682:Y *714:4 17.2 
2 *714:4 *714:10 49.8316 
3 *714:10 *1428:B 39.2134 
4 *714:4 *714:25 43.4107 
5 *714:25 *714:35 41.5795 
6 *714:35 *1418:B 17.2 
7 *714:25 *714:42 40.1119 
8 *714:42 *714:46 21.7053 
9 *714:46 *1139:A2 36.5393 
10 *714:46 *714:61 36.3156 
11 *714:61 *714:69 38.2855 
12 *714:69 *1138:B 17.2 
*END

*D_NET *715 0.000156291
*CONN
*I *1362:B I *D OA21x2_ASAP7_75t_SL
*I *1686:A I *D BUFx6f_ASAP7_75t_SL
*I *1683:Y O *D BUFx3_ASAP7_75t_SL
*CAP
1 *1362:B 1.96753e-05
2 *1686:A 4.76001e-05
3 *1683:Y 0
4 *715:4 6.72753e-05
5 *1686:A *718:8 2.6409e-06
6 *1362:A2 *1362:B 2.20493e-06
7 *1373:A3 *1362:B 1.36155e-06
8 *200:47 *1686:A 5.09299e-06
9 *391:12 *1686:A 1.04405e-05
*RES
1 *1683:Y *715:4 17.2 
2 *715:4 *1686:A 48.2198 
3 *715:4 *1362:B 28.9662 
*END

*D_NET *716 0.000201707
*CONN
*I *1870:A I *D BUFx3_ASAP7_75t_SL
*I *1104:A1 I *D AO31x2_ASAP7_75t_SL
*I *1684:Y O *D BUFx3_ASAP7_75t_SL
*CAP
1 *1870:A 0
2 *1104:A1 0
3 *1684:Y 1.70439e-05
4 *716:23 2.33131e-05
5 *716:10 5.093e-05
6 *716:6 4.46609e-05
7 *716:6 *1719:A 1.07377e-06
8 *716:6 *741:8 6.6195e-06
9 *716:6 *741:16 3.44014e-05
10 *716:10 *728:18 0
11 *716:10 *741:16 1.94229e-07
12 *716:10 *751:8 0
13 *716:10 *751:21 0
14 *716:23 *728:18 0
15 *716:23 *751:21 0
16 *716:23 *895:6 1.24757e-05
17 *84:16 *716:6 1.56713e-06
18 *219:24 *716:6 9.42744e-06
19 *591:8 *716:10 0
20 *647:16 *716:23 0
*RES
1 *1684:Y *716:6 33.7796 
2 *716:6 *716:10 33.5318 
3 *716:10 *1104:A1 34.4 
4 *716:10 *716:23 34.1763 
5 *716:23 *1870:A 17.2 
*END

*D_NET *717 0.00144615
*CONN
*I *1082:B I *D NAND2x1_ASAP7_75t_SL
*I *1190:B I *D NOR2x1_ASAP7_75t_SL
*I *1328:B I *D OAI21x1_ASAP7_75t_SL
*I *1685:Y O *D BUFx3_ASAP7_75t_SL
*CAP
1 *1082:B 6.48308e-06
2 *1190:B 7.37595e-06
3 *1328:B 0
4 *1685:Y 5.47572e-06
5 *717:62 2.60998e-05
6 *717:47 2.36825e-05
7 *717:39 5.29373e-05
8 *717:30 7.29627e-05
9 *717:28 7.69019e-05
10 *717:22 3.38641e-05
11 *717:20 2.99249e-05
12 *717:18 5.8789e-05
13 *717:12 6.72516e-05
14 *717:8 3.09523e-05
15 *1190:B *770:42 1.2768e-05
16 *717:18 *769:18 0.000150927
17 *717:18 *770:27 3.30265e-05
18 *717:22 *769:32 8.44308e-05
19 *717:22 *769:42 1.89591e-05
20 *717:22 *878:20 2.75712e-05
21 *717:30 *820:181 1.04475e-06
22 *717:30 *820:185 5.51397e-07
23 *717:39 *770:42 0
24 *717:62 *1082:A 2.90209e-08
25 *717:62 *1188:A 2.19685e-06
26 *1329:B *717:30 3.29001e-05
27 *1363:A1 *717:30 2.66797e-07
28 *1374:C *717:30 3.05302e-06
29 *1397:A1 *717:30 5.58379e-05
30 *1397:C *717:30 3.90258e-06
31 *1:45 *717:39 8.3668e-07
32 *1:51 *717:18 2.11721e-05
33 *1:57 *717:18 0
34 *186:76 *717:39 4.83558e-05
35 *186:76 *717:47 1.09067e-06
36 *189:75 *717:39 5.533e-05
37 *210:8 *717:12 1.74049e-06
38 *210:12 *717:8 9.30483e-06
39 *210:18 *717:12 6.41585e-07
40 *210:18 *717:39 4.51473e-06
41 *266:22 *717:30 0.000177609
42 *266:37 *717:18 3.05118e-08
43 *292:20 *717:30 1.2768e-05
44 *292:43 *717:30 9.81862e-05
45 *298:24 *1082:B 2.88806e-06
46 *298:28 *717:62 3.47607e-06
47 *304:8 *717:47 7.84037e-07
48 *403:14 *717:30 4.17777e-05
49 *403:16 *717:30 1.90474e-05
50 *430:10 *717:28 0
51 *442:10 *717:28 4.35576e-08
52 *462:8 *717:30 8.65792e-06
53 *482:8 *717:22 1.46293e-05
54 *663:83 *717:47 1.09067e-06
55 *692:109 *717:18 0
56 *693:66 *717:18 2.00515e-06
*RES
1 *1685:Y *717:8 37.0741 
2 *717:8 *717:12 21.236 
3 *717:12 *717:18 48.6354 
4 *717:18 *717:20 17.2 
5 *717:20 *717:22 40.1119 
6 *717:22 *717:28 36.0895 
7 *717:28 *717:30 90.3854 
8 *717:30 *1328:B 17.2 
9 *717:8 *717:39 41.9793 
10 *717:39 *717:47 44.2252 
11 *717:47 *1190:B 23.0831 
12 *717:39 *717:62 46.3079 
13 *717:62 *1082:B 21.4786 
*END

*D_NET *718 0.000203842
*CONN
*I *1311:B2 I *D AO221x1_ASAP7_75t_SL
*I *1321:B2 I *D AO221x1_ASAP7_75t_SL
*I *1295:A1 I *D AO21x1_ASAP7_75t_SL
*I *1686:Y O *D BUFx6f_ASAP7_75t_SL
*CAP
1 *1311:B2 0
2 *1321:B2 0
3 *1295:A1 0
4 *1686:Y 8.03757e-06
5 *718:33 2.80853e-05
6 *718:20 5.02405e-05
7 *718:14 4.11393e-05
8 *718:8 2.70217e-05
9 *1311:B1 *718:20 1.36155e-06
10 *1686:A *718:8 2.6409e-06
11 *335:12 *718:20 3.65131e-06
12 *335:18 *718:20 4.10928e-06
13 *385:8 *718:20 5.37866e-07
14 *385:8 *718:33 1.19526e-06
15 *391:20 *718:14 1.49407e-08
16 *391:31 *718:20 8.8135e-06
17 *391:31 *718:33 4.11175e-06
18 *406:10 *718:14 5.83373e-06
19 *406:25 *718:14 1.15945e-06
20 *406:25 *718:20 0
21 *415:8 *718:14 0
22 *415:37 *718:33 7.35354e-06
23 *693:44 *718:14 8.53501e-06
*RES
1 *1686:Y *718:8 38.1438 
2 *718:8 *718:14 31.1941 
3 *718:14 *718:20 34.1197 
4 *718:20 *1295:A1 34.4 
5 *718:20 *718:33 34.7679 
6 *718:33 *1321:B2 17.2 
7 *718:14 *1311:B2 17.2 
*END

*D_NET *719 0.000264257
*CONN
*I *1384:A1 I *D AO32x1_ASAP7_75t_SL
*I *1391:A1 I *D AO32x1_ASAP7_75t_SL
*I *1369:A2 I *D AO32x1_ASAP7_75t_SL
*I *1687:Y O *D BUFx3_ASAP7_75t_SL
*CAP
1 *1384:A1 0
2 *1391:A1 1.04797e-05
3 *1369:A2 0
4 *1687:Y 1.0347e-05
5 *719:16 1.85574e-05
6 *719:10 3.85297e-05
7 *719:6 1.98395e-05
8 *1391:A1 *863:10 1.56249e-06
9 *719:6 *769:60 4.95463e-05
10 *719:6 *878:46 4.17901e-06
11 *719:10 *769:60 7.79295e-06
12 *719:16 *1369:A1 5.62196e-06
13 *719:16 *769:66 4.74248e-06
14 *719:16 *769:72 2.74606e-06
15 *719:16 *769:89 2.95616e-05
16 *719:16 *863:10 2.19685e-06
17 *1384:B1 *719:6 2.20493e-06
18 *1384:B2 *719:6 7.35354e-06
19 *1395:C *1391:A1 1.36155e-06
20 *200:16 *719:6 5.01287e-06
21 *456:14 *719:16 1.49407e-08
22 *468:10 *719:16 4.74248e-06
23 *468:29 *1391:A1 1.62383e-05
24 *468:29 *719:16 1.15587e-05
25 *471:8 *1391:A1 9.28241e-06
26 *471:8 *719:16 7.84037e-07
*RES
1 *1687:Y *719:6 32.1751 
2 *719:6 *719:10 21.4786 
3 *719:10 *719:16 36.2626 
4 *719:16 *1369:A2 17.2 
5 *719:10 *1391:A1 44.4803 
6 *719:6 *1384:A1 17.2 
*END

*D_NET *720 0.000172119
*CONN
*I *1083:A I *D NAND2x1_ASAP7_75t_SL
*I *1178:A2 I *D AOI21x1_ASAP7_75t_SL
*I *1055:A2 I *D AOI21x1_ASAP7_75t_SL
*I *1688:Y O *D BUFx3_ASAP7_75t_SL
*CAP
1 *1083:A 7.01281e-06
2 *1178:A2 0
3 *1055:A2 0
4 *1688:Y 0
5 *720:21 2.92341e-05
6 *720:10 3.60946e-05
7 *720:4 1.38733e-05
8 *1083:A *1083:B 2.03526e-06
9 *720:10 *769:126 9.67723e-06
10 *720:10 *809:35 6.33206e-07
11 *720:21 *769:126 2.12481e-06
12 *720:21 *809:25 2.29147e-05
13 *720:21 *809:35 3.73144e-06
14 *1:27 *720:21 2.64738e-05
15 *176:10 *720:10 0
16 *191:8 *720:21 4.56834e-06
17 *294:52 *720:21 1.09022e-05
18 *298:18 *720:10 2.84286e-06
*RES
1 *1688:Y *720:4 17.2 
2 *720:4 *720:10 40.0317 
3 *720:10 *1055:A2 17.2 
4 *720:10 *720:21 42.7902 
5 *720:21 *1178:A2 34.4 
6 *720:4 *1083:A 19.8741 
*END

*D_NET *721 0.000112527
*CONN
*I *1425:B I *D AND3x1_ASAP7_75t_SL
*I *1413:A I *D NOR2x1_ASAP7_75t_SL
*I *1689:Y O *D BUFx3_ASAP7_75t_SL
*CAP
1 *1425:B 8.96503e-06
2 *1413:A 0
3 *1689:Y 1.9655e-05
4 *721:10 2.862e-05
5 *1425:B *1425:C 1.84022e-05
6 *1144:A1 *721:10 5.51397e-07
7 *1428:A1 *721:10 2.22736e-06
8 *73:24 *1425:B 8.45637e-06
9 *73:24 *721:10 1.34329e-05
10 *492:26 *721:10 3.3921e-06
11 *505:8 *1425:B 6.53466e-06
12 *506:8 *1425:B 2.28976e-06
*RES
1 *1689:Y *721:10 44.7884 
2 *721:10 *1413:A 34.4 
3 *721:10 *1425:B 44.1686 
*END

*D_NET *722 0.000988602
*CONN
*I *973:B I *D NOR2x1_ASAP7_75t_SL
*I *972:C I *D OA211x2_ASAP7_75t_SL
*I *1014:B I *D AND5x1_ASAP7_75t_SL
*I *1690:Y O *D BUFx3_ASAP7_75t_SL
*CAP
1 *973:B 1.09709e-05
2 *972:C 0
3 *1014:B 8.28688e-07
4 *1690:Y 0
5 *722:74 2.2734e-05
6 *722:61 3.23175e-06
7 *722:53 4.43895e-05
8 *722:42 1.56845e-05
9 *722:34 6.45213e-05
10 *722:28 5.85806e-05
11 *722:22 5.52827e-05
12 *722:20 4.63676e-05
13 *722:18 3.36111e-05
14 *722:16 4.2933e-05
15 *722:12 3.27676e-05
16 *722:4 5.28403e-05
17 *973:B *776:16 1.06092e-05
18 *973:B *776:22 1.9914e-05
19 *1014:B *1014:C 7.14604e-06
20 *722:18 *962:A 7.84037e-07
21 *722:18 *1434:A 9.78663e-06
22 *722:18 *815:88 0
23 *722:18 *818:8 3.84245e-05
24 *722:18 *818:10 3.22363e-05
25 *722:18 *818:187 5.20199e-05
26 *722:18 *853:42 5.37866e-07
27 *722:22 *871:16 9.30483e-06
28 *722:28 *852:8 0
29 *722:34 *1420:A 3.48165e-06
30 *722:34 *727:38 1.26378e-06
31 *722:34 *727:51 1.76928e-06
32 *722:34 *728:107 0
33 *722:34 *728:118 0
34 *722:53 *972:A1 1.44167e-06
35 *722:61 *776:22 8.46363e-06
36 *722:61 *776:39 1.36155e-06
37 *722:61 *820:327 3.47607e-06
38 *722:74 *776:39 5.0551e-07
39 *722:74 *820:327 1.97537e-05
40 *1014:A *1014:B 6.92634e-06
41 *1091:A *722:22 7.70441e-05
42 *10:10 *722:12 8.36938e-06
43 *10:16 *722:12 3.16603e-06
44 *10:16 *722:18 3.83184e-05
45 *10:25 *722:16 2.03526e-06
46 *29:28 *722:18 0
47 *29:32 *722:22 5.31118e-05
48 *216:10 *722:74 1.96231e-05
49 *262:52 *722:42 1.9257e-06
50 *493:35 *722:42 0
51 *493:52 *722:28 0
52 *499:51 *722:22 3.56648e-06
53 *499:53 *722:28 0
54 *499:76 *722:22 1.86619e-05
55 *499:88 *722:22 3.67396e-05
56 *501:53 *722:28 0
57 *514:40 *722:18 0
58 *524:90 *722:42 0
59 *524:94 *722:34 3.42518e-07
60 *524:94 *722:42 0
61 *592:28 *722:12 4.13457e-06
62 *592:28 *722:53 5.89052e-06
63 *593:25 *722:53 1.28879e-06
64 *627:10 *722:34 4.33555e-07
65 *663:25 *722:42 0
*RES
1 *1690:Y *722:4 17.2 
2 *722:4 *722:12 48.2241 
3 *722:12 *722:16 20.9438 
4 *722:16 *722:18 40.548 
5 *722:18 *722:20 17.2 
6 *722:20 *722:22 61.5049 
7 *722:22 *722:28 40.0317 
8 *722:28 *722:34 39.4661 
9 *722:34 *722:42 39.5735 
10 *722:42 *1014:B 36.5393 
11 *722:4 *722:53 12.301 
12 *722:53 *722:61 38.2855 
13 *722:61 *972:C 17.2 
14 *722:53 *722:74 44.9018 
15 *722:74 *973:B 26.292 
*END

*D_NET *723 0.00094675
*CONN
*I *1147:C I *D OR4x2_ASAP7_75t_SL
*I *1855:A I *D BUFx3_ASAP7_75t_SL
*I *1280:C I *D OR3x1_ASAP7_75t_SL
*I *1691:Y O *D BUFx3_ASAP7_75t_SL
*CAP
1 *1147:C 1.17102e-05
2 *1855:A 0
3 *1280:C 4.95637e-06
4 *1691:Y 0
5 *723:72 3.09668e-05
6 *723:50 4.11596e-05
7 *723:44 0.000106223
8 *723:42 0.000101334
9 *723:38 3.84877e-05
10 *723:30 2.28481e-05
11 *723:28 2.57131e-05
12 *723:22 5.23294e-05
13 *723:18 5.76958e-05
14 *723:10 4.86299e-05
15 *723:4 5.24823e-05
16 *1280:C *800:48 2.0895e-06
17 *723:10 *1176:B 5.19552e-07
18 *723:10 *733:56 2.20128e-06
19 *723:18 *1176:B 3.15324e-05
20 *723:22 *1176:B 1.0391e-06
21 *723:22 *1176:C 2.79435e-06
22 *723:22 *731:6 0
23 *723:30 *1399:A2 1.22165e-05
24 *723:38 *1399:A2 3.61852e-06
25 *723:44 *1768:A 0
26 *723:44 *732:8 0
27 *723:44 *800:18 1.1344e-05
28 *723:44 *800:26 7.47402e-07
29 *723:44 *856:27 0
30 *723:72 *863:117 1.49407e-06
31 *1306:B *723:42 9.40277e-06
32 *1661:A *723:18 2.27522e-06
33 *1661:A *723:22 5.85387e-06
34 *1699:A *723:10 8.65792e-06
35 *41:12 *723:44 0
36 *266:10 *1147:C 2.20493e-06
37 *268:60 *723:18 8.46363e-06
38 *268:64 *723:18 4.83862e-06
39 *282:22 *723:72 1.12894e-06
40 *282:28 *723:72 2.71199e-05
41 *284:20 *723:10 3.50589e-05
42 *284:35 *723:10 5.37866e-07
43 *284:46 *723:10 3.68287e-06
44 *285:14 *723:50 8.30941e-05
45 *287:49 *723:44 2.98316e-06
46 *346:32 *723:50 2.73372e-06
47 *346:49 *723:50 4.17024e-06
48 *378:8 *1280:C 3.49596e-06
49 *399:12 *723:44 1.13003e-05
50 *401:10 *723:44 0
51 *417:8 *723:44 8.59701e-06
52 *436:10 *723:10 2.74606e-06
53 *436:10 *723:18 0
54 *442:10 *723:28 3.03456e-05
55 *452:10 *1280:C 1.31618e-06
56 *462:10 *723:38 6.75467e-06
57 *692:10 *723:38 2.83874e-07
58 *692:18 *723:44 1.07428e-05
59 *692:97 *1147:C 2.6409e-06
60 *692:103 *723:72 1.40354e-06
61 *693:8 *723:10 7.84037e-07
*RES
1 *1691:Y *723:4 17.2 
2 *723:4 *723:10 37.7217 
3 *723:10 *723:18 47.4342 
4 *723:18 *723:22 35.9189 
5 *723:22 *723:28 44.537 
6 *723:28 *723:30 10.1617 
7 *723:30 *723:38 41.073 
8 *723:38 *723:42 31.6403 
9 *723:42 *723:44 50.4034 
10 *723:44 *723:50 49.1178 
11 *723:50 *1280:C 38.5104 
12 *723:30 *1855:A 17.2 
13 *723:4 *723:72 49.6055 
14 *723:72 *1147:C 24.6875 
*END

*D_NET *724 0.000416281
*CONN
*I *984:B I *D AOI21x1_ASAP7_75t_SL
*I *977:C I *D OR3x1_ASAP7_75t_SL
*I *1000:B I *D AO21x1_ASAP7_75t_SL
*I *1692:Y O *D BUFx3_ASAP7_75t_SL
*CAP
1 *984:B 3.34575e-06
2 *977:C 3.89741e-05
3 *1000:B 0
4 *1692:Y 9.8702e-06
5 *724:27 5.42373e-05
6 *724:23 3.5018e-05
7 *724:14 2.0499e-05
8 *724:12 3.50081e-05
9 *724:8 4.07883e-05
10 *977:C *824:14 1.4007e-05
11 *977:C *889:76 7.14604e-06
12 *984:B *835:12 0
13 *724:8 *1847:A 3.05302e-06
14 *724:8 *872:8 4.73041e-06
15 *724:12 *741:40 1.66587e-05
16 *724:12 *746:79 8.06436e-06
17 *724:12 *746:87 1.65796e-05
18 *724:12 *844:77 1.33022e-05
19 *724:12 *844:85 1.09067e-06
20 *724:27 *835:12 0
21 *977:B *977:C 1.18416e-05
22 *84:10 *724:12 2.21276e-05
23 *84:35 *724:12 1.10561e-06
24 *334:10 *984:B 0
25 *334:10 *724:27 0
26 *596:10 *724:27 1.49407e-08
27 *603:12 *724:14 5.19552e-07
28 *603:12 *724:23 3.0471e-06
29 *604:18 *977:C 5.19552e-07
30 *618:6 *724:23 4.17916e-05
31 *618:12 *984:B 0
32 *654:45 *724:12 1.15587e-05
33 *655:22 *724:12 0
34 *655:37 *984:B 1.38201e-06
*RES
1 *1692:Y *724:8 41.3527 
2 *724:8 *724:12 49.3005 
3 *724:12 *724:14 2.1393 
4 *724:14 *1000:B 17.2 
5 *724:14 *724:23 32.1751 
6 *724:23 *724:27 26.2107 
7 *724:27 *977:C 45.0109 
8 *724:23 *984:B 37.2158 
*END

*D_NET *725 4.31706e-05
*CONN
*I *1006:A I *D NOR2x1p5_ASAP7_75t_SL
*I *1693:Y O *D BUFx3_ASAP7_75t_SL
*CAP
1 *1006:A 2.15853e-05
2 *1693:Y 2.15853e-05
3 *514:81 *1006:A 0
*RES
1 *1693:Y *1006:A 44.5617 
*END

*D_NET *726 0.000277466
*CONN
*I *1016:A1 I *D OA21x2_ASAP7_75t_SL
*I *969:A1 I *D OA31x2_ASAP7_75t_SL
*I *1436:A I *D OR3x2_ASAP7_75t_SL
*I *1694:Y O *D BUFx3_ASAP7_75t_SL
*CAP
1 *1016:A1 1.2884e-05
2 *969:A1 0
3 *1436:A 0
4 *1694:Y 0
5 *726:23 2.85236e-06
6 *726:12 2.89656e-05
7 *726:8 4.51368e-05
8 *726:4 3.19075e-05
9 *1016:A1 *754:13 1.44167e-06
10 *726:12 *750:52 8.63494e-05
11 *726:23 *969:A2 5.67735e-06
12 *726:23 *728:10 1.34329e-05
13 *230:26 *1016:A1 0
14 *489:8 *726:12 8.18314e-06
15 *489:10 *726:12 2.28839e-06
16 *489:16 *726:12 3.05118e-08
17 *493:23 *1016:A1 1.10486e-05
18 *493:23 *726:8 2.72676e-05
*RES
1 *1694:Y *726:4 17.2 
2 *726:4 *726:8 25.2224 
3 *726:8 *726:12 46.4846 
4 *726:12 *1436:A 17.2 
5 *726:4 *726:23 38.9053 
6 *726:23 *969:A1 17.2 
7 *726:4 *1016:A1 23.0831 
*END

*D_NET *727 0.000647645
*CONN
*I *1409:C I *D AND3x4_ASAP7_75t_SL
*I *1427:D I *D AND4x1_ASAP7_75t_SL
*I *1420:B I *D AND2x4_ASAP7_75t_SL
*I *1014:D I *D AND5x1_ASAP7_75t_SL
*I *923:C I *D AND3x1_ASAP7_75t_SL
*I *1695:Y O *D BUFx6f_ASAP7_75t_SL
*CAP
1 *1409:C 0
2 *1427:D 0
3 *1420:B 0
4 *1014:D 0
5 *923:C 3.03611e-06
6 *1695:Y 5.33287e-06
7 *727:69 1.99038e-05
8 *727:61 2.4157e-05
9 *727:57 4.94715e-05
10 *727:51 5.77414e-05
11 *727:38 2.5581e-05
12 *727:31 2.65521e-05
13 *727:29 2.38981e-05
14 *727:23 5.13853e-05
15 *727:21 5.70284e-05
16 *727:8 2.4416e-05
17 *727:23 *728:6 1.79974e-05
18 *727:23 *728:97 9.50284e-06
19 *727:23 *876:6 1.67301e-05
20 *727:23 *890:12 3.22132e-06
21 *727:29 *823:10 3.00603e-06
22 *727:29 *823:18 6.33206e-07
23 *727:31 *1014:C 2.06417e-06
24 *727:38 *1420:A 3.48165e-06
25 *727:57 *728:103 0
26 *727:57 *728:118 0
27 *1014:A *727:31 7.63254e-06
28 *1014:A *727:38 6.0212e-06
29 *1409:B *727:61 1.7743e-05
30 *1851:A *727:23 2.40241e-05
31 *3:12 *727:57 2.68933e-07
32 *73:34 *727:69 6.33206e-07
33 *73:49 *727:57 0
34 *73:49 *727:69 1.01098e-05
35 *76:8 *727:57 7.40033e-06
36 *76:22 *727:23 3.15757e-05
37 *76:22 *727:29 8.03441e-06
38 *225:39 *727:29 0
39 *262:46 *727:31 5.06448e-05
40 *262:46 *727:38 8.87763e-06
41 *489:16 *923:C 7.35354e-06
42 *499:22 *727:61 9.67251e-06
43 *501:8 *727:51 3.99766e-06
44 *501:53 *727:51 4.35576e-08
45 *505:27 *727:69 0
46 *507:8 *727:69 2.0895e-06
47 *524:12 *727:21 0
48 *524:65 *727:8 0
49 *524:65 *727:21 0
50 *524:88 *727:21 8.33296e-06
51 *524:88 *727:23 2.03526e-06
52 *524:94 *727:51 0
53 *552:10 *727:8 2.22736e-06
54 *552:10 *727:21 6.10236e-08
55 *702:12 *727:61 5.85387e-06
56 *702:20 *727:57 4.83862e-06
57 *702:20 *727:69 0
58 *722:34 *727:38 1.26378e-06
59 *722:34 *727:51 1.76928e-06
*RES
1 *1695:Y *727:8 38.9053 
2 *727:8 *923:C 36.5393 
3 *727:8 *727:21 27.337 
4 *727:21 *727:23 39.0422 
5 *727:23 *727:29 42.2843 
6 *727:29 *727:31 14.9751 
7 *727:31 *1014:D 17.2 
8 *727:31 *727:38 10.1617 
9 *727:38 *1420:B 17.2 
10 *727:38 *727:51 43.1839 
11 *727:51 *727:57 40.821 
12 *727:57 *727:61 24.1527 
13 *727:61 *727:69 48.7589 
14 *727:69 *1427:D 17.2 
15 *727:61 *1409:C 17.2 
*END

*D_NET *728 0.0024098
*CONN
*I *1409:A I *D AND3x4_ASAP7_75t_SL
*I *1858:A I *D BUFx6f_ASAP7_75t_SL
*I *1857:A I *D BUFx3_ASAP7_75t_SL
*I *908:C I *D AND5x1_ASAP7_75t_SL
*I *906:B I *D AND2x2_ASAP7_75t_SL
*I *993:B I *D OA211x2_ASAP7_75t_SL
*I *970:B I *D OA21x2_ASAP7_75t_SL
*I *1696:Y O *D BUFx6f_ASAP7_75t_SL
*CAP
1 *1409:A 7.46612e-06
2 *1858:A 0
3 *1857:A 0
4 *908:C 0
5 *906:B 2.03732e-05
6 *993:B 0
7 *970:B 0
8 *1696:Y 2.78894e-05
9 *728:118 4.14753e-05
10 *728:107 4.95658e-05
11 *728:103 3.42997e-05
12 *728:99 4.81447e-05
13 *728:97 5.13068e-05
14 *728:79 2.68774e-05
15 *728:64 5.56762e-05
16 *728:60 0.000125672
17 *728:58 0.000132683
18 *728:52 7.18631e-05
19 *728:50 6.4334e-05
20 *728:39 4.29696e-05
21 *728:37 7.1405e-05
22 *728:28 2.84354e-05
23 *728:26 2.86671e-05
24 *728:18 5.22677e-05
25 *728:14 3.55625e-05
26 *728:10 7.16689e-05
27 *728:8 5.17991e-05
28 *728:6 4.97946e-05
29 *906:B *902:A 2.52755e-07
30 *906:B *837:40 5.00816e-06
31 *906:B *839:97 3.81627e-06
32 *728:10 *969:A2 2.74606e-06
33 *728:10 *741:18 1.23278e-05
34 *728:10 *750:52 0
35 *728:10 *750:69 2.31066e-05
36 *728:26 *823:60 0
37 *728:39 *963:B 1.46419e-06
38 *728:39 *823:60 0
39 *728:39 *889:76 3.05118e-08
40 *728:50 *741:18 4.21307e-06
41 *728:50 *741:27 2.98532e-06
42 *728:52 *751:21 1.1199e-05
43 *728:58 *882:31 2.71921e-06
44 *728:60 *823:46 0.000145235
45 *728:79 *839:87 2.19685e-06
46 *728:79 *839:97 9.46189e-06
47 *728:79 *850:70 0
48 *728:79 *850:85 1.19455e-05
49 *728:97 *755:8 5.49212e-07
50 *728:97 *890:16 2.98814e-07
51 *728:99 *1670:A 8.39579e-06
52 *728:99 *750:6 5.92783e-05
53 *970:A1 *728:26 7.13296e-06
54 *970:A2 *728:26 5.0551e-07
55 *1409:B *1409:A 3.65131e-06
56 *1527:D *728:60 2.03608e-06
57 *1703:A *728:10 1.15945e-06
58 *3:12 *728:103 5.85806e-06
59 *15:8 *728:60 6.33292e-06
60 *73:49 *728:118 3.65821e-05
61 *74:12 *1409:A 5.22376e-07
62 *74:12 *728:99 6.87795e-06
63 *76:28 *728:10 4.13665e-05
64 *84:10 *728:10 0
65 *217:12 *728:37 2.12481e-06
66 *217:38 *728:14 7.39976e-05
67 *225:58 *728:10 3.73518e-07
68 *230:18 *728:10 1.65352e-05
69 *262:58 *728:118 2.66207e-05
70 *485:12 *728:99 0.000110131
71 *492:10 *728:118 1.33022e-05
72 *499:22 *1409:A 1.23408e-05
73 *499:22 *728:99 9.78003e-05
74 *499:47 *728:118 3.71852e-06
75 *501:8 *728:103 7.02886e-06
76 *501:10 *728:103 1.21168e-05
77 *501:53 *728:103 7.09787e-07
78 *501:57 *728:39 4.67812e-05
79 *514:97 *728:79 9.14793e-06
80 *516:12 *728:10 5.82342e-06
81 *516:12 *728:50 2.25787e-06
82 *524:94 *728:39 2.18135e-06
83 *529:30 *728:14 7.42173e-05
84 *529:38 *728:52 0.000113867
85 *529:55 *728:58 0
86 *533:51 *728:79 5.41446e-06
87 *538:8 *906:B 5.19552e-07
88 *539:8 *728:79 2.20128e-06
89 *540:12 *728:60 6.78445e-06
90 *540:12 *728:79 3.03297e-06
91 *548:10 *728:79 0
92 *591:8 *728:18 6.28992e-05
93 *604:12 *728:39 0
94 *647:8 *728:10 0
95 *647:8 *728:97 2.27636e-05
96 *647:16 *728:10 0
97 *654:16 *728:26 0
98 *687:8 *728:39 1.6528e-05
99 *702:8 *728:103 8.19503e-06
100 *716:10 *728:18 0
101 *716:23 *728:18 0
102 *722:34 *728:107 0
103 *722:34 *728:118 0
104 *726:23 *728:10 1.34329e-05
105 *727:23 *728:6 1.79974e-05
106 *727:23 *728:97 9.50284e-06
107 *727:57 *728:103 0
108 *727:57 *728:118 0
*RES
1 *1696:Y *728:6 30.5706 
2 *728:6 *728:8 17.2 
3 *728:8 *728:10 47.3059 
4 *728:10 *728:14 39.1278 
5 *728:14 *728:18 38.6003 
6 *728:18 *728:26 48.4472 
7 *728:26 *728:28 17.2 
8 *728:28 *970:B 17.2 
9 *728:28 *728:37 33.7796 
10 *728:37 *728:39 41.6743 
11 *728:39 *993:B 34.4 
12 *728:10 *728:50 23.958 
13 *728:50 *728:52 42.2512 
14 *728:52 *728:58 45.6633 
15 *728:58 *728:60 89.3158 
16 *728:60 *728:64 21.7053 
17 *728:64 *906:B 44.0269 
18 *728:64 *728:79 40.7679 
19 *728:79 *908:C 17.2 
20 *728:52 *1857:A 17.2 
21 *728:6 *728:97 49.237 
22 *728:97 *728:99 48.6691 
23 *728:99 *728:103 33.5318 
24 *728:103 *728:107 24.1527 
25 *728:107 *1858:A 17.2 
26 *728:107 *728:118 43.6935 
27 *728:118 *1409:A 40.2831 
*END

*D_NET *729 0.000122286
*CONN
*I *1309:B I *D OR4x1_ASAP7_75t_SL
*I *1241:C I *D OR3x1_ASAP7_75t_SL
*I *1697:Y O *D BUFx3_ASAP7_75t_SL
*CAP
1 *1309:B 0
2 *1241:C 0
3 *1697:Y 0
4 *729:27 1.73914e-05
5 *729:14 2.05797e-05
6 *729:4 3.79711e-05
7 *729:14 *810:100 1.34467e-07
8 *729:14 *814:19 4.32502e-06
9 *729:27 *814:29 8.55218e-06
10 *729:27 *830:19 0
11 *383:14 *729:14 1.22721e-05
12 *404:10 *729:27 6.33206e-07
13 *404:14 *729:14 0
14 *404:14 *729:27 6.8757e-06
15 *405:8 *729:14 3.95845e-06
16 *405:12 *729:14 3.65131e-06
17 *405:12 *729:27 5.94108e-06
*RES
1 *1697:Y *729:4 17.2 
2 *729:4 *729:14 46.9277 
3 *729:14 *1241:C 17.2 
4 *729:4 *729:27 45.9714 
5 *729:27 *1309:B 17.2 
*END

*D_NET *730 5.48451e-05
*CONN
*I *1377:B I *D NAND2x1_ASAP7_75t_SL
*I *1698:Y O *D BUFx3_ASAP7_75t_SL
*CAP
1 *1377:B 1.4023e-05
2 *1698:Y 4.46382e-06
3 *730:8 1.84869e-05
4 *1377:B *1377:A 1.36155e-06
5 *1377:B *865:79 1.48621e-05
6 *730:8 *795:18 1.09842e-06
7 *730:8 *795:24 5.49212e-07
8 *1378:B *730:8 0
9 *463:21 *730:8 0
*RES
1 *1698:Y *730:8 37.2158 
2 *730:8 *1377:B 45.0965 
*END

*D_NET *731 0.000887844
*CONN
*I *1225:B I *D AND5x2_ASAP7_75t_SL
*I *1305:B I *D AND5x1_ASAP7_75t_SL
*I *1398:B I *D AND3x1_ASAP7_75t_SL
*I *1176:C I *D AND3x4_ASAP7_75t_SL
*I *1699:Y O *D BUFx3_ASAP7_75t_SL
*CAP
1 *1225:B 3.15963e-06
2 *1305:B 0
3 *1398:B 4.50987e-06
4 *1176:C 1.22938e-05
5 *1699:Y 0
6 *731:63 3.78819e-05
7 *731:57 5.31256e-05
8 *731:53 2.50073e-05
9 *731:47 3.54674e-05
10 *731:36 2.5735e-05
11 *731:21 3.89046e-05
12 *731:8 2.09535e-05
13 *731:6 8.29242e-05
14 *731:4 0.000111788
15 *1176:C *820:187 4.83862e-06
16 *1225:B *862:22 2.03526e-06
17 *1398:B *1398:A 1.35684e-06
18 *1398:B *820:193 5.51397e-07
19 *731:6 *1176:B 6.05316e-05
20 *731:6 *733:50 5.80418e-06
21 *731:21 *1398:A 3.48708e-06
22 *731:21 *820:187 3.42768e-05
23 *731:36 *1305:A 1.36155e-06
24 *731:47 *1227:C 1.29592e-05
25 *731:47 *733:50 1.56713e-06
26 *731:57 *825:33 0
27 *731:57 *885:29 7.89181e-07
28 *731:63 *733:33 4.26751e-07
29 *731:63 *733:35 1.98244e-06
30 *33:6 *731:63 0
31 *186:35 *731:57 3.64442e-05
32 *186:46 *731:47 2.54196e-07
33 *186:46 *731:57 2.7612e-05
34 *264:18 *731:57 5.37866e-07
35 *264:24 *731:63 1.24757e-05
36 *264:70 *731:47 2.3365e-05
37 *268:10 *731:63 1.28723e-05
38 *282:22 *731:47 3.74953e-05
39 *284:16 *731:47 5.79724e-07
40 *284:16 *731:57 0
41 *292:8 *1176:C 2.66797e-07
42 *330:8 *731:57 8.33112e-06
43 *401:6 *731:36 5.0551e-07
44 *442:10 *731:21 8.06799e-07
45 *442:10 *731:36 1.49407e-08
46 *442:16 *1398:B 1.73158e-06
47 *442:18 *731:36 2.21012e-05
48 *692:10 *1176:C 5.23062e-06
49 *692:10 *731:21 4.32559e-05
50 *692:10 *731:36 6.74503e-05
51 *723:22 *1176:C 2.79435e-06
52 *723:22 *731:6 0
*RES
1 *1699:Y *731:4 17.2 
2 *731:4 *731:6 42.2512 
3 *731:6 *731:8 17.2 
4 *731:8 *1176:C 48.3905 
5 *731:8 *731:21 15.2055 
6 *731:21 *1398:B 37.0741 
7 *731:21 *731:36 43.5271 
8 *731:36 *1305:B 17.2 
9 *731:4 *731:47 40.0896 
10 *731:47 *731:53 36.1315 
11 *731:53 *731:57 38.3187 
12 *731:57 *731:63 35.076 
13 *731:63 *1225:B 36.0045 
*END

*D_NET *732 5.27915e-05
*CONN
*I *1304:A1 I *D AO31x2_ASAP7_75t_SL
*I *1700:Y O *D BUFx3_ASAP7_75t_SL
*CAP
1 *1304:A1 0
2 *1700:Y 2.32487e-05
3 *732:8 2.32487e-05
4 *732:8 *1768:A 6.2635e-06
5 *401:10 *732:8 3.05118e-08
6 *462:10 *732:8 0
7 *723:44 *732:8 0
*RES
1 *1700:Y *732:8 48.4791 
2 *732:8 *1304:A1 34.4 
*END

*D_NET *733 0.000959789
*CONN
*I *1225:C I *D AND5x2_ASAP7_75t_SL
*I *1176:B I *D AND3x4_ASAP7_75t_SL
*I *1172:D I *D AND5x2_ASAP7_75t_SL
*I *1305:C I *D AND5x1_ASAP7_75t_SL
*I *1701:Y O *D BUFx3_ASAP7_75t_SL
*CAP
1 *1225:C 0
2 *1176:B 1.52575e-05
3 *1172:D 1.97557e-05
4 *1305:C 2.10763e-05
5 *1701:Y 0
6 *733:56 1.80564e-05
7 *733:50 2.54396e-05
8 *733:35 9.39745e-05
9 *733:33 6.86693e-05
10 *733:25 3.83579e-05
11 *733:10 4.23572e-05
12 *733:4 4.25477e-05
13 *1305:C *739:10 1.02506e-06
14 *733:10 *862:22 6.36971e-06
15 *733:25 *862:22 8.82914e-06
16 *733:33 *825:33 3.73518e-07
17 *733:33 *862:22 3.0511e-05
18 *733:35 *825:25 0
19 *733:35 *825:33 2.73415e-06
20 *1172:C *1172:D 1.5804e-05
21 *1305:E *1305:C 1.17077e-05
22 *1699:A *733:50 8.87763e-06
23 *1701:A *733:10 5.51397e-07
24 *186:25 *1305:C 2.50577e-05
25 *186:25 *733:10 3.3921e-06
26 *186:29 *733:10 3.95329e-05
27 *186:29 *733:25 6.81681e-05
28 *186:46 *1172:D 0
29 *186:46 *733:35 0
30 *189:48 *733:35 1.37068e-05
31 *189:52 *1172:D 1.14198e-05
32 *189:52 *733:35 2.00556e-05
33 *264:12 *733:25 5.51804e-05
34 *264:18 *733:25 3.05118e-08
35 *264:70 *733:50 2.57949e-05
36 *268:10 *733:33 3.73518e-07
37 *268:10 *733:35 2.18135e-06
38 *282:8 *733:35 1.12894e-06
39 *282:16 *733:35 2.25787e-06
40 *284:20 *733:50 3.74374e-05
41 *284:35 *733:56 3.47607e-06
42 *284:46 *1172:D 5.52807e-07
43 *284:46 *733:50 3.83162e-05
44 *330:8 *733:25 3.05118e-08
45 *377:23 *733:10 4.03399e-07
46 *401:6 *1305:C 2.2732e-05
47 *430:18 *733:10 1.068e-05
48 *723:10 *1176:B 5.19552e-07
49 *723:10 *733:56 2.20128e-06
50 *723:18 *1176:B 3.15324e-05
51 *723:22 *1176:B 1.0391e-06
52 *731:6 *1176:B 6.05316e-05
53 *731:6 *733:50 5.80418e-06
54 *731:47 *733:50 1.56713e-06
55 *731:63 *733:33 4.26751e-07
56 *731:63 *733:35 1.98244e-06
*RES
1 *1701:Y *733:4 17.2 
2 *733:4 *733:10 34.5128 
3 *733:10 *1305:C 49.3751 
4 *733:4 *733:25 44.1396 
5 *733:25 *733:33 47.4342 
6 *733:33 *733:35 41.6743 
7 *733:35 *1172:D 49.3504 
8 *733:35 *733:50 45.5457 
9 *733:50 *733:56 37.2158 
10 *733:56 *1176:B 34.8492 
11 *733:33 *1225:C 34.4 
*END

*D_NET *734 0.000236077
*CONN
*I *1861:A I *D BUFx3_ASAP7_75t_SL
*I *922:B I *D AND3x1_ASAP7_75t_SL
*I *1108:B I *D NAND2x2_ASAP7_75t_SL
*I *1702:Y O *D BUFx6f_ASAP7_75t_SL
*CAP
1 *1861:A 2.19087e-05
2 *922:B 3.97757e-06
3 *1108:B 1.02606e-05
4 *1702:Y 1.71378e-05
5 *734:19 2.87784e-05
6 *734:8 3.02905e-05
7 *922:B *922:C 1.36155e-06
8 *1108:B *747:16 1.72451e-05
9 *1861:A *747:16 2.53282e-06
10 *734:19 *747:16 2.53282e-06
11 *225:39 *1861:A 6.33206e-07
12 *236:14 *1108:B 1.98214e-05
13 *262:25 *1861:A 1.91561e-05
14 *552:6 *922:B 1.2768e-05
15 *552:6 *734:8 3.09505e-05
16 *654:8 *1108:B 9.29587e-06
17 *654:8 *1861:A 4.26011e-06
18 *654:8 *734:19 3.16603e-06
*RES
1 *1702:Y *734:8 43.492 
2 *734:8 *1108:B 48.4791 
3 *734:8 *734:19 2.81583 
4 *734:19 *922:B 38.1438 
5 *734:19 *1861:A 49.237 
*END

*D_NET *735 0.000100308
*CONN
*I *969:A2 I *D OA31x2_ASAP7_75t_SL
*I *1142:A I *D AND2x2_ASAP7_75t_SL
*I *1703:Y O *D BUFx3_ASAP7_75t_SL
*CAP
1 *969:A2 1.29991e-05
2 *1142:A 9.02004e-06
3 *1703:Y 0
4 *735:6 2.20192e-05
5 *969:A2 *754:19 8.21017e-06
6 *1142:A *1014:C 1.62312e-05
7 *1142:A *754:19 6.33206e-07
8 *1142:B *1142:A 2.96818e-06
9 *230:18 *969:A2 3.16603e-06
10 *230:18 *1142:A 2.20966e-06
11 *493:29 *969:A2 4.03218e-06
12 *647:14 *1142:A 9.30483e-06
13 *647:16 *969:A2 1.09067e-06
14 *726:23 *969:A2 5.67735e-06
15 *728:10 *969:A2 2.74606e-06
*RES
1 *1703:Y *735:6 34.4 
2 *735:6 *1142:A 43.0422 
3 *735:6 *969:A2 47.3528 
*END

*D_NET *736 0.000622793
*CONN
*I *971:A I *D AND3x1_ASAP7_75t_SL
*I *1001:A I *D AND3x1_ASAP7_75t_SL
*I *1093:A I *D NAND2x1_ASAP7_75t_SL
*I *1704:Y O *D BUFx3_ASAP7_75t_SL
*CAP
1 *971:A 1.02301e-05
2 *1001:A 0
3 *1093:A 0
4 *1704:Y 0
5 *736:46 3.82659e-05
6 *736:38 6.02678e-05
7 *736:20 2.4412e-05
8 *736:14 5.66752e-05
9 *736:12 4.6855e-05
10 *736:4 4.68238e-05
11 *736:12 *820:89 5.19475e-06
12 *736:12 *889:8 1.00883e-05
13 *736:38 *820:89 3.31198e-05
14 *736:38 *820:251 2.26368e-05
15 *736:38 *823:86 1.09842e-06
16 *961:C *971:A 3.00838e-05
17 *1846:A *736:14 3.46317e-06
18 *10:27 *971:A 9.18629e-06
19 *10:35 *736:46 5.06565e-06
20 *11:36 *971:A 3.88144e-05
21 *221:10 *736:20 5.52807e-07
22 *501:57 *736:20 0
23 *524:94 *736:20 4.40185e-05
24 *529:22 *736:14 8.89593e-05
25 *529:22 *736:20 1.7743e-05
26 *592:24 *736:12 0
27 *592:24 *736:38 9.81516e-06
28 *592:28 *736:46 3.1923e-06
29 *663:70 *736:46 1.62312e-05
*RES
1 *1704:Y *736:4 17.2 
2 *736:4 *736:12 44.9585 
3 *736:12 *736:14 26.7412 
4 *736:14 *736:20 37.7537 
5 *736:20 *1093:A 34.4 
6 *736:14 *1001:A 17.2 
7 *736:4 *736:38 39.5813 
8 *736:38 *736:46 49.067 
9 *736:46 *971:A 49.9099 
*END

*D_NET *737 3.98643e-05
*CONN
*I *1011:A I *D INVx1_ASAP7_75t_SL
*I *1705:Y O *D BUFx3_ASAP7_75t_SL
*CAP
1 *1011:A 1.06686e-05
2 *1705:Y 6.07251e-06
3 *737:8 1.67411e-05
4 *29:40 *1011:A 3.68565e-06
5 *501:53 *737:8 8.2174e-07
6 *501:57 *737:8 7.84037e-07
7 *524:94 *737:8 1.09067e-06
*RES
1 *1705:Y *737:8 38.9053 
2 *737:8 *1011:A 39.2134 
*END

*D_NET *738 0.000404083
*CONN
*I *1289:D I *D OR4x1_ASAP7_75t_SL
*I *1323:A I *D AND2x2_ASAP7_75t_SL
*I *1706:Y O *D BUFx3_ASAP7_75t_SL
*CAP
1 *1289:D 0
2 *1323:A 0
3 *1706:Y 5.45612e-05
4 *738:22 3.79448e-05
5 *738:18 5.79185e-05
6 *738:12 2.88654e-05
7 *738:6 6.34528e-05
8 *738:12 *739:70 2.85937e-06
9 *738:18 *756:10 1.0224e-05
10 *1050:A *738:6 2.52755e-07
11 *1050:B *738:6 3.48165e-06
12 *1169:A *738:6 3.1923e-06
13 *1706:A *738:6 6.78445e-06
14 *186:10 *738:6 1.72815e-05
15 *387:10 *738:18 3.91501e-06
16 *398:46 *738:22 5.22376e-07
17 *442:18 *738:18 1.10425e-05
18 *478:10 *738:12 1.4472e-05
19 *689:64 *738:12 2.70419e-05
20 *692:10 *738:18 4.83862e-06
21 *692:14 *738:22 5.54317e-05
*RES
1 *1706:Y *738:6 41.2671 
2 *738:6 *738:12 46.7897 
3 *738:12 *738:18 33.2201 
4 *738:18 *738:22 42.8716 
5 *738:22 *1323:A 17.2 
6 *738:12 *1289:D 17.2 
*END

*D_NET *739 0.000668239
*CONN
*I *1289:C I *D OR4x1_ASAP7_75t_SL
*I *1303:A I *D OR3x1_ASAP7_75t_SL
*I *1324:A I *D OR3x1_ASAP7_75t_SL
*I *1315:B I *D AOI211x1_ASAP7_75t_SL
*I *1316:B I *D OR4x1_ASAP7_75t_SL
*I *1707:Y O *D BUFx3_ASAP7_75t_SL
*CAP
1 *1289:C 0
2 *1303:A 0
3 *1324:A 1.38228e-05
4 *1315:B 0
5 *1316:B 0
6 *1707:Y 2.49217e-05
7 *739:70 1.37446e-05
8 *739:59 9.00781e-06
9 *739:30 9.79534e-06
10 *739:24 1.39468e-05
11 *739:20 4.92288e-05
12 *739:14 8.82538e-05
13 *739:10 8.66579e-05
14 *1324:A *800:40 1.67815e-06
15 *1324:A *859:18 4.35576e-08
16 *739:14 *846:27 1.72524e-05
17 *739:20 *846:31 2.94031e-06
18 *739:20 *859:18 4.35576e-08
19 *739:20 *885:12 3.74016e-08
20 *1305:C *739:10 1.02506e-06
21 *1324:B *1324:A 5.22376e-07
22 *33:29 *739:10 1.17652e-05
23 *33:29 *739:70 4.52052e-05
24 *186:25 *739:10 2.70503e-06
25 *193:26 *1324:A 2.28405e-06
26 *193:26 *739:20 1.10955e-06
27 *193:45 *739:14 1.01206e-05
28 *193:45 *739:20 3.89676e-06
29 *287:28 *739:14 7.16111e-06
30 *287:32 *739:14 0.000105444
31 *377:25 *739:20 0
32 *408:18 *739:30 1.56258e-06
33 *409:6 *739:59 4.07523e-06
34 *409:12 *739:59 5.35384e-06
35 *409:16 *739:59 2.4974e-06
36 *418:18 *739:59 2.28177e-06
37 *689:21 *739:30 1.92692e-05
38 *689:25 *739:24 3.65131e-06
39 *689:35 *739:14 9.34831e-06
40 *689:35 *739:20 2.28134e-05
41 *689:45 *739:14 7.10112e-06
42 *689:64 *739:10 1.23603e-05
43 *689:64 *739:70 3.92196e-05
44 *689:85 *1324:A 2.22736e-06
45 *689:85 *739:30 8.33296e-06
46 *689:100 *1324:A 2.67122e-06
47 *738:12 *739:70 2.85937e-06
*RES
1 *1707:Y *739:10 47.7158 
2 *739:10 *739:14 41.6575 
3 *739:14 *739:20 30.0791 
4 *739:20 *739:24 19.8741 
5 *739:24 *739:30 43.4107 
6 *739:30 *1316:B 17.2 
7 *739:24 *1315:B 17.2 
8 *739:20 *1324:A 44.4803 
9 *739:14 *739:59 40.6497 
10 *739:59 *1303:A 17.2 
11 *739:10 *739:70 34.3199 
12 *739:70 *1289:C 17.2 
*END

*D_NET *740 2.50707e-05
*CONN
*I *989:B I *D XNOR2x2_ASAP7_75t_SL
*I *1708:Y O *D BUFx3_ASAP7_75t_SL
*CAP
1 *989:B 1.35535e-06
2 *1708:Y 9.14899e-06
3 *740:8 1.05043e-05
4 *612:6 *989:B 4.06202e-06
*RES
1 *1708:Y *740:8 40.0317 
2 *740:8 *989:B 35.4697 
*END

*D_NET *741 0.000460248
*CONN
*I *968:D I *D AND4x1_ASAP7_75t_SL
*I *975:A3 I *D AO31x2_ASAP7_75t_SL
*I *1104:A3 I *D AO31x2_ASAP7_75t_SL
*I *1709:Y O *D BUFx3_ASAP7_75t_SL
*CAP
1 *968:D 1.43568e-06
2 *975:A3 5.86741e-06
3 *1104:A3 0
4 *1709:Y 2.79984e-05
5 *741:46 4.13961e-05
6 *741:40 5.31492e-05
7 *741:27 2.92253e-05
8 *741:18 2.94575e-05
9 *741:16 3.31406e-05
10 *741:8 4.18506e-05
11 *975:A3 *823:46 1.51653e-06
12 *741:16 *1719:A 2.28976e-06
13 *741:16 *751:8 6.72662e-07
14 *741:27 *877:10 5.37569e-06
15 *741:40 *746:87 3.85552e-05
16 *741:40 *850:8 0
17 *741:40 *877:10 3.47607e-06
18 *741:46 *877:28 4.44082e-06
19 *1709:A *741:8 7.72307e-07
20 *1794:A *741:46 2.0561e-05
21 *84:10 *741:18 1.70866e-06
22 *84:10 *741:27 2.74606e-06
23 *84:10 *741:40 3.32579e-06
24 *84:16 *741:16 9.59239e-06
25 *516:12 *741:27 0
26 *625:6 *741:46 2.6409e-06
27 *647:16 *741:16 1.94229e-07
28 *654:20 *968:D 3.68287e-06
29 *654:20 *741:46 5.09299e-06
30 *654:28 *741:46 1.52651e-06
31 *663:43 *741:18 8.80472e-06
32 *663:43 *741:27 2.35211e-06
33 *716:6 *741:8 6.6195e-06
34 *716:6 *741:16 3.44014e-05
35 *716:10 *741:16 1.94229e-07
36 *724:12 *741:40 1.66587e-05
37 *728:10 *741:18 1.23278e-05
38 *728:50 *741:18 4.21307e-06
39 *728:50 *741:27 2.98532e-06
*RES
1 *1709:Y *741:8 46.701 
2 *741:8 *741:16 48.5038 
3 *741:16 *741:18 15.2055 
4 *741:18 *1104:A3 34.4 
5 *741:18 *741:27 10.137 
6 *741:27 *975:A3 38.1438 
7 *741:27 *741:40 33.5318 
8 *741:40 *741:46 37.7217 
9 *741:46 *968:D 35.4697 
*END

*D_NET *742 0.000191386
*CONN
*I *934:B I *D NAND2x1_ASAP7_75t_SL
*I *930:A2 I *D AO21x1_ASAP7_75t_SL
*I *1710:Y O *D BUFx3_ASAP7_75t_SL
*CAP
1 *934:B 0
2 *930:A2 8.97358e-06
3 *1710:Y 5.82658e-06
4 *742:14 1.66611e-05
5 *742:6 1.35141e-05
6 *930:A2 *854:14 2.66797e-07
7 *742:6 *854:14 4.19852e-05
8 *742:14 *854:14 2.29378e-05
9 *930:B *930:A2 7.38275e-06
10 *930:B *742:14 1.95129e-06
11 *557:23 *742:6 5.22376e-06
12 *558:12 *930:A2 6.7842e-07
13 *558:12 *742:6 2.6401e-05
14 *558:12 *742:14 2.14137e-05
15 *559:10 *930:A2 9.30483e-06
16 *575:16 *742:14 4.43244e-06
17 *579:10 *742:14 4.43244e-06
*RES
1 *1710:Y *742:6 30.5706 
2 *742:6 *742:14 45.2949 
3 *742:14 *930:A2 24.1527 
4 *742:6 *934:B 17.2 
*END

*D_NET *743 0.000120225
*CONN
*I *1350:B I *D OA21x2_ASAP7_75t_SL
*I *1344:A I *D NAND2x1_ASAP7_75t_SL
*I *1711:Y O *D BUFx3_ASAP7_75t_SL
*CAP
1 *1350:B 1.4451e-05
2 *1344:A 4.41477e-06
3 *1711:Y 0
4 *743:8 5.96034e-05
5 *743:6 4.07377e-05
6 *743:8 *745:57 0
7 *712:22 *1344:A 7.63254e-07
8 *712:22 *1350:B 2.54626e-07
*RES
1 *1711:Y *743:6 34.4 
2 *743:6 *743:8 29.8478 
3 *743:8 *1344:A 37.0741 
4 *743:8 *1350:B 43.0989 
*END

*D_NET *744 0.000441586
*CONN
*I *1173:A2 I *D AO21x1_ASAP7_75t_SL
*I *1044:A2 I *D OA211x2_ASAP7_75t_SL
*I *1063:A I *D INVx4_ASAP7_75t_SL
*I *1713:A I *D BUFx3_ASAP7_75t_SL
*I *1183:B I *D OR3x1_ASAP7_75t_SL
*I *1712:Y O *D BUFx3_ASAP7_75t_SL
*CAP
1 *1173:A2 0
2 *1044:A2 5.67489e-06
3 *1063:A 3.13295e-06
4 *1713:A 2.22072e-05
5 *1183:B 1.07287e-05
6 *1712:Y 0
7 *744:43 5.20136e-05
8 *744:37 4.32568e-05
9 *744:31 2.74658e-05
10 *744:23 4.76705e-05
11 *744:6 4.18419e-05
12 *1044:A2 *770:31 1.7743e-05
13 *1063:A *770:31 1.04475e-06
14 *1183:B *1183:A 6.10603e-06
15 *1183:B *770:12 2.04037e-06
16 *1183:B *897:10 2.68933e-07
17 *1713:A *809:68 0
18 *1713:A *809:79 0
19 *1713:A *863:117 2.40546e-06
20 *744:23 *770:12 2.22736e-06
21 *744:23 *897:10 1.34466e-06
22 *744:43 *770:31 5.64865e-05
23 *744:43 *863:117 1.49407e-08
24 *1:51 *744:37 7.89466e-06
25 *1:55 *744:37 2.19718e-05
26 *87:14 *1183:B 1.94746e-05
27 *176:22 *744:23 3.09382e-05
28 *176:22 *744:31 3.94177e-06
29 *176:22 *744:37 0
30 *199:12 *1713:A 0
31 *199:12 *744:31 5.51397e-07
32 *199:12 *744:43 0
33 *209:28 *1183:B 0
34 *209:28 *744:23 0
35 *272:6 *744:23 2.88806e-06
36 *289:12 *744:31 7.54771e-06
37 *289:12 *744:37 0
38 *290:8 *744:31 2.52452e-06
39 *707:10 *744:31 0
40 *707:10 *744:37 1.79289e-07
*RES
1 *1712:Y *744:6 34.4 
2 *744:6 *1183:B 44.7884 
3 *744:6 *744:23 34.6262 
4 *744:23 *744:31 45.8581 
5 *744:31 *744:37 44.537 
6 *744:37 *744:43 36.5954 
7 *744:43 *1713:A 48.4791 
8 *744:43 *1063:A 36.0045 
9 *744:37 *1044:A2 22.5483 
10 *744:31 *1173:A2 17.2 
*END

*D_NET *745 0.000857248
*CONN
*I *1350:A1 I *D OA21x2_ASAP7_75t_SL
*I *1337:B I *D OR3x1_ASAP7_75t_SL
*I *1372:B I *D AOI211x1_ASAP7_75t_SL
*I *1368:A1 I *D OA21x2_ASAP7_75t_SL
*I *1327:B I *D OR4x1_ASAP7_75t_SL
*I *1713:Y O *D BUFx3_ASAP7_75t_SL
*CAP
1 *1350:A1 0
2 *1337:B 1.61851e-05
3 *1372:B 0
4 *1368:A1 1.04642e-05
5 *1327:B 0
6 *1713:Y 0
7 *745:57 2.62919e-05
8 *745:32 1.5488e-05
9 *745:28 6.38625e-05
10 *745:22 7.17444e-05
11 *745:16 8.628e-05
12 *745:12 0.000161312
13 *745:10 0.000134204
14 *745:6 3.54445e-05
15 *1337:B *763:71 1.04475e-06
16 *1368:A1 *763:58 1.67815e-06
17 *1368:A1 *810:21 0
18 *745:10 *820:123 1.17606e-05
19 *745:10 *820:228 2.46429e-06
20 *745:10 *836:135 0
21 *745:12 *1343:A 3.89037e-06
22 *745:12 *811:6 8.93844e-06
23 *745:22 *763:24 4.5698e-06
24 *745:22 *763:30 1.36155e-06
25 *745:28 *763:58 1.12894e-06
26 *745:28 *810:21 0
27 *745:32 *1327:C 1.57003e-05
28 *1358:A *745:22 4.66887e-05
29 *200:30 *745:32 2.78209e-05
30 *267:12 *745:10 5.20272e-05
31 *272:40 *745:22 2.62652e-05
32 *275:8 *745:10 0
33 *294:34 *745:12 4.05232e-06
34 *429:8 *1337:B 4.20803e-06
35 *447:12 *745:16 1.07796e-05
36 *447:16 *745:28 0
37 *459:12 *745:28 1.56713e-06
38 *468:8 *745:16 4.17901e-06
39 *470:8 *745:57 2.25787e-06
40 *476:10 *745:22 5.52807e-07
41 *476:18 *745:22 1.67361e-06
42 *653:50 *745:32 1.36155e-06
43 *743:8 *745:57 0
*RES
1 *1713:Y *745:6 34.4 
2 *745:6 *745:10 48.1741 
3 *745:10 *745:12 59.3656 
4 *745:12 *745:16 49.8243 
5 *745:16 *745:22 42.7902 
6 *745:22 *745:28 39.5813 
7 *745:28 *745:32 36.9885 
8 *745:32 *1327:B 17.2 
9 *745:28 *1368:A1 41.158 
10 *745:22 *1372:B 17.2 
11 *745:12 *745:57 41.158 
12 *745:57 *1337:B 27.3617 
13 *745:57 *1350:A1 17.2 
*END

*D_NET *746 0.000648735
*CONN
*I *1382:A I *D OR3x1_ASAP7_75t_SL
*I *975:B I *D AO31x2_ASAP7_75t_SL
*I *1351:A I *D XNOR2x2_ASAP7_75t_SL
*I *1370:A I *D OR4x1_ASAP7_75t_SL
*I *1371:A1 I *D OAI21x1_ASAP7_75t_SL
*I *1714:Y O *D BUFx3_ASAP7_75t_SL
*CAP
1 *1382:A 5.47084e-06
2 *975:B 0
3 *1351:A 2.77933e-05
4 *1370:A 2.71238e-06
5 *1371:A1 2.75748e-06
6 *1714:Y 0
7 *746:87 3.48643e-05
8 *746:81 4.03352e-05
9 *746:79 2.21764e-05
10 *746:73 4.45117e-05
11 *746:67 5.25139e-05
12 *746:63 3.54035e-05
13 *746:55 4.74215e-05
14 *746:29 5.23103e-05
15 *746:10 4.10534e-05
16 *746:4 5.86878e-05
17 *1351:A *1370:B 1.64764e-06
18 *1351:A *843:150 0
19 *1371:A1 *1371:A2 5.85387e-06
20 *1382:A *844:77 5.19552e-07
21 *746:10 *838:12 9.49598e-06
22 *746:10 *838:32 2.735e-05
23 *746:10 *842:43 0
24 *746:10 *842:55 8.92962e-06
25 *746:29 *1370:B 8.00015e-06
26 *746:29 *1371:A2 2.03526e-06
27 *746:29 *838:32 4.71862e-06
28 *746:29 *842:55 4.58425e-06
29 *746:55 *842:66 0
30 *746:55 *842:79 0
31 *746:63 *843:122 0
32 *746:73 *844:43 5.19498e-06
33 *746:73 *844:54 4.52311e-06
34 *746:73 *844:71 1.16088e-06
35 *746:79 *812:43 9.42744e-06
36 *746:79 *812:62 4.41457e-06
37 *746:79 *843:60 5.25794e-06
38 *746:79 *844:77 6.7842e-07
39 *746:79 *872:128 0
40 *746:87 *850:8 0
41 *746:87 *872:10 0
42 *746:87 *872:128 0
43 *1796:A *746:79 2.03526e-06
44 *476:10 *746:73 0
45 *654:45 *746:87 1.16966e-05
46 *724:12 *746:79 8.06436e-06
47 *724:12 *746:87 1.65796e-05
48 *741:40 *746:87 3.85552e-05
*RES
1 *1714:Y *746:4 17.2 
2 *746:4 *746:10 31.7573 
3 *746:10 *1371:A1 36.0045 
4 *746:10 *746:29 48.7872 
5 *746:29 *1370:A 36.0045 
6 *746:29 *1351:A 49.5735 
7 *746:4 *746:55 33.3865 
8 *746:55 *746:63 39.89 
9 *746:63 *746:67 34.8492 
10 *746:67 *746:73 49.6055 
11 *746:73 *746:79 35.5258 
12 *746:79 *746:81 17.2 
13 *746:81 *746:87 49.7786 
14 *746:87 *975:B 34.4 
15 *746:81 *1382:A 20.409 
*END

*D_NET *747 0.000249812
*CONN
*I *1099:A3 I *D AO31x2_ASAP7_75t_SL
*I *922:C I *D AND3x1_ASAP7_75t_SL
*I *1715:Y O *D BUFx6f_ASAP7_75t_SL
*CAP
1 *1099:A3 0
2 *922:C 2.20674e-06
3 *1715:Y 3.69711e-06
4 *747:31 3.39268e-05
5 *747:16 1.98573e-05
6 *747:12 5.48176e-05
7 *747:8 7.4791e-05
8 *922:B *922:C 1.36155e-06
9 *1108:B *747:16 1.72451e-05
10 *1790:A *747:12 4.17909e-06
11 *1861:A *747:16 2.53282e-06
12 *225:31 *747:16 2.37482e-05
13 *226:31 *747:31 5.17782e-06
14 *632:16 *747:31 0
15 *632:22 *747:31 0
16 *677:14 *747:12 2.03526e-06
17 *677:18 *747:8 7.21451e-07
18 *677:18 *747:31 9.81412e-07
19 *734:19 *747:16 2.53282e-06
*RES
1 *1715:Y *747:8 37.2158 
2 *747:8 *747:12 36.9885 
3 *747:12 *747:16 36.9108 
4 *747:16 *922:C 35.4697 
5 *747:8 *747:31 35.1893 
6 *747:31 *1099:A3 17.2 
*END

*D_NET *748 0.000203041
*CONN
*I *1349:B I *D AND2x2_ASAP7_75t_SL
*I *1245:D I *D AND4x1_ASAP7_75t_SL
*I *1266:E I *D AND5x1_ASAP7_75t_SL
*I *1716:Y O *D BUFx3_ASAP7_75t_SL
*CAP
1 *1349:B 8.59213e-06
2 *1245:D 0
3 *1266:E 0
4 *1716:Y 1.65965e-05
5 *748:20 4.55573e-06
6 *748:14 3.51545e-05
7 *748:10 5.57874e-05
8 *748:20 *765:42 1.83657e-05
9 *748:20 *765:78 1.37921e-06
10 *748:20 *860:55 2.31174e-05
11 *346:77 *1349:B 5.52807e-07
12 *346:79 *748:14 3.6815e-05
13 *347:10 *748:14 2.12481e-06
14 *452:18 *1349:B 0
15 *452:18 *748:10 0
*RES
1 *1716:Y *748:10 43.8321 
2 *748:10 *748:14 43.4064 
3 *748:14 *748:20 42.2843 
4 *748:20 *1266:E 17.2 
5 *748:14 *1245:D 17.2 
6 *748:10 *1349:B 40.0317 
*END

*D_NET *749 6.14227e-05
*CONN
*I *959:A I *D XOR2x2_ASAP7_75t_SL
*I *1717:Y O *D BUFx3_ASAP7_75t_SL
*CAP
1 *959:A 0
2 *1717:Y 2.31925e-05
3 *749:10 2.31925e-05
4 *749:10 *883:23 2.22736e-06
5 *79:18 *749:10 0
6 *514:30 *749:10 1.28104e-05
*RES
1 *1717:Y *749:10 47.9974 
2 *749:10 *959:A 34.4 
*END

*D_NET *750 0.000546087
*CONN
*I *1719:A I *D BUFx6f_ASAP7_75t_SL
*I *1439:C I *D AND3x1_ASAP7_75t_SL
*I *1096:A I *D INVx4_ASAP7_75t_SL
*I *1403:A I *D OR3x1_ASAP7_75t_SL
*I *1718:Y O *D BUFx3_ASAP7_75t_SL
*CAP
1 *1719:A 1.10026e-05
2 *1439:C 0
3 *1096:A 7.7096e-07
4 *1403:A 1.94739e-05
5 *1718:Y 4.00779e-05
6 *750:69 2.46459e-05
7 *750:56 1.61958e-05
8 *750:52 4.07306e-05
9 *750:50 3.81781e-05
10 *750:28 2.82033e-05
11 *750:22 1.59413e-05
12 *750:14 2.0631e-05
13 *750:6 5.2726e-05
14 *1403:B *750:14 2.12481e-06
15 *1436:C *750:6 6.7842e-07
16 *1439:B *750:69 0
17 *1703:A *750:52 1.60917e-05
18 *76:28 *750:52 1.64348e-06
19 *224:8 *750:22 3.6269e-06
20 *224:8 *750:52 3.6269e-06
21 *224:26 *750:14 0
22 *224:26 *750:22 7.84037e-07
23 *224:26 *750:52 9.00506e-06
24 *225:66 *750:69 0
25 *485:12 *750:6 2.03997e-06
26 *485:14 *750:6 1.35684e-06
27 *485:34 *750:14 9.67723e-06
28 *485:34 *750:22 0
29 *489:8 *750:52 1.35961e-06
30 *489:8 *750:69 0
31 *516:8 *750:69 7.58265e-07
32 *516:12 *750:69 3.92132e-06
33 *552:10 *1403:A 5.23062e-06
34 *552:10 *750:28 3.48708e-06
35 *552:10 *750:52 0
36 *716:6 *1719:A 1.07377e-06
37 *726:12 *750:52 8.63494e-05
38 *728:10 *750:52 0
39 *728:10 *750:69 2.31066e-05
40 *728:99 *750:6 5.92783e-05
41 *741:16 *1719:A 2.28976e-06
*RES
1 *1718:Y *750:6 38.0582 
2 *750:6 *750:14 42.5924 
3 *750:14 *750:22 42.0293 
4 *750:22 *750:28 25.8422 
5 *750:28 *1403:A 49.9949 
6 *750:28 *1096:A 37.0741 
7 *750:22 *750:50 17.2 
8 *750:50 *750:52 40.548 
9 *750:52 *750:56 18.2696 
10 *750:56 *1439:C 17.2 
11 *750:56 *750:69 46.5629 
12 *750:69 *1719:A 22.0134 
*END

*D_NET *751 0.000140299
*CONN
*I *1852:A I *D BUFx3_ASAP7_75t_SL
*I *1104:A2 I *D AO31x2_ASAP7_75t_SL
*I *1719:Y O *D BUFx6f_ASAP7_75t_SL
*CAP
1 *1852:A 0
2 *1104:A2 0
3 *1719:Y 1.81202e-05
4 *751:21 2.90372e-05
5 *751:8 4.71573e-05
6 *751:21 *877:10 1.60115e-05
7 *647:16 *751:8 1.35473e-05
8 *647:16 *751:21 4.55339e-06
9 *716:10 *751:8 0
10 *716:10 *751:21 0
11 *716:23 *751:21 0
12 *728:52 *751:21 1.1199e-05
13 *741:16 *751:8 6.72662e-07
*RES
1 *1719:Y *751:8 47.3528 
2 *751:8 *1104:A2 34.4 
3 *751:8 *751:21 38.7914 
4 *751:21 *1852:A 17.2 
*END

*D_NET *752 0.000582519
*CONN
*I *1356:C I *D AND3x1_ASAP7_75t_SL
*I *1355:A2 I *D AOI21x1_ASAP7_75t_SL
*I *1298:A1 I *D AOI21x1_ASAP7_75t_SL
*I *1297:A2 I *D OA21x2_ASAP7_75t_SL
*I *1720:Y O *D BUFx3_ASAP7_75t_SL
*CAP
1 *1356:C 2.25714e-05
2 *1355:A2 4.4729e-06
3 *1298:A1 3.9319e-06
4 *1297:A2 5.91128e-06
5 *1720:Y 0
6 *752:48 4.23603e-05
7 *752:22 9.84318e-06
8 *752:20 5.5065e-05
9 *752:16 0.000138133
10 *752:14 8.30685e-05
11 *752:12 1.28088e-05
12 *752:4 2.81248e-05
13 *1355:A2 *796:30 2.12481e-06
14 *1355:A2 *860:44 5.01287e-06
15 *1356:C *1356:B 7.58545e-06
16 *1356:C *796:30 8.31397e-06
17 *1356:C *797:64 6.7842e-07
18 *752:12 *766:12 0
19 *752:16 *766:8 5.49212e-07
20 *752:48 *796:30 1.908e-06
21 *752:48 *860:44 1.53057e-06
22 *1297:B *1297:A2 8.89053e-06
23 *1297:B *1298:A1 4.89331e-06
24 *1297:B *752:20 1.36155e-06
25 *44:8 *1297:A2 0
26 *45:12 *752:16 1.83968e-05
27 *357:43 *752:48 0
28 *378:22 *752:16 0
29 *379:20 *752:16 0
30 *380:8 *752:16 6.67371e-06
31 *381:14 *752:16 2.9914e-05
32 *386:10 *752:16 6.9735e-05
33 *395:8 *1297:A2 4.43244e-06
34 *395:8 *1298:A1 3.95845e-06
35 *444:10 *1356:C 2.68933e-07
36 *708:43 *1356:C 0
*RES
1 *1720:Y *752:4 17.2 
2 *752:4 *752:12 40.4531 
3 *752:12 *752:14 17.2 
4 *752:14 *752:16 76.5906 
5 *752:16 *752:20 40.1975 
6 *752:20 *752:22 17.2 
7 *752:22 *1297:A2 39.9466 
8 *752:22 *1298:A1 38.9053 
9 *752:4 *752:48 24.8293 
10 *752:48 *1355:A2 38.1438 
11 *752:48 *1356:C 49.2937 
*END

*D_NET *753 0.000490493
*CONN
*I *928:A I *D AND4x2_ASAP7_75t_SL
*I *950:B I *D AND3x1_ASAP7_75t_SL
*I *939:B I *D AND2x2_ASAP7_75t_SL
*I *1721:Y O *D BUFx3_ASAP7_75t_SL
*CAP
1 *928:A 2.10642e-06
2 *950:B 0
3 *939:B 0
4 *1721:Y 0
5 *753:30 6.11847e-05
6 *753:28 6.04054e-05
7 *753:19 2.86568e-05
8 *753:12 1.49359e-05
9 *753:4 4.22656e-05
10 *928:A *855:14 1.35684e-06
11 *753:19 *946:A 2.61188e-06
12 *753:19 *950:A 7.63254e-07
13 *753:19 *785:21 7.04341e-06
14 *753:30 *1454:B 1.692e-05
15 *753:30 *827:96 1.30749e-05
16 *753:30 *855:20 2.41555e-05
17 *939:A *753:12 5.22376e-07
18 *946:B *753:19 4.26443e-05
19 *490:23 *753:12 9.47659e-06
20 *496:10 *753:30 0
21 *496:22 *753:30 1.11752e-05
22 *529:55 *753:30 3.13615e-06
23 *553:6 *753:19 9.91308e-05
24 *553:6 *753:28 5.41446e-06
25 *553:14 *753:19 1.3659e-05
26 *557:12 *753:30 0
27 *567:8 *753:12 0
28 *572:10 *753:30 6.74311e-06
29 *579:18 *753:12 2.31101e-05
*RES
1 *1721:Y *753:4 17.2 
2 *753:4 *753:12 46.0281 
3 *753:12 *939:B 17.2 
4 *753:4 *753:19 32.6243 
5 *753:19 *950:B 17.2 
6 *753:19 *753:28 18.8045 
7 *753:28 *753:30 47.8691 
8 *753:30 *928:A 35.4697 
*END

*D_NET *754 0.00054959
*CONN
*I *1014:C I *D AND5x1_ASAP7_75t_SL
*I *945:A I *D AND2x2_ASAP7_75t_SL
*I *1722:Y O *D BUFx3_ASAP7_75t_SL
*CAP
1 *1014:C 6.83744e-05
2 *945:A 3.35766e-05
3 *1722:Y 0
4 *754:19 7.47865e-05
5 *754:13 5.04729e-05
6 *754:4 7.76374e-05
7 *754:13 *891:10 1.78854e-06
8 *969:A2 *754:19 8.21017e-06
9 *1014:A *1014:C 2.28976e-06
10 *1014:B *1014:C 7.14604e-06
11 *1016:A1 *754:13 1.44167e-06
12 *1142:A *1014:C 1.62312e-05
13 *1142:A *754:19 6.33206e-07
14 *1142:B *1014:C 5.2818e-06
15 *76:30 *754:13 3.73144e-06
16 *76:36 *754:13 1.21364e-05
17 *230:26 *754:13 2.14755e-06
18 *262:46 *1014:C 0
19 *488:6 *945:A 5.73392e-05
20 *493:23 *754:13 0.000116091
21 *647:16 *754:19 8.21017e-06
22 *727:31 *1014:C 2.06417e-06
*RES
1 *1722:Y *754:4 17.2 
2 *754:4 *945:A 41.8019 
3 *754:4 *754:13 37.9726 
4 *754:13 *754:19 41.158 
5 *754:19 *1014:C 47.685 
*END

*D_NET *755 0.000126139
*CONN
*I *969:A3 I *D OA31x2_ASAP7_75t_SL
*I *1016:A2 I *D OA21x2_ASAP7_75t_SL
*I *1723:Y O *D BUFx3_ASAP7_75t_SL
*CAP
1 *969:A3 6.45108e-06
2 *1016:A2 0
3 *1723:Y 0
4 *755:8 3.4811e-05
5 *755:6 2.83599e-05
6 *755:8 *890:16 2.63025e-05
7 *969:B1 *969:A3 2.68933e-07
8 *225:50 *969:A3 0
9 *225:50 *755:8 0
10 *230:26 *755:8 5.19498e-06
11 *262:10 *755:8 1.12894e-06
12 *631:14 *755:8 0
13 *647:8 *755:8 2.5698e-06
14 *647:16 *969:A3 8.04031e-06
15 *647:16 *755:8 1.24619e-05
16 *728:97 *755:8 5.49212e-07
*RES
1 *1723:Y *755:6 34.4 
2 *755:6 *755:8 24.7793 
3 *755:8 *1016:A2 34.4 
4 *755:8 *969:A3 41.158 
*END

*D_NET *756 0.000669413
*CONN
*I *1342:A1 I *D OA21x2_ASAP7_75t_SL
*I *1314:B I *D NAND2x1_ASAP7_75t_SL
*I *1398:C I *D AND3x1_ASAP7_75t_SL
*I *1724:Y O *D BUFx3_ASAP7_75t_SL
*CAP
1 *1342:A1 8.35481e-06
2 *1314:B 1.65684e-05
3 *1398:C 0
4 *1724:Y 0
5 *756:44 3.883e-05
6 *756:24 1.02241e-05
7 *756:16 3.81901e-05
8 *756:10 0.000113331
9 *756:8 7.38152e-05
10 *756:4 3.54942e-05
11 *1314:B *1305:A 4.1994e-05
12 *756:10 *846:55 7.42904e-06
13 *756:10 *860:24 1.66193e-05
14 *756:10 *884:8 1.30936e-05
15 *756:16 *865:20 3.1923e-06
16 *756:16 *880:23 2.91239e-05
17 *756:24 *820:193 2.88806e-06
18 *1353:B1 *756:10 5.64678e-06
19 *1859:A *756:10 6.10236e-08
20 *183:18 *756:8 9.08513e-06
21 *183:18 *756:44 3.74496e-05
22 *183:20 *756:44 5.21648e-06
23 *286:20 *756:10 2.05027e-06
24 *286:20 *756:16 4.34318e-06
25 *288:10 *756:16 6.7842e-07
26 *357:14 *756:44 2.88806e-06
27 *387:10 *756:10 5.94816e-06
28 *388:8 *756:10 1.55472e-05
29 *442:10 *756:24 8.33296e-06
30 *442:16 *756:24 1.44167e-06
31 *442:18 *756:10 3.37355e-06
32 *442:18 *756:24 3.16931e-06
33 *462:10 *756:10 0
34 *478:10 *756:10 0
35 *689:53 *756:24 2.61056e-05
36 *692:10 *756:10 2.83872e-05
37 *692:10 *756:16 5.03172e-05
38 *738:18 *756:10 1.0224e-05
*RES
1 *1724:Y *756:4 17.2 
2 *756:4 *756:8 19.8741 
3 *756:8 *756:10 57.4429 
4 *756:10 *756:16 42.6805 
5 *756:16 *756:24 45.55 
6 *756:24 *1398:C 17.2 
7 *756:10 *1314:B 46.701 
8 *756:4 *756:44 35.076 
9 *756:44 *1342:A1 38.6786 
*END

*D_NET *757 8.98728e-05
*CONN
*I *1237:A I *D NOR2x1_ASAP7_75t_SL
*I *1725:Y O *D BUFx3_ASAP7_75t_SL
*CAP
1 *1237:A 2.25292e-05
2 *1725:Y 1.97358e-05
3 *757:8 4.2265e-05
4 *757:8 *758:8 0
5 *338:8 *757:8 0
6 *339:10 *1237:A 5.34278e-06
*RES
1 *1725:Y *757:8 49.6055 
2 *757:8 *1237:A 48.8403 
*END

*D_NET *758 1.23584e-05
*CONN
*I *1237:B I *D NOR2x1_ASAP7_75t_SL
*I *1726:Y O *D BUFx3_ASAP7_75t_SL
*CAP
1 *1237:B 0
2 *1726:Y 6.1792e-06
3 *758:8 6.1792e-06
4 *344:12 *758:8 0
5 *757:8 *758:8 0
*RES
1 *1726:Y *758:8 38.9053 
2 *758:8 *1237:B 34.4 
*END

*D_NET *759 0.000136591
*CONN
*I *1178:B I *D AOI21x1_ASAP7_75t_SL
*I *1727:Y O *D BUFx3_ASAP7_75t_SL
*CAP
1 *1178:B 0
2 *1727:Y 1.80805e-05
3 *759:6 1.80805e-05
4 *759:6 *1178:A1 2.71368e-06
5 *179:12 *759:6 6.87208e-05
6 *294:16 *759:6 1.07377e-06
7 *711:50 *759:6 4.32473e-06
8 *711:62 *759:6 2.35969e-05
*RES
1 *1727:Y *759:6 36.9885 
2 *759:6 *1178:B 17.2 
*END

*D_NET *760 0.000105651
*CONN
*I *928:C I *D AND4x2_ASAP7_75t_SL
*I *1454:B I *D AND3x1_ASAP7_75t_SL
*I *1728:Y O *D BUFx3_ASAP7_75t_SL
*CAP
1 *928:C 9.36456e-06
2 *1454:B 8.6128e-06
3 *1728:Y 3.36206e-06
4 *760:8 2.13394e-05
5 *928:C *855:14 3.56648e-06
6 *1454:B *855:20 2.83449e-06
7 *529:44 *1454:B 0
8 *529:44 *760:8 0
9 *529:55 *1454:B 2.95689e-05
10 *529:55 *760:8 9.81516e-06
11 *530:6 *1454:B 2.66797e-07
12 *753:30 *1454:B 1.692e-05
*RES
1 *1728:Y *760:8 37.779 
2 *760:8 *1454:B 45.6066 
3 *760:8 *928:C 38.6786 
*END

*D_NET *761 8.3595e-05
*CONN
*I *1001:C I *D AND3x1_ASAP7_75t_SL
*I *1093:B I *D NAND2x1_ASAP7_75t_SL
*I *1729:Y O *D BUFx3_ASAP7_75t_SL
*CAP
1 *1001:C 1.27788e-05
2 *1093:B 1.53181e-05
3 *1729:Y 0
4 *761:6 2.80969e-05
5 *1093:B *1864:A 0
6 *221:10 *1093:B 1.56713e-06
7 *233:6 *1093:B 5.41446e-06
8 *501:57 *1001:C 7.90021e-06
9 *501:57 *1093:B 1.11578e-05
10 *529:22 *1001:C 1.36155e-06
*RES
1 *1729:Y *761:6 34.4 
2 *761:6 *1093:B 46.1415 
3 *761:6 *1001:C 43.354 
*END

*D_NET *762 0.000225344
*CONN
*I *1090:A I *D NAND2x1_ASAP7_75t_SL
*I *1001:B I *D AND3x1_ASAP7_75t_SL
*I *1730:Y O *D BUFx3_ASAP7_75t_SL
*CAP
1 *1090:A 6.37676e-06
2 *1001:B 1.39044e-05
3 *1730:Y 1.41894e-05
4 *762:10 3.38175e-05
5 *762:8 2.77258e-05
6 *1090:A *823:34 6.8435e-06
7 *1090:A *823:60 9.94583e-06
8 *762:10 *823:34 1.96887e-05
9 *762:10 *846:127 0
10 *216:22 *762:8 5.22376e-07
11 *216:28 *762:10 7.73073e-06
12 *216:30 *762:8 2.25106e-05
13 *217:26 *1090:A 1.35684e-06
14 *218:8 *1090:A 6.94376e-06
15 *218:8 *762:10 1.06997e-05
16 *220:30 *762:10 5.0041e-06
17 *232:14 *762:10 0
18 *529:22 *1001:B 3.80843e-05
*RES
1 *1730:Y *762:8 42.4224 
2 *762:8 *762:10 12.3897 
3 *762:10 *1001:B 45.6313 
4 *762:10 *1090:A 41.1013 
*END

*D_NET *763 0.00101119
*CONN
*I *1183:C I *D OR3x1_ASAP7_75t_SL
*I *1350:A2 I *D OA21x2_ASAP7_75t_SL
*I *1337:C I *D OR3x1_ASAP7_75t_SL
*I *1368:A2 I *D OA21x2_ASAP7_75t_SL
*I *1327:C I *D OR4x1_ASAP7_75t_SL
*I *1372:C I *D AOI211x1_ASAP7_75t_SL
*I *1731:Y O *D BUFx3_ASAP7_75t_SL
*CAP
1 *1183:C 2.56617e-06
2 *1350:A2 0
3 *1337:C 0
4 *1368:A2 0
5 *1327:C 5.15319e-05
6 *1372:C 4.61089e-06
7 *1731:Y 6.58906e-06
8 *763:93 2.19724e-05
9 *763:82 1.1895e-06
10 *763:71 4.97203e-06
11 *763:58 1.29253e-05
12 *763:45 9.78161e-05
13 *763:30 7.17716e-05
14 *763:24 7.70071e-05
15 *763:18 6.77031e-05
16 *763:16 0.000155275
17 *763:14 0.000140429
18 *763:6 3.18651e-05
19 *763:14 *836:129 7.15974e-07
20 *763:16 *863:102 0
21 *763:18 *863:102 0
22 *763:45 *1369:A1 5.2818e-06
23 *763:58 *810:151 0
24 *763:71 *828:8 1.80596e-06
25 *763:93 *836:129 0
26 *1337:B *763:71 1.04475e-06
27 *1358:A *763:30 5.03183e-05
28 *1368:A1 *763:58 1.67815e-06
29 *85:23 *763:6 2.18653e-05
30 *85:23 *763:14 2.29378e-05
31 *87:14 *1183:C 1.40419e-08
32 *200:30 *1327:C 0
33 *200:30 *763:45 0
34 *209:22 *763:6 7.55242e-06
35 *209:28 *763:93 1.80267e-05
36 *270:33 *1372:C 5.09995e-06
37 *270:33 *763:45 9.67723e-06
38 *272:40 *1372:C 0
39 *447:16 *763:58 1.434e-05
40 *460:10 *1372:C 0
41 *460:10 *763:45 0
42 *470:8 *763:71 3.73518e-07
43 *476:18 *763:24 1.08749e-05
44 *653:50 *1327:C 3.89037e-06
45 *680:12 *763:6 4.15475e-05
46 *680:12 *763:14 2.31575e-05
47 *680:18 *763:93 0
48 *745:22 *763:24 4.5698e-06
49 *745:22 *763:30 1.36155e-06
50 *745:28 *763:58 1.12894e-06
51 *745:32 *1327:C 1.57003e-05
*RES
1 *1731:Y *763:6 29.501 
2 *763:6 *763:14 42.9484 
3 *763:14 *763:16 51.7287 
4 *763:16 *763:18 6.92602 
5 *763:18 *763:24 35.7661 
6 *763:24 *763:30 48.8403 
7 *763:30 *1372:C 38.3422 
8 *763:30 *763:45 33.9496 
9 *763:45 *1327:C 41.8019 
10 *763:45 *763:58 45.6633 
11 *763:58 *1368:A2 17.2 
12 *763:18 *763:71 38.1916 
13 *763:71 *1337:C 17.2 
14 *763:16 *763:82 35.057 
15 *763:82 *1350:A2 17.2 
16 *763:6 *763:93 49.6055 
17 *763:93 *1183:C 18.2696 
*END

*D_NET *764 0.00018272
*CONN
*I *1296:E I *D AND5x1_ASAP7_75t_SL
*I *1274:C I *D AND4x1_ASAP7_75t_SL
*I *1281:B I *D AND3x1_ASAP7_75t_SL
*I *1732:Y O *D BUFx3_ASAP7_75t_SL
*CAP
1 *1296:E 0
2 *1274:C 9.87326e-06
3 *1281:B 0
4 *1732:Y 0
5 *764:36 2.06785e-05
6 *764:8 2.55676e-05
7 *764:4 3.63729e-05
8 *1274:C *765:67 6.36543e-06
9 *1274:C *804:12 0
10 *764:8 *1296:B 0
11 *764:8 *766:68 1.65207e-05
12 *764:8 *804:12 0
13 *764:36 *1296:D 1.36155e-06
14 *1296:A *764:8 4.83862e-06
15 *45:30 *764:8 9.93857e-06
16 *46:12 *1274:C 3.32579e-06
17 *46:12 *764:8 2.77657e-06
18 *46:12 *764:36 1.96231e-05
19 *347:30 *764:8 7.59847e-06
20 *357:59 *1274:C 2.5569e-06
21 *366:14 *764:36 6.53466e-06
22 *393:8 *764:36 1.36155e-06
23 *393:10 *764:8 7.42614e-06
*RES
1 *1732:Y *764:4 17.2 
2 *764:4 *764:8 33.5318 
3 *764:8 *1281:B 34.4 
4 *764:8 *1274:C 42.171 
5 *764:4 *764:36 47.0411 
6 *764:36 *1296:E 17.2 
*END

*D_NET *765 0.000572513
*CONN
*I *1266:C I *D AND5x1_ASAP7_75t_SL
*I *1274:B I *D AND4x1_ASAP7_75t_SL
*I *1258:C I *D AND4x1_ASAP7_75t_SL
*I *1245:C I *D AND4x1_ASAP7_75t_SL
*I *1296:D I *D AND5x1_ASAP7_75t_SL
*I *1733:Y O *D BUFx3_ASAP7_75t_SL
*CAP
1 *1266:C 0
2 *1274:B 0
3 *1258:C 5.20036e-06
4 *1245:C 3.08378e-06
5 *1296:D 9.26213e-06
6 *1733:Y 3.94611e-06
7 *765:78 1.20687e-06
8 *765:67 6.07527e-06
9 *765:50 3.81568e-05
10 *765:44 5.87243e-05
11 *765:42 3.19552e-05
12 *765:27 2.02561e-05
13 *765:16 2.26678e-05
14 *765:12 8.54208e-05
15 *765:10 7.81316e-05
16 *765:8 3.94611e-06
17 *1258:C *1258:B 1.56713e-06
18 *765:16 *860:55 1.29144e-05
19 *765:27 *860:55 9.17492e-06
20 *765:42 *766:20 7.11252e-08
21 *765:42 *860:55 4.12013e-06
22 *765:50 *766:36 5.52807e-07
23 *765:50 *766:46 2.17603e-06
24 *765:50 *803:21 0
25 *765:78 *766:20 6.47549e-06
26 *1274:C *765:67 6.36543e-06
27 *1282:A *765:12 7.72307e-07
28 *45:22 *1296:D 3.09627e-05
29 *46:12 *765:16 0
30 *46:12 *765:67 1.49407e-08
31 *287:72 *765:12 9.40277e-06
32 *347:18 *765:44 1.35892e-06
33 *357:59 *765:67 1.13885e-05
34 *357:69 *1258:C 1.44167e-06
35 *357:69 *765:50 4.89331e-06
36 *359:8 *765:50 6.33206e-07
37 *366:12 *765:16 1.98844e-05
38 *366:12 *765:27 2.13739e-05
39 *366:12 *765:42 2.51541e-05
40 *378:10 *765:8 9.68845e-06
41 *378:14 *765:12 0
42 *378:22 *765:12 0
43 *379:14 *1296:D 1.04475e-06
44 *393:8 *1296:D 1.26378e-06
45 *452:16 *765:12 6.7842e-07
46 *748:20 *765:42 1.83657e-05
47 *748:20 *765:78 1.37921e-06
48 *764:36 *1296:D 1.36155e-06
*RES
1 *1733:Y *765:8 37.779 
2 *765:8 *765:10 17.2 
3 *765:10 *765:12 35.8333 
4 *765:12 *765:16 27.337 
5 *765:16 *1296:D 43.492 
6 *765:16 *765:27 7.88432 
7 *765:27 *1245:C 35.4697 
8 *765:27 *765:42 28.5992 
9 *765:42 *765:44 6.92602 
10 *765:44 *765:50 33.1444 
11 *765:50 *1258:C 37.0741 
12 *765:44 *765:67 39.2329 
13 *765:67 *1274:B 17.2 
14 *765:42 *765:78 36.5588 
15 *765:78 *1266:C 17.2 
*END

*D_NET *766 0.000476818
*CONN
*I *1266:B I *D AND5x1_ASAP7_75t_SL
*I *1245:B I *D AND4x1_ASAP7_75t_SL
*I *1296:C I *D AND5x1_ASAP7_75t_SL
*I *1274:A I *D AND4x1_ASAP7_75t_SL
*I *1258:B I *D AND4x1_ASAP7_75t_SL
*I *1734:Y O *D BUFx3_ASAP7_75t_SL
*CAP
1 *1266:B 1.40509e-06
2 *1245:B 1.9004e-06
3 *1296:C 0
4 *1274:A 4.59184e-06
5 *1258:B 1.04318e-05
6 *1734:Y 5.7158e-06
7 *766:68 5.56758e-06
8 *766:46 1.85818e-05
9 *766:38 1.27418e-05
10 *766:36 2.22194e-05
11 *766:30 4.296e-05
12 *766:20 2.66702e-05
13 *766:16 1.85945e-05
14 *766:12 5.57976e-05
15 *766:8 5.39207e-05
16 *766:12 *804:8 5.51397e-07
17 *766:20 *860:55 0
18 *766:36 *1281:A 4.41457e-06
19 *766:36 *1296:B 8.46363e-06
20 *766:36 *804:12 2.159e-05
21 *1258:C *1258:B 1.56713e-06
22 *45:22 *766:68 1.04475e-06
23 *46:12 *766:16 0
24 *46:12 *766:20 0
25 *46:12 *766:30 1.16894e-05
26 *46:12 *766:68 3.16603e-06
27 *346:87 *766:20 4.82139e-06
28 *346:100 *766:20 8.06436e-06
29 *346:100 *766:30 4.9888e-06
30 *347:18 *766:30 2.95693e-06
31 *347:22 *766:30 1.13523e-05
32 *347:30 *766:30 3.89037e-06
33 *347:30 *766:36 1.32074e-05
34 *357:69 *1258:B 1.30717e-05
35 *357:69 *766:36 1.26641e-06
36 *357:69 *766:46 8.33296e-06
37 *359:8 *766:36 7.84037e-07
38 *365:6 *1266:B 3.68287e-06
39 *366:12 *766:20 4.74248e-06
40 *373:8 *1274:A 2.90209e-08
41 *379:10 *1245:B 5.85387e-06
42 *379:10 *766:20 4.83862e-06
43 *379:10 *766:30 1.66706e-05
44 *393:10 *766:68 8.33296e-06
45 *752:12 *766:12 0
46 *752:16 *766:8 5.49212e-07
47 *764:8 *766:68 1.65207e-05
48 *765:42 *766:20 7.11252e-08
49 *765:50 *766:36 5.52807e-07
50 *765:50 *766:46 2.17603e-06
51 *765:78 *766:20 6.47549e-06
*RES
1 *1734:Y *766:8 37.779 
2 *766:8 *766:12 39.1278 
3 *766:12 *766:16 21.7053 
4 *766:16 *766:20 27.337 
5 *766:20 *766:30 46.8994 
6 *766:30 *766:36 35.3594 
7 *766:36 *766:38 17.2 
8 *766:38 *766:46 42.7625 
9 *766:46 *1258:B 24.6875 
10 *766:38 *1274:A 19.3393 
11 *766:30 *766:68 41.1013 
12 *766:68 *1296:C 17.2 
13 *766:20 *1245:B 18.8045 
14 *766:16 *1266:B 35.4697 
*END

*D_NET *767 9.31566e-05
*CONN
*I *1387:A1 I *D AOI21x1_ASAP7_75t_SL
*I *1386:B I *D AND3x1_ASAP7_75t_SL
*I *1735:Y O *D BUFx3_ASAP7_75t_SL
*CAP
1 *1387:A1 0
2 *1386:B 1.57071e-05
3 *1735:Y 1.17867e-05
4 *767:10 2.74938e-05
5 *767:10 *794:33 4.67119e-06
6 *473:8 *767:10 4.56834e-06
7 *474:8 *1386:B 1.61512e-05
8 *705:10 *1386:B 7.75768e-06
9 *705:10 *767:10 2.98532e-06
10 *705:22 *1386:B 2.03526e-06
*RES
1 *1735:Y *767:10 43.0989 
2 *767:10 *1386:B 45.4366 
3 *767:10 *1387:A1 34.4 
*END

*D_NET *768 0.000238068
*CONN
*I *989:A I *D XNOR2x2_ASAP7_75t_SL
*I *1004:B I *D AND3x1_ASAP7_75t_SL
*I *1736:Y O *D BUFx3_ASAP7_75t_SL
*CAP
1 *989:A 0
2 *1004:B 1.20003e-05
3 *1736:Y 2.49967e-05
4 *768:27 1.00864e-05
5 *768:14 3.74933e-05
6 *768:8 4.04033e-05
7 *768:8 *990:A 4.49838e-05
8 *768:14 *815:10 0
9 *987:A2 *1004:B 1.25483e-05
10 *987:A2 *768:14 3.13882e-05
11 *1004:C *1004:B 3.73144e-06
12 *1708:A *768:27 1.49407e-08
13 *607:33 *768:27 0
14 *608:10 *768:27 1.09067e-06
15 *609:10 *768:14 5.25794e-06
16 *609:10 *768:27 0
17 *621:6 *1004:B 1.40724e-05
*RES
1 *1736:Y *768:8 46.701 
2 *768:8 *768:14 31.3038 
3 *768:14 *1004:B 27.8965 
4 *768:14 *768:27 41.158 
5 *768:27 *989:A 17.2 
*END

*D_NET *769 0.00140139
*CONN
*I *1083:B I *D NAND2x1_ASAP7_75t_SL
*I *1146:C I *D AND3x1_ASAP7_75t_SL
*I *1151:B I *D NAND2x2_ASAP7_75t_SL
*I *1064:B I *D AND2x4_ASAP7_75t_SL
*I *1384:A2 I *D AO32x1_ASAP7_75t_SL
*I *1369:A3 I *D AO32x1_ASAP7_75t_SL
*I *1391:A2 I *D AO32x1_ASAP7_75t_SL
*I *1737:Y O *D BUFx3_ASAP7_75t_SL
*CAP
1 *1083:B 1.32489e-05
2 *1146:C 0
3 *1151:B 0
4 *1064:B 4.98241e-06
5 *1384:A2 0
6 *1369:A3 0
7 *1391:A2 4.49448e-06
8 *1737:Y 0
9 *769:126 4.67856e-05
10 *769:89 1.14155e-05
11 *769:72 1.92642e-05
12 *769:66 3.82141e-05
13 *769:60 4.48492e-05
14 *769:54 3.70033e-05
15 *769:48 3.38387e-05
16 *769:42 6.38792e-05
17 *769:36 3.63135e-05
18 *769:32 2.84494e-05
19 *769:28 2.59369e-05
20 *769:22 1.07152e-05
21 *769:18 6.02566e-05
22 *769:12 7.10969e-05
23 *769:4 5.05321e-05
24 *1064:B *1064:A 6.70433e-06
25 *1064:B *820:173 2.3365e-05
26 *769:12 *1081:A 8.146e-06
27 *769:18 *809:64 0
28 *769:18 *863:117 2.95693e-06
29 *769:22 *770:31 4.92332e-06
30 *769:28 *863:117 2.79583e-06
31 *769:32 *770:31 7.58545e-06
32 *769:32 *878:20 5.22376e-07
33 *769:42 *878:32 2.52452e-06
34 *769:48 *820:173 4.20803e-06
35 *769:48 *878:32 2.02379e-06
36 *769:48 *878:40 6.33206e-07
37 *769:60 *863:10 8.19503e-06
38 *769:66 *863:10 2.04071e-05
39 *769:89 *1369:A1 7.58545e-06
40 *769:126 *809:35 7.13905e-06
41 *1083:A *1083:B 2.03526e-06
42 *1395:B *769:54 9.81516e-06
43 *1395:C *1391:A2 7.57325e-06
44 *1688:A *769:126 0
45 *1:51 *769:18 4.14892e-06
46 *1:57 *769:18 6.33334e-06
47 *179:20 *769:126 1.02506e-06
48 *179:26 *769:12 3.80761e-06
49 *210:8 *769:12 4.10928e-06
50 *212:10 *1083:B 1.20546e-05
51 *212:22 *769:48 0
52 *212:30 *769:48 2.29378e-05
53 *266:37 *769:28 1.12925e-05
54 *268:64 *769:36 7.5755e-06
55 *270:20 *769:66 1.10364e-05
56 *270:20 *769:72 9.31704e-06
57 *282:30 *769:32 6.34111e-05
58 *282:38 *769:32 1.30071e-05
59 *282:87 *769:36 0
60 *298:18 *769:126 1.61287e-05
61 *430:10 *769:36 2.98814e-08
62 *430:10 *769:42 0
63 *442:10 *769:42 1.83771e-06
64 *442:10 *769:48 1.94229e-07
65 *461:8 *769:72 1.9502e-05
66 *468:10 *769:72 1.34329e-05
67 *468:10 *769:89 3.62817e-05
68 *468:29 *769:60 6.45149e-06
69 *468:29 *769:66 8.33296e-06
70 *471:8 *769:72 2.28512e-05
71 *476:18 *769:72 1.14673e-05
72 *476:22 *1391:A2 3.90258e-06
73 *717:18 *769:18 0.000150927
74 *717:22 *769:32 8.44308e-05
75 *717:22 *769:42 1.89591e-05
76 *719:6 *769:60 4.95463e-05
77 *719:10 *769:60 7.79295e-06
78 *719:16 *769:66 4.74248e-06
79 *719:16 *769:72 2.74606e-06
80 *719:16 *769:89 2.95616e-05
81 *720:10 *769:126 9.67723e-06
82 *720:21 *769:126 2.12481e-06
*RES
1 *1737:Y *769:4 17.2 
2 *769:4 *769:12 44.3191 
3 *769:12 *769:18 45.9365 
4 *769:18 *769:22 20.9438 
5 *769:22 *769:28 38.3422 
6 *769:28 *769:32 46.6154 
7 *769:32 *769:36 21.1422 
8 *769:36 *769:42 38.4549 
9 *769:42 *769:48 33.3865 
10 *769:48 *769:54 37.779 
11 *769:54 *769:60 36.5954 
12 *769:60 *769:66 27.7018 
13 *769:66 *769:72 35.0796 
14 *769:72 *1391:A2 37.0741 
15 *769:66 *769:89 48.929 
16 *769:89 *1369:A3 17.2 
17 *769:60 *1384:A2 34.4 
18 *769:42 *1064:B 41.3527 
19 *769:36 *1151:B 17.2 
20 *769:22 *1146:C 17.2 
21 *769:4 *769:126 36.2023 
22 *769:126 *1083:B 42.4224 
*END

*D_NET *770 0.000502149
*CONN
*I *1190:A I *D NOR2x1_ASAP7_75t_SL
*I *1146:B I *D AND3x1_ASAP7_75t_SL
*I *1183:A I *D OR3x1_ASAP7_75t_SL
*I *1738:Y O *D BUFx3_ASAP7_75t_SL
*CAP
1 *1190:A 0
2 *1146:B 0
3 *1183:A 9.77248e-06
4 *1738:Y 0
5 *770:42 2.84042e-05
6 *770:31 3.62523e-05
7 *770:27 4.41314e-05
8 *770:12 4.584e-05
9 *770:8 5.30109e-05
10 *770:6 3.74685e-05
11 *1044:A2 *770:31 1.7743e-05
12 *1063:A *770:31 1.04475e-06
13 *1183:B *1183:A 6.10603e-06
14 *1183:B *770:12 2.04037e-06
15 *1190:B *770:42 1.2768e-05
16 *1:51 *770:27 3.25311e-05
17 *87:14 *1183:A 2.11853e-06
18 *179:32 *770:12 7.31605e-06
19 *186:76 *770:42 0
20 *210:18 *770:8 0
21 *210:18 *770:42 0
22 *212:20 *770:12 3.05118e-08
23 *264:53 *770:42 4.10928e-06
24 *265:10 *770:31 5.17782e-06
25 *289:12 *770:27 2.19482e-06
26 *663:83 *770:8 2.94666e-06
27 *663:83 *770:12 2.53163e-05
28 *663:83 *770:42 2.15771e-05
29 *717:18 *770:27 3.30265e-05
30 *717:39 *770:42 0
31 *744:23 *770:12 2.22736e-06
32 *744:43 *770:31 5.64865e-05
33 *769:22 *770:31 4.92332e-06
34 *769:32 *770:31 7.58545e-06
*RES
1 *1738:Y *770:6 34.4 
2 *770:6 *770:8 5.35008 
3 *770:8 *770:12 44.5135 
4 *770:12 *1183:A 24.6875 
5 *770:8 *770:27 40.8721 
6 *770:27 *770:31 47.1502 
7 *770:31 *1146:B 17.2 
8 *770:6 *770:42 40.5412 
9 *770:42 *1190:A 17.2 
*END

*D_NET *771 0.000471425
*CONN
*I *1156:A I *D OR3x1_ASAP7_75t_SL
*I *1148:A I *D NAND2x1_ASAP7_75t_SL
*I *1739:Y O *D BUFx3_ASAP7_75t_SL
*CAP
1 *1156:A 2.10642e-06
2 *1148:A 4.83905e-06
3 *1739:Y 7.16787e-06
4 *771:31 2.42027e-05
5 *771:20 3.0123e-05
6 *771:18 1.95885e-05
7 *771:12 6.37577e-05
8 *771:10 4.73569e-05
9 *771:8 7.16787e-06
10 *771:8 *836:71 1.12894e-06
11 *771:18 *811:10 3.02222e-05
12 *771:18 *820:123 0
13 *771:31 *811:10 1.13739e-05
14 *1148:B *1148:A 2.61188e-06
15 *1156:B *1156:A 1.35684e-06
16 *266:37 *771:31 4.77327e-05
17 *278:10 *771:31 2.65447e-05
18 *294:26 *771:12 0.000138724
19 *693:78 *771:31 5.42019e-06
20 *696:8 *771:31 0
*RES
1 *1739:Y *771:8 38.9053 
2 *771:8 *771:10 17.2 
3 *771:10 *771:12 42.2512 
4 *771:12 *771:18 48.4791 
5 *771:18 *771:20 1.60448 
6 *771:20 *1148:A 20.409 
7 *771:20 *771:31 43.1056 
8 *771:31 *1156:A 35.4697 
*END

*D_NET *772 4.0564e-05
*CONN
*I *1005:A I *D XNOR2x2_ASAP7_75t_SL
*I *1740:Y O *D BUFx3_ASAP7_75t_SL
*CAP
1 *1005:A 0
2 *1740:Y 8.83129e-06
3 *772:10 8.83129e-06
4 *5:16 *772:10 1.36943e-05
5 *587:6 *772:10 8.65792e-06
6 *621:12 *772:10 5.49212e-07
7 *663:74 *772:10 0
*RES
1 *1740:Y *772:10 41.5795 
2 *772:10 *1005:A 34.4 
*END

*D_NET *773 0.00026211
*CONN
*I *1004:A I *D AND3x1_ASAP7_75t_SL
*I *1002:A I *D XOR2x2_ASAP7_75t_SL
*I *1741:Y O *D BUFx3_ASAP7_75t_SL
*CAP
1 *1004:A 0
2 *1002:A 3.52063e-06
3 *1741:Y 0
4 *773:27 1.30714e-05
5 *773:10 4.24874e-05
6 *773:4 5.20382e-05
7 *773:10 *1003:C 6.16795e-05
8 *773:10 *820:115 1.26646e-05
9 *773:27 *1003:C 2.74873e-05
10 *773:27 *836:25 1.62312e-05
11 *604:26 *773:10 1.49407e-08
12 *620:10 *1002:A 9.31704e-06
13 *621:6 *773:27 1.55335e-05
14 *621:12 *773:27 8.06436e-06
*RES
1 *1741:Y *773:4 17.2 
2 *773:4 *773:10 40.4242 
3 *773:10 *1002:A 37.0741 
4 *773:4 *773:27 49.5168 
5 *773:27 *1004:A 17.2 
*END

*D_NET *774 0.000215583
*CONN
*I *988:A I *D AND4x1_ASAP7_75t_SL
*I *986:A I *D XNOR2x2_ASAP7_75t_SL
*I *1742:Y O *D BUFx3_ASAP7_75t_SL
*CAP
1 *988:A 0
2 *986:A 1.08715e-05
3 *1742:Y 2.31999e-05
4 *774:27 1.15954e-05
5 *774:12 5.66269e-05
6 *774:8 5.73599e-05
7 *774:12 *775:35 0
8 *774:27 *775:35 2.84533e-06
9 *774:27 *775:37 3.47607e-06
10 *1088:B *774:12 1.98924e-06
11 *1742:A *774:12 6.73121e-06
12 *6:27 *774:12 3.0628e-06
13 *9:27 *774:12 3.63081e-05
14 *598:30 *774:27 0
15 *606:8 *986:A 1.51653e-06
*RES
1 *1742:Y *774:8 42.4224 
2 *774:8 *774:12 48.7373 
3 *774:12 *986:A 22.0134 
4 *774:12 *774:27 43.2123 
5 *774:27 *988:A 17.2 
*END

*D_NET *775 0.000544787
*CONN
*I *988:B I *D AND4x1_ASAP7_75t_SL
*I *985:A I *D AND3x1_ASAP7_75t_SL
*I *979:A I *D AND3x1_ASAP7_75t_SL
*I *978:B I *D AOI21x1_ASAP7_75t_SL
*I *1743:Y O *D BUFx3_ASAP7_75t_SL
*CAP
1 *988:B 1.97787e-06
2 *985:A 0
3 *979:A 0
4 *978:B 2.1639e-05
5 *1743:Y 1.33454e-05
6 *775:60 8.80625e-06
7 *775:52 5.39675e-05
8 *775:43 1.58674e-05
9 *775:37 7.12122e-05
10 *775:35 2.08616e-05
11 *775:31 2.61385e-05
12 *775:23 3.30759e-05
13 *775:10 5.06219e-05
14 *775:23 *1535:CLK 1.59615e-06
15 *775:35 *776:60 7.90032e-06
16 *775:37 *776:60 3.33318e-05
17 *775:43 *776:10 6.97416e-06
18 *775:43 *776:16 8.46363e-06
19 *775:43 *776:60 3.34407e-05
20 *775:43 *888:20 0
21 *775:52 *980:B 2.31575e-05
22 *775:60 *820:327 7.59847e-06
23 *775:60 *896:47 7.90851e-06
24 *985:C *775:60 3.89037e-06
25 *1088:C *775:23 3.00838e-05
26 *1088:C *775:31 2.31575e-05
27 *8:6 *775:23 2.66207e-05
28 *8:21 *775:10 0
29 *9:27 *775:37 0
30 *166:10 *775:43 4.10928e-06
31 *167:10 *978:B 0
32 *529:105 *978:B 2.19685e-06
33 *598:30 *988:B 5.22376e-07
34 *601:8 *978:B 0
35 *607:12 *775:52 0
36 *655:12 *775:10 0
37 *774:12 *775:35 0
38 *774:27 *775:35 2.84533e-06
39 *774:27 *775:37 3.47607e-06
*RES
1 *1743:Y *775:10 42.7625 
2 *775:10 *978:B 49.6055 
3 *775:10 *775:23 33.7796 
4 *775:23 *775:31 44.1686 
5 *775:31 *775:35 23.958 
6 *775:35 *775:37 11.2633 
7 *775:37 *775:43 34.6015 
8 *775:43 *979:A 17.2 
9 *775:37 *775:52 38.0582 
10 *775:52 *775:60 42.2276 
11 *775:60 *985:A 17.2 
12 *775:35 *988:B 35.4697 
*END

*D_NET *776 0.000640968
*CONN
*I *978:A1 I *D AOI21x1_ASAP7_75t_SL
*I *988:C I *D AND4x1_ASAP7_75t_SL
*I *979:B I *D AND3x1_ASAP7_75t_SL
*I *973:A I *D NOR2x1_ASAP7_75t_SL
*I *985:B I *D AND3x1_ASAP7_75t_SL
*I *972:B I *D OA211x2_ASAP7_75t_SL
*I *1744:Y O *D BUFx3_ASAP7_75t_SL
*CAP
1 *978:A1 0
2 *988:C 0
3 *979:B 0
4 *973:A 0
5 *985:B 0
6 *972:B 0
7 *1744:Y 0
8 *776:71 4.00267e-05
9 *776:60 1.38599e-05
10 *776:39 1.59233e-05
11 *776:24 1.59233e-05
12 *776:22 2.17186e-05
13 *776:16 4.94147e-05
14 *776:10 2.86745e-05
15 *776:8 4.62696e-05
16 *776:4 7.14581e-05
17 *776:16 *820:378 0
18 *776:16 *888:10 2.28976e-06
19 *776:16 *888:20 0
20 *776:22 *1863:A 7.63254e-07
21 *776:22 *820:327 2.77657e-06
22 *776:22 *888:10 3.81627e-06
23 *776:22 *896:32 2.35022e-05
24 *776:22 *896:47 8.46363e-06
25 *776:39 *820:327 1.66659e-05
26 *973:B *776:16 1.06092e-05
27 *973:B *776:22 1.9914e-05
28 *979:C *776:8 1.40419e-08
29 *980:A2 *776:71 0
30 *985:C *776:39 2.03526e-06
31 *988:D *776:60 3.21037e-05
32 *216:10 *776:39 1.66659e-05
33 *529:76 *776:16 2.00223e-05
34 *529:87 *776:10 8.58704e-06
35 *529:87 *776:16 6.97416e-06
36 *529:87 *776:60 3.50609e-05
37 *595:8 *776:16 0
38 *598:38 *776:60 3.73518e-07
39 *600:8 *776:8 2.66207e-05
40 *722:61 *776:22 8.46363e-06
41 *722:61 *776:39 1.36155e-06
42 *722:74 *776:39 5.0551e-07
43 *775:35 *776:60 7.90032e-06
44 *775:37 *776:60 3.33318e-05
45 *775:43 *776:10 6.97416e-06
46 *775:43 *776:16 8.46363e-06
47 *775:43 *776:60 3.34407e-05
*RES
1 *1744:Y *776:4 17.2 
2 *776:4 *776:8 31.6403 
3 *776:8 *776:10 2.81583 
4 *776:10 *776:16 39.5813 
5 *776:16 *776:22 37.4987 
6 *776:22 *776:24 17.2 
7 *776:24 *972:B 17.2 
8 *776:24 *776:39 46.4496 
9 *776:39 *985:B 17.2 
10 *776:16 *973:A 17.2 
11 *776:10 *979:B 34.4 
12 *776:8 *776:60 41.9793 
13 *776:60 *988:C 17.2 
14 *776:4 *776:71 39.2448 
15 *776:71 *978:A1 34.4 
*END

*D_NET *777 0.000144315
*CONN
*I *965:A I *D INVx1_ASAP7_75t_SL
*I *967:A2 I *D AOI211x1_ASAP7_75t_SL
*I *1745:Y O *D BUFx3_ASAP7_75t_SL
*CAP
1 *965:A 1.33589e-05
2 *967:A2 5.71373e-06
3 *1745:Y 3.24495e-06
4 *777:10 3.88497e-05
5 *777:8 2.30221e-05
6 *965:A *836:31 3.65131e-06
7 *165:8 *777:10 0
8 *585:18 *965:A 1.67815e-06
9 *585:22 *967:A2 3.31198e-05
10 *587:6 *967:A2 8.39579e-06
11 *592:28 *777:8 2.28976e-06
12 *607:12 *967:A2 1.04475e-06
13 *607:16 *965:A 9.94583e-06
*RES
1 *1745:Y *777:8 36.0045 
2 *777:8 *777:10 14.0792 
3 *777:10 *967:A2 44.5617 
4 *777:10 *965:A 43.8321 
*END

*D_NET *778 6.17759e-05
*CONN
*I *959:B I *D XOR2x2_ASAP7_75t_SL
*I *1746:Y O *D BUFx3_ASAP7_75t_SL
*CAP
1 *959:B 8.29484e-06
2 *1746:Y 8.29484e-06
3 *959:B *853:27 1.37386e-05
4 *11:14 *959:B 1.55843e-05
5 *79:18 *959:B 1.58634e-05
*RES
1 *1746:Y *959:B 48.8403 
*END

*D_NET *779 0.000134212
*CONN
*I *956:A I *D INVx1_ASAP7_75t_SL
*I *962:C I *D AND3x1_ASAP7_75t_SL
*I *1453:D I *D AND4x1_ASAP7_75t_SL
*I *1747:Y O *D BUFx3_ASAP7_75t_SL
*CAP
1 *956:A 0
2 *962:C 1.22803e-05
3 *1453:D 1.3836e-05
4 *1747:Y 2.13668e-05
5 *779:8 2.61163e-05
6 *779:6 2.13668e-05
7 *962:C *815:88 1.07227e-06
8 *1453:D *789:16 1.66052e-05
9 *1453:D *815:88 4.38943e-06
10 *78:20 *779:6 6.53466e-06
11 *581:8 *779:6 0
12 *581:14 *962:C 3.05118e-08
13 *585:8 *962:C 1.06138e-05
*RES
1 *1747:Y *779:6 26.292 
2 *779:6 *779:8 17.2 
3 *779:8 *1453:D 43.1839 
4 *779:8 *962:C 41.9726 
5 *779:6 *956:A 17.2 
*END

*D_NET *780 0.000299791
*CONN
*I *1447:D I *D AND5x2_ASAP7_75t_SL
*I *1417:A I *D AND4x2_ASAP7_75t_SL
*I *951:A I *D NOR2x1_ASAP7_75t_SL
*I *1748:Y O *D BUFx3_ASAP7_75t_SL
*CAP
1 *1447:D 9.3089e-06
2 *1417:A 1.08554e-06
3 *951:A 0
4 *1748:Y 2.70811e-05
5 *780:21 3.20203e-05
6 *780:10 3.19933e-05
7 *780:8 3.74486e-05
8 *780:21 *946:A 4.83862e-06
9 *780:21 *1417:B 8.20229e-06
10 *780:21 *781:16 1.86019e-05
11 *1447:E *1417:A 3.90258e-06
12 *1447:E *1447:D 1.10558e-05
13 *1748:A *780:8 5.0551e-07
14 *490:35 *780:8 3.13426e-06
15 *496:16 *1447:D 6.7842e-07
16 *496:24 *1417:A 3.90258e-06
17 *496:24 *1447:D 3.57251e-05
18 *572:10 *780:21 0
19 *573:8 *780:10 2.62125e-05
20 *573:8 *780:21 2.76426e-05
21 *576:16 *780:8 0
22 *577:12 *780:8 1.64509e-05
*RES
1 *1748:Y *780:8 47.7706 
2 *780:8 *780:10 9.01066 
3 *780:10 *951:A 34.4 
4 *780:10 *780:21 36.9108 
5 *780:21 *1417:A 18.2696 
6 *780:21 *1447:D 28.4313 
*END

*D_NET *781 0.000380397
*CONN
*I *1447:B I *D AND5x2_ASAP7_75t_SL
*I *1417:B I *D AND4x2_ASAP7_75t_SL
*I *950:A I *D AND3x1_ASAP7_75t_SL
*I *946:A I *D XNOR2x2_ASAP7_75t_SL
*I *1749:Y O *D BUFx3_ASAP7_75t_SL
*CAP
1 *1447:B 8.25607e-06
2 *1417:B 8.5368e-06
3 *950:A 1.22975e-05
4 *946:A 9.6199e-06
5 *1749:Y 0
6 *781:16 3.20599e-05
7 *781:14 1.86793e-05
8 *781:12 5.20649e-05
9 *781:8 8.54966e-05
10 *781:6 2.51756e-05
11 *781:8 *827:96 0
12 *946:B *946:A 3.81627e-06
13 *946:B *950:A 3.37667e-05
14 *1447:E *1417:B 5.41446e-06
15 *13:23 *781:8 1.6136e-06
16 *486:26 *1447:B 0
17 *486:26 *781:8 0
18 *491:12 *781:8 5.67735e-06
19 *493:10 *1447:B 0
20 *493:10 *781:8 0
21 *496:16 *781:12 1.54461e-06
22 *496:24 *781:12 4.13593e-05
23 *499:12 *781:16 0
24 *499:114 *1417:B 0
25 *572:10 *1417:B 0
26 *576:10 *781:8 0
27 *753:19 *946:A 2.61188e-06
28 *753:19 *950:A 7.63254e-07
29 *780:21 *946:A 4.83862e-06
30 *780:21 *1417:B 8.20229e-06
31 *780:21 *781:16 1.86019e-05
*RES
1 *1749:Y *781:6 34.4 
2 *781:6 *781:8 17.4581 
3 *781:8 *781:12 43.4064 
4 *781:12 *781:14 17.2 
5 *781:14 *781:16 6.75799 
6 *781:16 *946:A 41.9726 
7 *781:16 *950:A 45.0965 
8 *781:14 *1417:B 41.073 
9 *781:8 *1447:B 42.0293 
*END

*D_NET *782 0.000150632
*CONN
*I *1768:A I *D BUFx3_ASAP7_75t_SL
*I *1171:B I *D AND5x2_ASAP7_75t_SL
*I *1750:Y O *D BUFx3_ASAP7_75t_SL
*CAP
1 *1768:A 1.45872e-05
2 *1171:B 6.25215e-06
3 *1750:Y 8.93198e-06
4 *782:10 2.97714e-05
5 *1171:B *865:20 4.92332e-06
6 *1768:A *800:18 0
7 *782:10 *856:27 1.35807e-05
8 *41:12 *1768:A 1.09842e-06
9 *41:12 *782:10 1.71381e-06
10 *401:10 *1768:A 4.40233e-05
11 *401:10 *782:10 1.94861e-05
12 *723:44 *1768:A 0
13 *732:8 *1768:A 6.2635e-06
*RES
1 *1750:Y *782:10 42.7625 
2 *782:10 *1171:B 38.1438 
3 *782:10 *1768:A 49.6055 
*END

*D_NET *783 0.000255735
*CONN
*I *940:B I *D AOI21x1_ASAP7_75t_SL
*I *941:C I *D AND4x1_ASAP7_75t_SL
*I *1751:Y O *D BUFx3_ASAP7_75t_SL
*CAP
1 *940:B 0
2 *941:C 5.70408e-06
3 *1751:Y 5.0449e-06
4 *783:31 3.27843e-05
5 *783:16 6.09134e-05
6 *783:8 2.74699e-05
7 *783:31 *942:B 6.7842e-07
8 *941:D *941:C 2.90209e-08
9 *941:D *783:16 7.27208e-06
10 *941:D *783:31 2.06219e-05
11 *942:A1 *783:31 2.90269e-07
12 *942:A2 *783:31 1.17291e-05
13 *1751:A *783:16 8.20846e-06
14 *160:14 *783:16 4.91537e-06
15 *160:14 *783:31 2.38516e-05
16 *525:14 *783:31 4.68924e-06
17 *567:10 *783:31 4.30755e-06
18 *570:8 *783:31 1.00976e-05
19 *701:36 *783:31 2.71274e-05
*RES
1 *1751:Y *783:8 38.3422 
2 *783:8 *783:16 48.3905 
3 *783:16 *941:C 37.0741 
4 *783:16 *783:31 44.9295 
5 *783:31 *940:B 17.2 
*END

*D_NET *784 0.000176895
*CONN
*I *924:A I *D AND4x1_ASAP7_75t_SL
*I *915:A I *D XNOR2x2_ASAP7_75t_SL
*I *1752:Y O *D BUFx3_ASAP7_75t_SL
*CAP
1 *924:A 6.2013e-06
2 *915:A 0
3 *1752:Y 0
4 *784:8 1.1575e-05
5 *784:4 1.77763e-05
6 *924:A *786:28 5.51397e-07
7 *924:A *854:52 4.83849e-06
8 *784:8 *817:134 7.12444e-05
9 *784:8 *854:46 6.47083e-05
10 *17:10 *784:8 0
*RES
1 *1752:Y *784:4 17.2 
2 *784:4 *784:8 40.853 
3 *784:8 *915:A 34.4 
4 *784:4 *924:A 20.9438 
*END

*D_NET *785 0.000385093
*CONN
*I *1101:C I *D AND3x1_ASAP7_75t_SL
*I *921:A I *D INVx1_ASAP7_75t_SL
*I *1753:Y O *D BUFx3_ASAP7_75t_SL
*CAP
1 *1101:C 1.63852e-05
2 *921:A 1.47812e-05
3 *1753:Y 0
4 *785:21 5.87525e-05
5 *785:8 2.67166e-05
6 *785:4 5.43026e-05
7 *921:A *788:10 1.26454e-05
8 *921:A *788:14 1.75355e-05
9 *1101:C *881:10 2.23229e-05
10 *1756:A *921:A 2.20493e-06
11 *20:19 *785:8 9.94685e-06
12 *499:12 *1101:C 0
13 *499:114 *1101:C 0
14 *524:28 *785:8 4.91471e-05
15 *551:8 *921:A 4.57952e-06
16 *553:14 *785:21 8.87291e-05
17 *753:19 *785:21 7.04341e-06
*RES
1 *1753:Y *785:4 17.2 
2 *785:4 *785:8 33.5318 
3 *785:8 *921:A 49.3751 
4 *785:4 *785:21 48.7547 
5 *785:21 *1101:C 44.9585 
*END

*D_NET *786 0.000302989
*CONN
*I *924:B I *D AND4x1_ASAP7_75t_SL
*I *914:A I *D AND3x1_ASAP7_75t_SL
*I *912:A I *D XNOR2x2_ASAP7_75t_SL
*I *1754:Y O *D BUFx3_ASAP7_75t_SL
*CAP
1 *924:B 0
2 *914:A 0
3 *912:A 0
4 *1754:Y 9.06569e-06
5 *786:41 2.24858e-05
6 *786:28 3.8595e-05
7 *786:22 1.83193e-05
8 *786:18 4.77672e-05
9 *786:10 5.46227e-05
10 *786:18 *854:58 6.7203e-06
11 *786:28 *817:134 3.02246e-05
12 *786:28 *854:52 0
13 *786:28 *854:58 6.90042e-06
14 *786:41 *817:134 2.56377e-05
15 *786:41 *827:61 1.0391e-06
16 *924:A *786:28 5.51397e-07
17 *16:27 *786:10 0
18 *17:27 *786:18 4.70105e-07
19 *18:8 *786:41 1.21211e-05
20 *18:16 *786:10 4.53313e-06
21 *543:12 *786:28 5.49212e-07
22 *543:12 *786:41 2.19685e-06
23 *544:18 *786:41 8.66267e-06
24 *550:16 *786:18 6.36172e-06
25 *550:16 *786:28 8.2174e-07
26 *553:14 *786:10 5.34278e-06
*RES
1 *1754:Y *786:10 39.7394 
2 *786:10 *786:18 48.8671 
3 *786:18 *786:22 18.2696 
4 *786:22 *786:28 30.5459 
5 *786:28 *912:A 34.4 
6 *786:28 *786:41 37.442 
7 *786:41 *914:A 17.2 
8 *786:22 *924:B 17.2 
*END

*D_NET *787 0.00018689
*CONN
*I *899:A I *D XNOR2x2_ASAP7_75t_SL
*I *910:A I *D AND2x2_ASAP7_75t_SL
*I *1755:Y O *D BUFx3_ASAP7_75t_SL
*CAP
1 *899:A 2.71292e-06
2 *910:A 0
3 *1755:Y 1.32006e-05
4 *787:22 8.55533e-06
5 *787:14 3.14687e-05
6 *787:8 3.88269e-05
7 *787:14 *788:40 0
8 *787:22 *788:40 1.93545e-05
9 *1755:A *787:8 5.41446e-06
10 *17:31 *787:22 3.90258e-06
11 *17:52 *787:14 1.908e-06
12 *17:52 *787:22 0
13 *18:10 *787:22 8.33296e-06
14 *18:16 *787:22 2.31101e-05
15 *18:25 *787:14 9.58768e-06
16 *19:10 *899:A 4.10928e-06
17 *19:10 *787:14 1.41724e-06
18 *19:20 *787:14 6.76305e-06
19 *19:26 *787:14 0
20 *530:22 *787:8 2.66992e-06
21 *531:10 *899:A 3.47607e-06
22 *531:10 *787:14 6.33206e-07
23 *542:8 *787:22 1.44639e-06
*RES
1 *1755:Y *787:8 40.2831 
2 *787:8 *787:14 35.416 
3 *787:14 *787:22 45.6066 
4 *787:22 *910:A 17.2 
5 *787:8 *899:A 37.779 
*END

*D_NET *788 0.000341753
*CONN
*I *898:A I *D AND2x2_ASAP7_75t_SL
*I *910:B I *D AND2x2_ASAP7_75t_SL
*I *1449:A I *D INVx1_ASAP7_75t_SL
*I *1756:Y O *D BUFx3_ASAP7_75t_SL
*CAP
1 *898:A 0
2 *910:B 0
3 *1449:A 2.44101e-06
4 *1756:Y 2.47906e-05
5 *788:40 2.78991e-05
6 *788:29 3.08227e-05
7 *788:25 3.88902e-05
8 *788:14 5.23504e-05
9 *788:10 3.87334e-05
10 *914:B *788:40 0
11 *921:A *788:10 1.26454e-05
12 *921:A *788:14 1.75355e-05
13 *925:A1 *788:25 8.33296e-06
14 *17:31 *788:29 1.36155e-06
15 *17:31 *788:40 6.53466e-06
16 *18:10 *788:40 6.30218e-06
17 *18:16 *788:25 5.06496e-06
18 *526:10 *1449:A 6.7842e-07
19 *526:10 *788:14 2.97289e-06
20 *542:10 *788:25 0
21 *542:21 *788:25 0
22 *551:8 *1449:A 1.04475e-06
23 *551:8 *788:14 5.77516e-06
24 *551:10 *788:25 3.54456e-05
25 *554:8 *788:25 0
26 *555:14 *788:25 2.77657e-06
27 *787:14 *788:40 0
28 *787:22 *788:40 1.93545e-05
*RES
1 *1756:Y *788:10 47.4342 
2 *788:10 *788:14 29.501 
3 *788:14 *1449:A 18.8045 
4 *788:14 *788:25 46.4846 
5 *788:25 *788:29 18.2696 
6 *788:29 *910:B 17.2 
7 *788:29 *788:40 35.5011 
8 *788:40 *898:A 34.4 
*END

*D_NET *789 0.000335101
*CONN
*I *1435:A I *D INVx1_ASAP7_75t_SL
*I *1453:A I *D AND4x1_ASAP7_75t_SL
*I *962:A I *D AND3x1_ASAP7_75t_SL
*I *1434:A I *D AND2x2_ASAP7_75t_SL
*I *1757:Y O *D BUFx3_ASAP7_75t_SL
*CAP
1 *1435:A 0
2 *1453:A 0
3 *962:A 3.8216e-06
4 *1434:A 6.97317e-06
5 *1757:Y 3.76455e-05
6 *789:18 1.07948e-05
7 *789:16 1.43715e-05
8 *789:14 2.66808e-05
9 *789:6 4.99549e-05
10 *1434:A *815:88 0
11 *1434:A *853:42 2.20128e-06
12 *789:6 *820:325 9.30483e-06
13 *789:6 *820:378 2.66207e-05
14 *789:14 *896:21 8.33296e-06
15 *1453:C *962:A 1.9464e-05
16 *1453:C *1434:A 8.19503e-06
17 *1453:D *789:16 1.66052e-05
18 *10:16 *962:A 1.62383e-05
19 *10:16 *789:16 7.79295e-06
20 *513:8 *789:14 2.03526e-06
21 *515:14 *789:6 1.40419e-08
22 *529:10 *789:16 3.28892e-05
23 *529:68 *789:14 9.75645e-06
24 *529:68 *789:16 1.48376e-05
25 *722:18 *962:A 7.84037e-07
26 *722:18 *1434:A 9.78663e-06
*RES
1 *1757:Y *789:6 34.8492 
2 *789:6 *789:14 42.5641 
3 *789:14 *789:16 11.7662 
4 *789:16 *789:18 17.2 
5 *789:18 *1434:A 42.2843 
6 *789:18 *962:A 41.158 
7 *789:16 *1453:A 17.2 
8 *789:14 *1435:A 17.2 
*END

*D_NET *790 0.000268949
*CONN
*I *1422:A I *D INVx1_ASAP7_75t_SL
*I *1402:A I *D NAND2x1_ASAP7_75t_SL
*I *1758:Y O *D BUFx3_ASAP7_75t_SL
*CAP
1 *1422:A 0
2 *1402:A 9.90087e-06
3 *1758:Y 2.84205e-05
4 *790:18 4.75495e-05
5 *790:12 3.76486e-05
6 *790:10 2.84205e-05
7 *1402:A *1402:B 1.32074e-05
8 *1402:A *886:10 5.0551e-07
9 *1402:A *887:8 9.75645e-06
10 *790:10 *1424:B 0
11 *790:10 *820:39 0
12 *790:18 *791:8 0
13 *790:18 *791:29 0
14 *790:18 *820:26 0
15 *1758:A *790:10 8.20846e-06
16 *3:22 *790:18 9.24628e-07
17 *141:8 *790:10 7.64042e-07
18 *503:18 *790:18 0
19 *504:12 *790:10 5.98994e-07
20 *504:12 *790:18 2.32593e-05
21 *628:10 *790:18 7.32095e-07
22 *629:8 *790:18 3.80472e-05
23 *676:10 *790:10 1.75292e-05
24 *676:10 *790:18 0
25 *676:27 *790:18 3.47607e-06
*RES
1 *1758:Y *790:10 49.6869 
2 *790:10 *790:12 17.2 
3 *790:12 *790:18 44.4834 
4 *790:18 *1402:A 41.3527 
5 *790:12 *1422:A 17.2 
*END

*D_NET *791 0.000399756
*CONN
*I *1423:B I *D AND4x1_ASAP7_75t_SL
*I *1421:B I *D AOI21x1_ASAP7_75t_SL
*I *1402:B I *D NAND2x1_ASAP7_75t_SL
*I *1425:A I *D AND3x1_ASAP7_75t_SL
*I *1759:Y O *D BUFx3_ASAP7_75t_SL
*CAP
1 *1423:B 1.54205e-06
2 *1421:B 0
3 *1402:B 5.12788e-06
4 *1425:A 1.49485e-05
5 *1759:Y 0
6 *791:39 2.35403e-05
7 *791:31 2.82727e-05
8 *791:29 2.0064e-05
9 *791:14 3.87765e-05
10 *791:8 5.95213e-05
11 *791:6 2.70317e-05
12 *1423:B *886:27 1.40419e-08
13 *791:31 *886:27 2.52755e-06
14 *791:39 *1421:A1 1.89962e-06
15 *791:39 *1421:A2 1.66587e-05
16 *791:39 *886:10 6.80131e-06
17 *791:39 *886:27 7.86349e-07
18 *1402:A *1402:B 1.32074e-05
19 *3:12 *1425:A 0
20 *3:14 *791:14 2.72554e-05
21 *31:20 *791:8 0
22 *32:8 *791:8 5.13209e-07
23 *73:34 *1425:A 0
24 *502:12 *791:39 1.6136e-06
25 *503:10 *791:8 2.18135e-06
26 *503:18 *1423:B 1.93908e-06
27 *503:18 *791:29 4.83862e-06
28 *503:18 *791:31 5.85387e-06
29 *505:8 *1425:A 1.7743e-05
30 *505:10 *1425:A 1.49407e-08
31 *506:8 *1425:A 4.17901e-06
32 *508:10 *1425:A 5.79724e-07
33 *629:8 *791:39 5.37569e-06
34 *676:10 *791:8 5.83613e-05
35 *676:27 *791:8 8.58704e-06
36 *790:18 *791:8 0
37 *790:18 *791:29 0
*RES
1 *1759:Y *791:6 34.4 
2 *791:6 *791:8 24.7793 
3 *791:8 *791:14 49.9099 
4 *791:14 *1425:A 46.5062 
5 *791:8 *791:29 22.8317 
6 *791:29 *791:31 6.95272 
7 *791:31 *791:39 49.3504 
8 *791:39 *1402:B 20.9438 
9 *791:31 *1421:B 17.2 
10 *791:29 *1423:B 18.2696 
*END

*D_NET *792 0.000138222
*CONN
*I *1188:A I *D OR3x1_ASAP7_75t_SL
*I *1082:A I *D NAND2x1_ASAP7_75t_SL
*I *1193:E I *D OR5x1_ASAP7_75t_SL
*I *1760:Y O *D BUFx3_ASAP7_75t_SL
*CAP
1 *1188:A 1.56073e-05
2 *1082:A 2.60129e-06
3 *1193:E 5.4156e-06
4 *1760:Y 1.45345e-05
5 *792:21 3.67228e-05
6 *792:8 3.84644e-05
7 *1188:B *1188:A 1.59615e-06
8 *1:45 *1193:E 2.12481e-06
9 *1:45 *792:8 7.58265e-07
10 *189:75 *1188:A 2.98814e-06
11 *189:75 *1193:E 1.07573e-06
12 *189:75 *792:21 1.91241e-06
13 *264:61 *1193:E 6.33206e-07
14 *264:61 *792:21 3.16603e-06
15 *298:28 *1188:A 0
16 *298:28 *792:21 0
17 *306:6 *792:8 8.39579e-06
18 *717:62 *1082:A 2.90209e-08
19 *717:62 *1188:A 2.19685e-06
*RES
1 *1760:Y *792:8 42.4224 
2 *792:8 *1193:E 38.8203 
3 *792:8 *792:21 12.9528 
4 *792:21 *1082:A 35.4697 
5 *792:21 *1188:A 46.0848 
*END

*D_NET *793 0.000134677
*CONN
*I *1396:C I *D OA211x2_ASAP7_75t_SL
*I *1761:Y O *D BUFx3_ASAP7_75t_SL
*CAP
1 *1396:C 0
2 *1761:Y 3.53014e-05
3 *793:14 5.59792e-06
4 *793:6 4.08993e-05
5 *793:14 *844:150 2.83874e-07
6 *403:14 *793:14 0
7 *415:18 *793:14 5.19498e-06
8 *481:8 *793:6 4.73997e-05
*RES
1 *1761:Y *793:6 35.9189 
2 *793:6 *793:14 39.4118 
3 *793:14 *1396:C 17.2 
*END

*D_NET *794 0.000448816
*CONN
*I *1393:A I *D NAND3x1_ASAP7_75t_SL
*I *1386:A I *D AND3x1_ASAP7_75t_SL
*I *1387:B I *D AOI21x1_ASAP7_75t_SL
*I *1762:Y O *D BUFx3_ASAP7_75t_SL
*CAP
1 *1393:A 7.18634e-06
2 *1386:A 5.54748e-06
3 *1387:B 2.4378e-06
4 *1762:Y 1.59415e-05
5 *794:33 5.10999e-05
6 *794:27 5.02581e-05
7 *794:14 5.41394e-05
8 *794:12 4.69959e-05
9 *794:10 2.31278e-05
10 *794:27 *860:32 2.22736e-06
11 *183:20 *794:10 1.2903e-05
12 *346:24 *794:33 2.33715e-05
13 *466:8 *1393:A 1.64348e-06
14 *466:12 *1387:B 5.85387e-06
15 *466:12 *794:14 0.000125532
16 *466:18 *794:27 1.182e-05
17 *473:8 *794:33 0
18 *474:8 *1386:A 1.78854e-06
19 *478:10 *1393:A 0
20 *478:10 *794:10 0
21 *705:10 *794:33 0
22 *705:58 *794:27 5.79724e-07
23 *705:58 *794:33 1.69183e-06
24 *767:10 *794:33 4.67119e-06
*RES
1 *1762:Y *794:10 43.8888 
2 *794:10 *794:12 17.2 
3 *794:12 *794:14 37.9726 
4 *794:14 *1387:B 18.8045 
5 *794:14 *794:27 39.4685 
6 *794:27 *794:33 39.5246 
7 *794:33 *1386:A 37.0741 
8 *794:10 *1393:A 40.0317 
*END

*D_NET *795 0.000189483
*CONN
*I *1378:A I *D OR2x2_ASAP7_75t_SL
*I *1377:A I *D NAND2x1_ASAP7_75t_SL
*I *1393:B I *D NAND3x1_ASAP7_75t_SL
*I *1763:Y O *D BUFx3_ASAP7_75t_SL
*CAP
1 *1378:A 1.99845e-06
2 *1377:A 2.58526e-06
3 *1393:B 0
4 *1763:Y 2.06757e-05
5 *795:24 2.49464e-05
6 *795:18 4.44068e-05
7 *795:16 2.72429e-05
8 *795:8 2.90451e-05
9 *1377:B *1377:A 1.36155e-06
10 *1378:B *795:18 0
11 *35:12 *795:8 0
12 *346:6 *795:24 1.1364e-05
13 *463:14 *795:24 0
14 *464:8 *795:24 5.52807e-07
15 *465:8 *795:18 6.40748e-07
16 *465:8 *795:24 2.19685e-06
17 *466:8 *795:24 1.62666e-05
18 *478:8 *795:24 1.56713e-06
19 *692:45 *795:24 2.98532e-06
20 *730:8 *795:18 1.09842e-06
21 *730:8 *795:24 5.49212e-07
*RES
1 *1763:Y *795:8 49.6055 
2 *795:8 *795:16 39.8333 
3 *795:16 *795:18 10.137 
4 *795:18 *795:24 39.3015 
5 *795:24 *1393:B 17.2 
6 *795:18 *1377:A 35.4697 
7 *795:16 *1378:A 36.0045 
*END

*D_NET *796 0.000399726
*CONN
*I *1376:B I *D AND4x1_ASAP7_75t_SL
*I *1365:A I *D AND3x1_ASAP7_75t_SL
*I *1355:B I *D AOI21x1_ASAP7_75t_SL
*I *1356:A I *D AND3x1_ASAP7_75t_SL
*I *1764:Y O *D BUFx3_ASAP7_75t_SL
*CAP
1 *1376:B 0
2 *1365:A 0
3 *1355:B 2.11621e-06
4 *1356:A 0
5 *1764:Y 6.22522e-06
6 *796:67 6.24445e-06
7 *796:54 9.22438e-06
8 *796:30 2.37048e-05
9 *796:22 7.57545e-05
10 *796:16 9.34867e-05
11 *796:14 7.78725e-05
12 *796:8 4.35244e-05
13 *796:14 *797:10 5.37866e-07
14 *796:14 *797:40 1.52651e-06
15 *796:14 *860:32 2.4397e-06
16 *796:14 *860:73 5.79724e-07
17 *796:14 *860:86 7.20078e-06
18 *796:16 *797:40 3.65131e-06
19 *796:30 *860:44 1.26378e-06
20 *796:54 *797:48 1.77102e-06
21 *796:54 *797:60 1.53359e-06
22 *796:67 *797:40 3.79923e-06
23 *796:67 *797:48 0
24 *1355:A2 *796:30 2.12481e-06
25 *1356:C *796:30 8.31397e-06
26 *1764:A *796:8 7.72307e-07
27 *36:37 *796:14 5.58366e-06
28 *133:14 *796:54 3.05118e-08
29 *444:10 *796:30 5.52652e-06
30 *452:18 *1355:B 0
31 *454:10 *796:14 1.301e-05
32 *752:48 *796:30 1.908e-06
*RES
1 *1764:Y *796:8 37.0741 
2 *796:8 *796:14 47.5259 
3 *796:14 *796:16 12.301 
4 *796:16 *796:22 38.2282 
5 *796:22 *796:30 49.3504 
6 *796:30 *1356:A 34.4 
7 *796:22 *1355:B 36.0895 
8 *796:16 *796:54 39.975 
9 *796:54 *1365:A 17.2 
10 *796:14 *796:67 39.975 
11 *796:67 *1376:B 17.2 
*END

*D_NET *797 0.000814438
*CONN
*I *1376:C I *D AND4x1_ASAP7_75t_SL
*I *1365:B I *D AND3x1_ASAP7_75t_SL
*I *1356:B I *D AND3x1_ASAP7_75t_SL
*I *1355:A1 I *D AOI21x1_ASAP7_75t_SL
*I *1347:A I *D INVx1_ASAP7_75t_SL
*I *1353:A1 I *D OA22x2_ASAP7_75t_SL
*I *1765:Y O *D BUFx3_ASAP7_75t_SL
*CAP
1 *1376:C 3.4416e-06
2 *1365:B 0
3 *1356:B 7.32961e-06
4 *1355:A1 8.16625e-06
5 *1347:A 0
6 *1353:A1 0
7 *1765:Y 6.49016e-06
8 *797:64 5.03972e-05
9 *797:60 4.69232e-05
10 *797:52 1.37314e-05
11 *797:48 2.85006e-05
12 *797:40 4.74906e-05
13 *797:20 2.31315e-05
14 *797:14 6.05085e-05
15 *797:12 6.64665e-05
16 *797:10 5.68611e-05
17 *797:8 5.15196e-05
18 *797:10 *860:32 6.26751e-06
19 *797:10 *860:73 1.33022e-05
20 *797:10 *860:86 3.70657e-05
21 *797:12 *860:32 2.46543e-05
22 *797:14 *860:32 0.000105582
23 *797:40 *860:32 0
24 *797:48 *860:36 0
25 *1047:D *797:10 0
26 *1353:A2 *797:20 2.53132e-05
27 *1356:C *1356:B 7.58545e-06
28 *1356:C *797:64 6.7842e-07
29 *1365:C *797:48 1.40419e-08
30 *1365:C *797:52 6.17507e-06
31 *1365:C *797:60 1.02586e-05
32 *1375:A2 *1376:C 1.27802e-05
33 *1376:D *1376:C 7.58545e-06
34 *1765:A *797:8 7.72307e-07
35 *36:14 *797:10 0
36 *37:8 *797:10 1.64348e-06
37 *38:10 *797:10 0
38 *133:14 *797:60 5.53343e-06
39 *135:10 *797:10 6.10236e-07
40 *135:10 *797:12 4.45472e-06
41 *135:10 *797:14 1.1686e-05
42 *183:10 *797:10 0
43 *443:8 *797:20 6.06409e-06
44 *444:10 *1355:A1 9.81516e-06
45 *444:10 *1356:B 1.00692e-05
46 *445:10 *797:64 0
47 *446:8 *1355:A1 0
48 *446:8 *1356:B 0
49 *453:8 *797:60 0
50 *471:16 *797:14 1.15945e-06
51 *471:16 *797:20 9.97906e-07
52 *692:27 *797:14 0
53 *705:36 *797:20 5.63702e-07
54 *708:31 *797:64 2.00282e-05
55 *796:14 *797:10 5.37866e-07
56 *796:14 *797:40 1.52651e-06
57 *796:16 *797:40 3.65131e-06
58 *796:54 *797:48 1.77102e-06
59 *796:54 *797:60 1.53359e-06
60 *796:67 *797:40 3.79923e-06
61 *796:67 *797:48 0
*RES
1 *1765:Y *797:8 37.0741 
2 *797:8 *797:10 36.6058 
3 *797:10 *797:12 9.01066 
4 *797:12 *797:14 40.548 
5 *797:14 *797:20 34.9909 
6 *797:20 *1353:A1 17.2 
7 *797:14 *1347:A 34.4 
8 *797:12 *797:40 48.054 
9 *797:40 *797:48 46.3645 
10 *797:48 *797:52 18.8045 
11 *797:52 *797:60 42.7058 
12 *797:60 *797:64 34.8492 
13 *797:64 *1355:A1 40.0317 
14 *797:64 *1356:B 40.4815 
15 *797:52 *1365:B 17.2 
16 *797:10 *1376:C 38.1438 
*END

*D_NET *798 0.00012305
*CONN
*I *1340:B I *D AND3x1_ASAP7_75t_SL
*I *1256:C I *D AND4x1_ASAP7_75t_SL
*I *1336:B I *D XOR2x2_ASAP7_75t_SL
*I *1766:Y O *D BUFx3_ASAP7_75t_SL
*CAP
1 *1340:B 3.76262e-06
2 *1256:C 0
3 *1336:B 0
4 *1766:Y 2.8372e-06
5 *798:20 1.53336e-05
6 *798:12 2.42965e-05
7 *798:10 1.27255e-05
8 *798:8 2.8372e-06
9 *1340:B *1256:D 2.96818e-06
10 *798:8 *807:66 5.68573e-06
11 *798:12 *1256:D 1.52651e-06
12 *39:12 *798:8 1.34402e-05
13 *39:12 *798:12 2.09987e-05
14 *39:12 *798:20 7.35354e-06
15 *40:18 *798:20 8.51183e-06
16 *357:6 *798:20 7.72307e-07
*RES
1 *1766:Y *798:8 38.9053 
2 *798:8 *798:10 17.2 
3 *798:10 *798:12 8.02238 
4 *798:12 *798:20 45.9714 
5 *798:20 *1336:B 17.2 
6 *798:12 *1256:C 17.2 
7 *798:10 *1340:B 19.8741 
*END

*D_NET *799 0.00033203
*CONN
*I *1462:B I *D HAxp5_ASAP7_75t_SL
*I *1340:C I *D AND3x1_ASAP7_75t_SL
*I *1256:D I *D AND4x1_ASAP7_75t_SL
*I *1332:A1 I *D AOI211x1_ASAP7_75t_SL
*I *1767:Y O *D BUFx3_ASAP7_75t_SL
*CAP
1 *1462:B 0
2 *1340:C 0
3 *1256:D 8.82847e-06
4 *1332:A1 0
5 *1767:Y 7.21556e-06
6 *799:45 1.03975e-05
7 *799:27 1.72971e-05
8 *799:25 6.00655e-05
9 *799:14 3.17172e-05
10 *799:8 8.0132e-05
11 *1256:D *807:51 3.89037e-06
12 *1256:D *807:66 7.35354e-06
13 *799:14 *1332:A2 2.66797e-07
14 *799:14 *862:37 4.16544e-05
15 *799:14 *870:8 5.37569e-06
16 *799:25 *819:93 8.84842e-06
17 *799:45 *807:66 0
18 *1331:B *799:14 2.76797e-06
19 *1340:B *1256:D 2.96818e-06
20 *39:12 *1256:D 1.73158e-05
21 *39:12 *799:45 0
22 *91:14 *799:8 5.17782e-06
23 *91:20 *799:14 0
24 *91:20 *799:25 0
25 *304:8 *799:14 0
26 *304:8 *799:25 0
27 *357:6 *1256:D 4.57952e-06
28 *424:8 *799:14 8.79754e-06
29 *699:29 *799:14 5.85387e-06
30 *798:12 *1256:D 1.52651e-06
*RES
1 *1767:Y *799:8 38.1438 
2 *799:8 *799:14 48.6523 
3 *799:14 *1332:A1 17.2 
4 *799:8 *799:25 48.1421 
5 *799:25 *799:27 5.34825 
6 *799:27 *1256:D 27.3617 
7 *799:27 *1340:C 17.2 
8 *799:25 *799:45 42.2843 
9 *799:45 *1462:B 17.2 
*END

*D_NET *800 0.000537789
*CONN
*I *1304:A2 I *D AO31x2_ASAP7_75t_SL
*I *1325:B I *D OAI21x1_ASAP7_75t_SL
*I *1326:A I *D OR3x1_ASAP7_75t_SL
*I *1768:Y O *D BUFx3_ASAP7_75t_SL
*CAP
1 *1304:A2 0
2 *1325:B 0
3 *1326:A 7.07503e-06
4 *1768:Y 2.94907e-06
5 *800:48 2.99975e-05
6 *800:40 4.66702e-05
7 *800:34 5.92709e-05
8 *800:26 4.38737e-05
9 *800:18 1.32766e-05
10 *800:14 3.6943e-05
11 *800:8 3.49659e-05
12 *800:34 *865:39 2.10815e-06
13 *800:34 *880:25 7.77071e-05
14 *800:40 *801:12 6.36499e-06
15 *800:40 *859:18 3.19543e-05
16 *1056:A *800:14 0
17 *1280:C *800:48 2.0895e-06
18 *1324:A *800:40 1.67815e-06
19 *1325:A1 *800:26 6.7842e-07
20 *1326:C *800:48 1.49407e-08
21 *1768:A *800:18 0
22 *189:29 *800:34 1.85761e-06
23 *193:26 *800:40 8.08836e-06
24 *286:20 *800:8 9.46253e-06
25 *378:8 *800:48 0
26 *399:12 *800:26 3.59323e-06
27 *408:18 *800:40 1.75616e-05
28 *419:8 *800:34 3.647e-06
29 *452:10 *800:40 6.85538e-05
30 *452:10 *800:48 0
31 *462:10 *800:8 9.46253e-06
32 *689:100 *800:40 0
33 *689:100 *800:48 5.85387e-06
34 *723:44 *800:18 1.1344e-05
35 *723:44 *800:26 7.47402e-07
*RES
1 *1768:Y *800:8 37.779 
2 *800:8 *800:14 46.701 
3 *800:14 *800:18 21.1422 
4 *800:18 *800:26 39.364 
5 *800:26 *800:34 49.0393 
6 *800:34 *800:40 45.6664 
7 *800:40 *800:48 45.2949 
8 *800:48 *1326:A 37.609 
9 *800:34 *1325:B 17.2 
10 *800:18 *1304:A2 17.2 
*END

*D_NET *801 0.000158255
*CONN
*I *1316:A I *D OR4x1_ASAP7_75t_SL
*I *1304:A3 I *D AO31x2_ASAP7_75t_SL
*I *1313:A I *D INVx1_ASAP7_75t_SL
*I *1769:Y O *D BUFx3_ASAP7_75t_SL
*CAP
1 *1316:A 3.58284e-06
2 *1304:A3 8.87351e-06
3 *1313:A 0
4 *1769:Y 3.86545e-06
5 *801:12 5.27015e-05
6 *801:8 5.12762e-05
7 *1316:A *859:18 4.83862e-06
8 *801:8 *859:18 9.8079e-06
9 *1304:B *1304:A3 5.09299e-06
10 *1325:A1 *1304:A3 5.0551e-07
11 *1325:A1 *801:12 2.68309e-06
12 *1325:A2 *801:12 4.30929e-06
13 *408:8 *801:12 0
14 *408:18 *1316:A 2.20493e-06
15 *408:18 *801:12 1.07377e-06
16 *408:22 *1316:A 2.52755e-07
17 *689:10 *1316:A 5.37866e-07
18 *689:10 *801:8 2.83874e-07
19 *800:40 *801:12 6.36499e-06
*RES
1 *1769:Y *801:8 37.779 
2 *801:8 *801:12 35.9189 
3 *801:12 *1313:A 17.2 
4 *801:12 *1304:A3 22.0134 
5 *801:8 *1316:A 38.2288 
*END

*D_NET *802 0.000445387
*CONN
*I *1305:A I *D AND5x1_ASAP7_75t_SL
*I *1314:A I *D NAND2x1_ASAP7_75t_SL
*I *1301:A I *D INVx1_ASAP7_75t_SL
*I *1770:Y O *D BUFx3_ASAP7_75t_SL
*CAP
1 *1305:A 2.09331e-05
2 *1314:A 0
3 *1301:A 0
4 *1770:Y 1.62831e-06
5 *802:33 2.86213e-05
6 *802:25 3.3377e-05
7 *802:14 2.39866e-05
8 *802:8 5.13037e-05
9 *802:8 *857:25 5.85387e-06
10 *802:8 *865:20 5.85387e-06
11 *1306:A1 *802:14 2.28976e-06
12 *1314:B *1305:A 4.1994e-05
13 *287:38 *802:14 1.94526e-06
14 *287:38 *802:25 1.09646e-05
15 *287:38 *802:33 6.22816e-06
16 *287:49 *802:33 2.68255e-06
17 *398:46 *802:25 7.7624e-06
18 *399:12 *802:14 2.49083e-06
19 *401:6 *1305:A 1.45275e-05
20 *409:6 *1305:A 2.66207e-05
21 *409:6 *802:25 1.3659e-05
22 *409:6 *802:33 9.52454e-06
23 *417:8 *802:33 7.3732e-06
24 *471:8 *802:14 3.35859e-05
25 *471:16 *802:14 2.27118e-05
26 *471:16 *802:25 5.08429e-05
27 *477:10 *802:14 5.58366e-06
28 *689:45 *802:25 1.16806e-05
29 *731:36 *1305:A 1.36155e-06
*RES
1 *1770:Y *802:8 36.0045 
2 *802:8 *802:14 40.5979 
3 *802:14 *1301:A 17.2 
4 *802:8 *802:25 39.5283 
5 *802:25 *802:33 39.89 
6 *802:33 *1314:A 17.2 
7 *802:33 *1305:A 38.593 
*END

*D_NET *803 0.000161177
*CONN
*I *1265:A I *D AND2x2_ASAP7_75t_SL
*I *1259:A I *D XOR2x2_ASAP7_75t_SL
*I *1771:Y O *D BUFx3_ASAP7_75t_SL
*CAP
1 *1265:A 0
2 *1259:A 0
3 *1771:Y 1.66864e-05
4 *803:21 2.47193e-05
5 *803:8 4.14057e-05
6 *803:8 *805:12 0
7 *803:8 *806:14 0
8 *803:8 *806:23 1.63973e-05
9 *803:21 *1265:B 1.385e-05
10 *803:21 *806:23 3.24812e-05
11 *49:23 *803:8 1.31828e-05
12 *347:36 *803:8 5.52807e-07
13 *347:36 *803:21 8.06799e-07
14 *348:8 *803:8 1.09493e-06
15 *359:8 *803:21 0
16 *765:50 *803:21 0
*RES
1 *1771:Y *803:8 48.4791 
2 *803:8 *1259:A 34.4 
3 *803:8 *803:21 38.4019 
4 *803:21 *1265:A 17.2 
*END

*D_NET *804 0.000219183
*CONN
*I *1275:A I *D XOR2x2_ASAP7_75t_SL
*I *1281:A I *D AND3x1_ASAP7_75t_SL
*I *1296:B I *D AND5x1_ASAP7_75t_SL
*I *1772:Y O *D BUFx3_ASAP7_75t_SL
*CAP
1 *1275:A 3.98208e-06
2 *1281:A 4.72297e-06
3 *1296:B 2.11538e-05
4 *1772:Y 2.59053e-05
5 *804:12 4.65282e-05
6 *804:10 2.82636e-05
7 *804:8 2.95354e-05
8 *1274:C *804:12 0
9 *1275:B *804:12 0
10 *1296:A *1296:B 2.52755e-07
11 *1772:A *804:8 2.20493e-06
12 *347:30 *1281:A 3.89037e-06
13 *347:30 *1296:B 5.79724e-07
14 *347:36 *1296:B 5.25794e-06
15 *357:51 *804:10 0
16 *357:51 *804:12 0
17 *357:59 *804:12 6.57356e-06
18 *357:69 *1281:A 1.59615e-06
19 *359:8 *1296:B 3.05118e-08
20 *374:10 *804:8 2.28976e-06
21 *375:10 *804:10 6.33206e-07
22 *375:14 *1275:A 7.63254e-07
23 *764:8 *1296:B 0
24 *764:8 *804:12 0
25 *766:12 *804:8 5.51397e-07
26 *766:36 *1281:A 4.41457e-06
27 *766:36 *1296:B 8.46363e-06
28 *766:36 *804:12 2.159e-05
*RES
1 *1772:Y *804:8 49.9099 
2 *804:8 *804:10 2.81583 
3 *804:10 *804:12 16.3318 
4 *804:12 *1296:B 45.9147 
5 *804:12 *1281:A 38.6786 
6 *804:10 *1275:A 37.0741 
*END

*D_NET *805 0.000106956
*CONN
*I *1267:A I *D XOR2x2_ASAP7_75t_SL
*I *1773:Y O *D BUFx3_ASAP7_75t_SL
*CAP
1 *1267:A 0
2 *1773:Y 0
3 *805:12 3.03963e-05
4 *805:6 3.03963e-05
5 *805:12 *806:14 1.51765e-05
6 *805:12 *806:23 0
7 *1246:B *805:12 1.15587e-05
8 *348:8 *805:12 0
9 *360:14 *805:12 1.94283e-05
10 *803:8 *805:12 0
*RES
1 *1773:Y *805:6 34.4 
2 *805:6 *805:12 42.6238 
3 *805:12 *1267:A 17.2 
*END

*D_NET *806 0.000233881
*CONN
*I *1265:B I *D AND2x2_ASAP7_75t_SL
*I *1258:A I *D AND4x1_ASAP7_75t_SL
*I *1246:A I *D XOR2x2_ASAP7_75t_SL
*I *1774:Y O *D BUFx3_ASAP7_75t_SL
*CAP
1 *1265:B 9.40423e-06
2 *1258:A 3.98189e-06
3 *1246:A 0
4 *1774:Y 1.14746e-05
5 *806:23 2.87667e-05
6 *806:14 1.72963e-05
7 *806:6 4.41514e-05
8 *347:42 *806:6 1.79628e-05
9 *347:42 *806:14 2.29378e-05
10 *803:8 *806:14 0
11 *803:8 *806:23 1.63973e-05
12 *803:21 *1265:B 1.385e-05
13 *803:21 *806:23 3.24812e-05
14 *805:12 *806:14 1.51765e-05
15 *805:12 *806:23 0
*RES
1 *1774:Y *806:6 23.0831 
2 *806:6 *806:14 46.4212 
3 *806:14 *1246:A 17.2 
4 *806:6 *806:23 33.5318 
5 *806:23 *1258:A 36.0045 
6 *806:23 *1265:B 40.5098 
*END

*D_NET *807 0.000431541
*CONN
*I *1462:A I *D HAxp5_ASAP7_75t_SL
*I *1340:A I *D AND3x1_ASAP7_75t_SL
*I *1226:A1 I *D AOI21x1_ASAP7_75t_SL
*I *1224:A I *D INVx1_ASAP7_75t_SL
*I *1256:A I *D AND4x1_ASAP7_75t_SL
*I *1775:Y O *D BUFx3_ASAP7_75t_SL
*CAP
1 *1462:A 0
2 *1340:A 0
3 *1226:A1 0
4 *1224:A 2.51154e-05
5 *1256:A 0
6 *1775:Y 2.32467e-05
7 *807:66 2.04479e-05
8 *807:51 2.22649e-05
9 *807:47 2.38949e-05
10 *807:25 5.49763e-05
11 *807:14 3.61711e-05
12 *807:8 7.64725e-05
13 *807:6 5.57652e-05
14 *1224:A *825:33 1.68491e-05
15 *807:6 *819:30 0
16 *807:8 *819:30 0
17 *807:14 *819:30 0
18 *807:25 *1228:B 4.07915e-06
19 *807:25 *825:33 2.17666e-05
20 *1256:D *807:51 3.89037e-06
21 *1256:D *807:66 7.35354e-06
22 *1341:A *807:14 2.05045e-06
23 *1341:A *807:47 0
24 *1775:A *807:6 2.28976e-06
25 *39:23 *807:14 8.70093e-06
26 *39:23 *807:47 0
27 *39:23 *807:66 0
28 *40:18 *807:14 5.79724e-07
29 *90:14 *807:6 2.12481e-06
30 *90:14 *807:25 0
31 *90:14 *807:47 8.2174e-07
32 *91:20 *807:6 2.12481e-06
33 *94:6 *807:66 2.6409e-06
34 *287:8 *807:14 1.19496e-05
35 *287:8 *807:25 0
36 *329:10 *807:25 2.78888e-07
37 *330:8 *1224:A 0
38 *431:8 *807:47 0
39 *798:8 *807:66 5.68573e-06
40 *799:45 *807:66 0
*RES
1 *1775:Y *807:6 28.4313 
2 *807:6 *807:8 4.81343 
3 *807:8 *807:14 42.7372 
4 *807:14 *1256:A 34.4 
5 *807:8 *807:25 40.853 
6 *807:25 *1224:A 48.054 
7 *807:25 *1226:A1 34.4 
8 *807:6 *807:47 35.7845 
9 *807:47 *807:51 18.2696 
10 *807:51 *1340:A 17.2 
11 *807:51 *807:66 48.1674 
12 *807:66 *1462:A 17.2 
*END

*D_NET *808 0.000543381
*CONN
*I *1080:A I *D NAND2x2_ASAP7_75t_SL
*I *1181:B I *D AO21x1_ASAP7_75t_SL
*I *1055:B I *D AOI21x1_ASAP7_75t_SL
*I *1182:A I *D NAND2x1_ASAP7_75t_SL
*I *1776:Y O *D BUFx3_ASAP7_75t_SL
*CAP
1 *1080:A 0
2 *1181:B 6.50056e-06
3 *1055:B 0
4 *1182:A 5.59436e-06
5 *1776:Y 4.86333e-06
6 *808:49 2.46963e-05
7 *808:34 3.90618e-05
8 *808:25 2.96173e-05
9 *808:12 5.83509e-05
10 *808:10 5.26433e-05
11 *808:6 4.22323e-05
12 *1182:A *861:108 1.32074e-05
13 *808:6 *836:83 1.60115e-05
14 *808:10 *836:75 1.91915e-05
15 *808:10 *836:83 4.56694e-05
16 *808:12 *866:10 0
17 *808:25 *809:35 7.84037e-07
18 *808:25 *809:41 8.69255e-06
19 *808:25 *866:10 0
20 *808:34 *820:363 1.96231e-05
21 *808:49 *809:6 6.81991e-06
22 *808:49 *809:10 1.14304e-05
23 *808:49 *820:363 5.64371e-05
24 *808:49 *861:96 0
25 *1179:C *808:12 0
26 *1182:B *808:12 0
27 *1184:B *808:25 2.25787e-06
28 *1776:A *808:10 2.20493e-06
29 *85:40 *808:12 0
30 *209:10 *808:49 2.03526e-06
31 *209:22 *808:12 1.26211e-05
32 *209:22 *808:25 1.05102e-05
33 *271:10 *808:25 1.60683e-05
34 *271:27 *808:49 5.00816e-06
35 *295:8 *808:10 1.1364e-05
36 *295:10 *808:12 0
37 *297:10 *808:49 1.98844e-05
38 *298:12 *808:25 0
39 *298:18 *808:25 0
40 *692:133 *808:25 0
*RES
1 *1776:Y *808:6 22.0134 
2 *808:6 *808:10 42.3368 
3 *808:10 *808:12 16.3318 
4 *808:12 *1182:A 38.1438 
5 *808:12 *808:25 41.9793 
6 *808:25 *1055:B 17.2 
7 *808:6 *808:34 23.958 
8 *808:34 *1181:B 37.0741 
9 *808:34 *808:49 46.0028 
10 *808:49 *1080:A 17.2 
*END

*D_NET *809 0.0011344
*CONN
*I *1055:A1 I *D AOI21x1_ASAP7_75t_SL
*I *1153:A1 I *D AO21x2_ASAP7_75t_SL
*I *1172:E I *D AND5x2_ASAP7_75t_SL
*I *1164:A I *D INVx1_ASAP7_75t_SL
*I *1179:A I *D AND3x1_ASAP7_75t_SL
*I *1178:A1 I *D AOI21x1_ASAP7_75t_SL
*I *1777:Y O *D BUFx6f_ASAP7_75t_SL
*CAP
1 *1055:A1 0
2 *1153:A1 0
3 *1172:E 3.35409e-05
4 *1164:A 0
5 *1179:A 1.76707e-06
6 *1178:A1 4.60699e-06
7 *1777:Y 4.96786e-05
8 *809:79 6.06592e-05
9 *809:68 3.3205e-05
10 *809:64 6.27881e-05
11 *809:49 3.61827e-05
12 *809:47 9.51071e-05
13 *809:43 1.44476e-05
14 *809:41 1.85013e-05
15 *809:35 2.36865e-05
16 *809:25 6.10138e-05
17 *809:10 6.31494e-05
18 *809:6 6.28499e-05
19 *809:6 *1080:B 9.9223e-06
20 *809:6 *858:14 9.15905e-06
21 *809:10 *820:363 4.53155e-06
22 *809:25 *820:363 7.27531e-06
23 *809:49 *866:10 8.3668e-07
24 *809:49 *868:8 0
25 *809:64 *866:10 1.49407e-08
26 *809:79 *1172:B 2.91638e-05
27 *809:79 *878:10 4.38229e-05
28 *1153:B *809:43 1.10486e-05
29 *1179:B *1179:A 1.36155e-06
30 *1179:C *809:49 1.12894e-06
31 *1713:A *809:68 0
32 *1713:A *809:79 0
33 *1853:A *809:79 1.0143e-05
34 *1:57 *809:64 6.18028e-06
35 *85:40 *809:49 1.12894e-06
36 *89:10 *809:49 1.12974e-05
37 *89:23 *809:49 2.21506e-05
38 *176:10 *809:41 3.31794e-05
39 *189:52 *809:79 2.63749e-05
40 *199:12 *809:79 5.37569e-06
41 *209:10 *809:6 1.95129e-06
42 *209:28 *809:49 7.57772e-05
43 *209:28 *809:64 1.27282e-05
44 *265:10 *809:79 0
45 *271:10 *809:41 4.83862e-06
46 *271:27 *809:10 4.57497e-06
47 *272:6 *809:43 6.70433e-06
48 *272:6 *809:47 3.65131e-06
49 *272:14 *809:64 1.04306e-05
50 *291:14 *809:64 2.99145e-05
51 *294:6 *1178:A1 1.3659e-05
52 *294:16 *1178:A1 1.95129e-06
53 *298:18 *809:35 5.52807e-07
54 *706:14 *1172:E 2.10457e-05
55 *707:10 *809:68 6.10236e-07
56 *707:10 *809:79 3.10828e-06
57 *711:31 *809:64 5.62271e-06
58 *711:58 *809:10 8.06436e-06
59 *711:58 *809:25 3.22574e-06
60 *711:62 *1178:A1 5.85387e-06
61 *711:64 *809:25 0
62 *720:10 *809:35 6.33206e-07
63 *720:21 *809:25 2.29147e-05
64 *720:21 *809:35 3.73144e-06
65 *759:6 *1178:A1 2.71368e-06
66 *769:18 *809:64 0
67 *769:126 *809:35 7.13905e-06
68 *808:25 *809:35 7.84037e-07
69 *808:25 *809:41 8.69255e-06
70 *808:49 *809:6 6.81991e-06
71 *808:49 *809:10 1.14304e-05
*RES
1 *1777:Y *809:6 43.4064 
2 *809:6 *809:10 28.4633 
3 *809:10 *1178:A1 38.1438 
4 *809:10 *809:25 44.8728 
5 *809:25 *809:35 46.8427 
6 *809:35 *809:41 45.6633 
7 *809:41 *809:43 8.02238 
8 *809:43 *809:47 19.8741 
9 *809:47 *809:49 33.2268 
10 *809:49 *1179:A 35.4697 
11 *809:47 *809:64 43.3856 
12 *809:64 *809:68 20.6729 
13 *809:68 *1164:A 34.4 
14 *809:68 *809:79 48.7373 
15 *809:79 *1172:E 32.7099 
16 *809:43 *1153:A1 17.2 
17 *809:25 *1055:A1 17.2 
*END

*D_NET *810 0.00143787
*CONN
*I *1368:B I *D OA21x2_ASAP7_75t_SL
*I *1361:B I *D NOR2x1_ASAP7_75t_SL
*I *1360:B I *D AND2x2_ASAP7_75t_SL
*I *1233:A2 I *D OA21x2_ASAP7_75t_SL
*I *1271:B I *D OR3x1_ASAP7_75t_SL
*I *1442:B I *D OR2x2_ASAP7_75t_SL
*I *1236:C I *D NOR3x1_ASAP7_75t_SL
*I *1253:D I *D OR4x1_ASAP7_75t_SL
*I *1293:C I *D OR4x1_ASAP7_75t_SL
*I *1380:C I *D OR3x1_ASAP7_75t_SL
*I *1778:Y O *D BUFx6f_ASAP7_75t_SL
*CAP
1 *1368:B 3.69668e-06
2 *1361:B 0
3 *1360:B 0
4 *1233:A2 0
5 *1271:B 0
6 *1442:B 9.97713e-06
7 *1236:C 0
8 *1253:D 0
9 *1293:C 0
10 *1380:C 9.97098e-06
11 *1778:Y 7.73046e-06
12 *810:157 2.82556e-05
13 *810:151 3.93806e-05
14 *810:138 1.90258e-05
15 *810:121 3.25504e-05
16 *810:108 3.19779e-05
17 *810:100 9.70849e-05
18 *810:98 4.25338e-05
19 *810:86 1.61745e-05
20 *810:76 3.64198e-05
21 *810:68 3.53731e-05
22 *810:66 2.58921e-05
23 *810:58 2.48023e-05
24 *810:56 3.49946e-05
25 *810:45 1.19143e-05
26 *810:39 3.57777e-05
27 *810:33 4.482e-05
28 *810:31 0.000101333
29 *810:29 0.000101333
30 *810:27 2.09399e-05
31 *810:21 4.9308e-05
32 *810:8 4.18654e-05
33 *1380:C *1380:B 6.92634e-06
34 *1380:C *844:126 1.96943e-05
35 *1442:B *1442:A 2.53753e-06
36 *1442:B *816:68 3.05118e-08
37 *810:8 *844:122 0
38 *810:8 *844:128 4.84588e-06
39 *810:21 *844:128 7.225e-05
40 *810:27 *1360:A 9.83747e-06
41 *810:27 *844:128 0
42 *810:27 *844:139 0
43 *810:27 *844:150 0
44 *810:39 *829:22 2.27303e-05
45 *810:45 *830:19 5.49212e-07
46 *810:56 *840:160 0
47 *810:58 *813:21 1.04475e-06
48 *810:66 *839:41 2.20966e-06
49 *810:66 *840:147 8.2174e-07
50 *810:68 *813:6 4.20803e-06
51 *810:76 *1781:A 0
52 *810:76 *813:6 1.59615e-06
53 *810:86 *1253:C 5.62196e-06
54 *810:86 *1781:A 8.06436e-06
55 *810:100 *814:19 0
56 *810:100 *829:20 1.93545e-05
57 *810:100 *840:26 0
58 *810:108 *840:26 0
59 *810:121 *834:38 1.40724e-05
60 *810:121 *834:44 4.41579e-05
61 *810:151 *844:128 0
62 *810:151 *844:139 0
63 *810:151 *844:150 0
64 *1254:B *810:76 9.67723e-06
65 *1293:D *810:45 3.55279e-06
66 *1362:A2 *810:157 5.85387e-06
67 *1368:A1 *810:21 0
68 *1373:A3 *810:157 2.8572e-05
69 *1697:A *810:100 0
70 *200:36 *810:27 1.55612e-05
71 *342:26 *1442:B 1.5876e-05
72 *342:26 *810:100 0
73 *342:26 *810:108 0
74 *343:14 *810:58 5.85387e-06
75 *343:14 *810:66 7.12028e-06
76 *343:14 *810:100 6.66346e-05
77 *344:12 *810:66 3.95007e-06
78 *354:8 *810:86 2.70601e-05
79 *363:8 *810:121 3.81627e-06
80 *363:10 *810:66 3.29527e-06
81 *363:10 *810:100 7.09684e-06
82 *370:10 *810:121 4.16007e-06
83 *383:14 *810:100 3.6309e-06
84 *383:37 *810:45 3.36331e-07
85 *384:53 *810:39 0
86 *384:53 *810:45 7.75e-06
87 *384:53 *810:56 0
88 *390:10 *810:45 1.34329e-05
89 *404:14 *810:100 0
90 *447:16 *810:151 0
91 *447:16 *810:157 1.66587e-05
92 *449:10 *810:138 7.72307e-07
93 *449:10 *810:151 1.38169e-06
94 *450:8 *810:151 1.34257e-05
95 *460:10 *810:157 1.09067e-06
96 *653:14 *810:31 2.74863e-05
97 *729:14 *810:100 1.34467e-07
98 *745:28 *810:21 0
99 *763:58 *810:151 0
*RES
1 *1778:Y *810:8 40.0317 
2 *810:8 *1380:C 43.492 
3 *810:8 *810:21 41.9793 
4 *810:21 *810:27 33.4998 
5 *810:27 *810:29 17.2 
6 *810:29 *810:31 45.4601 
7 *810:31 *810:33 17.2 
8 *810:33 *810:39 34.2897 
9 *810:39 *810:45 46.7897 
10 *810:45 *1293:C 17.2 
11 *810:33 *810:56 30.2625 
12 *810:56 *810:58 8.5572 
13 *810:58 *810:66 43.8888 
14 *810:66 *810:68 6.95272 
15 *810:68 *810:76 44.7317 
16 *810:76 *810:86 45.2382 
17 *810:86 *1253:D 17.2 
18 *810:68 *1236:C 17.2 
19 *810:58 *810:98 17.2 
20 *810:98 *810:100 40.548 
21 *810:100 *810:108 45.2949 
22 *810:108 *1442:B 42.2843 
23 *810:100 *810:121 41.8019 
24 *810:121 *1271:B 17.2 
25 *810:56 *1233:A2 17.2 
26 *810:29 *1360:B 17.2 
27 *810:21 *810:138 2.67412 
28 *810:138 *1361:B 17.2 
29 *810:138 *810:151 46.0281 
30 *810:151 *810:157 32.9933 
31 *810:157 *1368:B 36.0045 
*END

*D_NET *811 0.000275391
*CONN
*I *1160:A I *D NAND2x1_ASAP7_75t_SL
*I *1779:Y O *D BUFx3_ASAP7_75t_SL
*CAP
1 *1160:A 9.05642e-06
2 *1779:Y 5.47958e-05
3 *811:10 3.05531e-05
4 *811:6 7.62925e-05
5 *811:10 *820:123 0
6 *1664:A *1160:A 1.06092e-05
7 *1779:A *811:6 2.28976e-06
8 *86:27 *811:6 4.57952e-06
9 *95:12 *811:10 0
10 *266:37 *811:10 4.83862e-06
11 *266:41 *1160:A 3.90258e-06
12 *266:49 *1160:A 1.47193e-05
13 *278:10 *1160:A 1.32196e-05
14 *745:12 *811:6 8.93844e-06
15 *771:18 *811:10 3.02222e-05
16 *771:31 *811:10 1.13739e-05
*RES
1 *1779:Y *811:6 44.4761 
2 *811:6 *811:10 38.0371 
3 *811:10 *1160:A 42.9572 
*END

*D_NET *812 0.000786807
*CONN
*I *996:A I *D INVx1_ASAP7_75t_SL
*I *982:A2 I *D OAI21x1_ASAP7_75t_SL
*I *999:E I *D OR5x1_ASAP7_75t_SL
*I *983:C I *D OR3x1_ASAP7_75t_SL
*I *1445:B I *D NOR2x1_ASAP7_75t_SL
*I *1780:Y O *D BUFx3_ASAP7_75t_SL
*CAP
1 *996:A 0
2 *982:A2 0
3 *999:E 0
4 *983:C 0
5 *1445:B 3.9551e-05
6 *1780:Y 6.12502e-06
7 *812:79 1.56024e-05
8 *812:62 3.5356e-05
9 *812:51 5.56969e-06
10 *812:43 5.46328e-05
11 *812:39 4.26215e-05
12 *812:33 3.1358e-05
13 *812:25 2.94892e-05
14 *812:19 2.69492e-05
15 *812:10 5.50571e-05
16 *812:8 6.12502e-06
17 *1445:B *843:28 1.41622e-05
18 *812:8 *844:24 0
19 *812:19 *1389:C 3.89037e-06
20 *812:19 *838:12 4.30715e-05
21 *812:19 *838:20 2.29378e-05
22 *812:19 *842:28 3.89037e-06
23 *812:19 *842:41 2.50966e-05
24 *812:19 *843:28 8.90942e-06
25 *812:19 *843:37 1.56713e-06
26 *812:25 *842:41 4.79599e-06
27 *812:25 *843:47 5.52807e-07
28 *812:25 *843:122 1.10561e-06
29 *812:33 *844:37 2.57638e-06
30 *812:39 *995:B 6.17507e-06
31 *812:39 *843:60 4.42883e-05
32 *812:43 *843:60 2.27479e-06
33 *812:51 *983:B 1.95129e-06
34 *812:51 *850:19 1.65352e-05
35 *812:51 *872:128 1.90254e-05
36 *812:62 *999:D 3.30856e-06
37 *812:62 *828:8 8.1157e-06
38 *812:62 *850:19 2.83874e-07
39 *812:62 *872:128 5.37569e-06
40 *812:79 *844:71 2.18028e-05
41 *812:79 *849:25 2.32101e-06
42 *1000:A1 *812:51 2.20964e-06
43 *1780:A *1445:B 1.23408e-05
44 *1780:A *812:8 4.79599e-06
45 *83:10 *812:25 3.90551e-06
46 *83:29 *812:8 0
47 *83:29 *812:19 3.68287e-06
48 *84:39 *812:79 2.60255e-06
49 *334:12 *812:79 1.64406e-05
50 *469:8 *812:79 1.13395e-06
51 *476:6 *812:33 3.47348e-05
52 *476:6 *812:39 4.87536e-05
53 *476:6 *812:43 2.03526e-06
54 *476:10 *812:39 8.06436e-06
55 *603:8 *812:62 1.50718e-05
56 *700:8 *812:33 0
57 *700:8 *812:39 4.74248e-06
58 *746:79 *812:43 9.42744e-06
59 *746:79 *812:62 4.41457e-06
*RES
1 *1780:Y *812:8 39.4685 
2 *812:8 *812:10 17.2 
3 *812:10 *1445:B 43.4064 
4 *812:10 *812:19 21.9278 
5 *812:19 *812:25 43.4107 
6 *812:25 *812:33 47.3775 
7 *812:33 *812:39 34.5128 
8 *812:39 *812:43 30.5706 
9 *812:43 *812:51 42.171 
10 *812:51 *983:C 17.2 
11 *812:43 *812:62 32.7703 
12 *812:62 *999:E 34.4 
13 *812:62 *812:79 44.6112 
14 *812:79 *982:A2 34.4 
15 *812:19 *996:A 17.2 
*END

*D_NET *813 9.9634e-05
*CONN
*I *1233:A1 I *D OA21x2_ASAP7_75t_SL
*I *1236:B I *D NOR3x1_ASAP7_75t_SL
*I *1781:Y O *D BUFx3_ASAP7_75t_SL
*CAP
1 *1233:A1 0
2 *1236:B 0
3 *1781:Y 1.53951e-05
4 *813:21 2.0066e-05
5 *813:6 3.54611e-05
6 *813:21 *840:147 1.692e-05
7 *335:8 *813:21 0
8 *338:8 *813:21 3.29527e-06
9 *344:12 *813:21 1.64764e-06
10 *810:58 *813:21 1.04475e-06
11 *810:68 *813:6 4.20803e-06
12 *810:76 *813:6 1.59615e-06
*RES
1 *1781:Y *813:6 26.292 
2 *813:6 *1236:B 17.2 
3 *813:6 *813:21 49.237 
4 *813:21 *1233:A1 17.2 
*END

*D_NET *814 0.000199346
*CONN
*I *1293:B I *D OR4x1_ASAP7_75t_SL
*I *1309:A I *D OR4x1_ASAP7_75t_SL
*I *1241:B I *D OR3x1_ASAP7_75t_SL
*I *1782:Y O *D BUFx3_ASAP7_75t_SL
*CAP
1 *1293:B 0
2 *1309:A 0
3 *1241:B 0
4 *1782:Y 7.24442e-06
5 *814:44 1.77052e-05
6 *814:29 4.16224e-05
7 *814:19 3.80959e-05
8 *814:6 2.1423e-05
9 *814:6 *1241:A 7.29792e-06
10 *814:6 *829:14 8.06117e-06
11 *814:29 *830:19 0
12 *814:44 *830:19 1.1529e-05
13 *1293:D *814:44 3.89037e-06
14 *1309:D *814:29 2.20493e-06
15 *343:8 *814:19 1.21211e-05
16 *343:14 *814:19 0
17 *383:22 *814:29 2.80839e-08
18 *390:10 *814:44 1.29877e-05
19 *404:10 *814:19 1.12894e-06
20 *404:10 *814:29 1.12894e-06
21 *729:14 *814:19 4.32502e-06
22 *729:27 *814:29 8.55218e-06
23 *810:100 *814:19 0
*RES
1 *1782:Y *814:6 24.1527 
2 *814:6 *1241:B 17.2 
3 *814:6 *814:19 45.2382 
4 *814:19 *814:29 47.4909 
5 *814:29 *1309:A 17.2 
6 *814:29 *814:44 49.0387 
7 *814:44 *1293:B 17.2 
*END

*D_NET *815 0.00209765
*CONN
*I *1834:A I *D BUFx24_ASAP7_75t_SL
*I *1513:CLK I *D DFFHQNx1_ASAP7_75t_SL
*I *1534:CLK I *D DFFHQNx1_ASAP7_75t_SL
*I *1531:CLK I *D DFFHQNx1_ASAP7_75t_SL
*I *1506:CLK I *D DFFHQNx1_ASAP7_75t_SL
*I *1465:CLK I *D DFFHQNx1_ASAP7_75t_SL
*I *1463:CLK I *D DFFHQNx1_ASAP7_75t_SL
*I *1537:CLK I *D DFFHQNx1_ASAP7_75t_SL
*I *1536:CLK I *D DFFHQNx1_ASAP7_75t_SL
*I *1535:CLK I *D DFFHQNx1_ASAP7_75t_SL
*I *1783:Y O *D BUFx4_ASAP7_75t_SL
*CAP
1 *1834:A 2.46917e-05
2 *1513:CLK 0
3 *1534:CLK 0
4 *1531:CLK 0
5 *1506:CLK 0
6 *1465:CLK 0
7 *1463:CLK 0
8 *1537:CLK 0
9 *1536:CLK 1.48763e-05
10 *1535:CLK 6.54145e-05
11 *1783:Y 0
12 *815:106 7.36336e-05
13 *815:99 0.000116841
14 *815:88 0.000103699
15 *815:86 0.000154945
16 *815:84 4.69594e-05
17 *815:75 0.000106275
18 *815:68 0.000140119
19 *815:61 0.000173186
20 *815:59 0.000238265
21 *815:55 6.57858e-05
22 *815:46 1.12113e-05
23 *815:38 6.91102e-05
24 *815:20 6.96777e-05
25 *815:14 4.9113e-05
26 *815:10 9.94388e-05
27 *815:4 6.0347e-05
28 *1535:CLK *987:A1 1.04475e-06
29 *1536:CLK *994:B 3.48165e-06
30 *815:10 *836:44 0
31 *815:10 *836:48 4.71751e-06
32 *815:10 *846:202 8.96443e-08
33 *815:14 *994:B 2.03696e-05
34 *815:59 *820:363 1.18937e-05
35 *815:75 *858:8 0
36 *815:88 *957:A1 0
37 *815:88 *1437:A1 0
38 *815:88 *818:10 0
39 *815:88 *853:42 4.64191e-07
40 *962:C *815:88 1.07227e-06
41 *985:C *815:99 2.59632e-05
42 *1088:A *1535:CLK 2.70479e-05
43 *1088:C *1535:CLK 3.79133e-06
44 *1180:A *815:61 2.19163e-06
45 *1180:B *815:61 0
46 *1181:A1 *815:61 1.04206e-05
47 *1181:A2 *815:68 1.35684e-06
48 *1434:A *815:88 0
49 *1453:C *815:88 0
50 *1453:D *815:88 4.38943e-06
51 *1736:A *1535:CLK 5.41446e-06
52 *1776:A *815:59 6.15135e-06
53 *6:10 *815:20 9.67723e-06
54 *9:8 *815:106 4.76072e-05
55 *10:8 *815:99 2.86376e-07
56 *10:10 *815:88 0
57 *70:33 *815:59 9.4165e-06
58 *71:6 *815:75 8.65792e-06
59 *71:21 *815:75 1.23408e-05
60 *79:12 *815:88 3.00165e-06
61 *85:10 *815:61 5.51397e-07
62 *85:23 *815:61 2.11853e-06
63 *95:12 *815:61 0
64 *267:8 *815:61 5.0551e-07
65 *294:20 *815:59 4.79773e-06
66 *294:24 *815:59 1.37203e-05
67 *297:10 *815:68 3.90258e-06
68 *514:34 *815:88 7.35611e-06
69 *514:40 *815:88 2.2331e-05
70 *581:14 *815:88 0
71 *581:22 *815:88 2.42571e-06
72 *589:8 *815:10 0
73 *605:8 *815:99 8.65792e-06
74 *606:14 *1535:CLK 2.87795e-05
75 *607:12 *1834:A 0
76 *612:20 *815:38 5.29676e-06
77 *680:12 *815:61 8.80822e-05
78 *692:141 *815:59 3.09718e-06
79 *722:18 *815:88 0
80 *768:14 *815:10 0
81 *775:23 *1535:CLK 1.59615e-06
*RES
1 *1783:Y *815:4 17.2 
2 *815:4 *815:10 40.5412 
3 *815:10 *815:14 30.5706 
4 *815:14 *815:20 37.779 
5 *815:20 *1535:CLK 49.8243 
6 *815:14 *1536:CLK 24.1527 
7 *815:10 *815:38 34.6581 
8 *815:38 *815:46 41.5795 
9 *815:46 *1537:CLK 17.2 
10 *815:38 *815:55 30.5706 
11 *815:55 *815:59 48.7373 
12 *815:59 *815:61 74.3407 
13 *815:61 *1463:CLK 17.2 
14 *815:59 *815:68 13.3706 
15 *815:68 *1465:CLK 17.2 
16 *815:68 *815:75 47.0646 
17 *815:75 *1506:CLK 17.2 
18 *815:4 *815:84 26.2107 
19 *815:84 *815:86 4.50533 
20 *815:86 *815:88 68.1431 
21 *815:88 *1531:CLK 34.4 
22 *815:86 *815:99 42.3368 
23 *815:99 *1534:CLK 17.2 
24 *815:99 *815:106 46.5298 
25 *815:106 *1513:CLK 17.2 
26 *815:84 *1834:A 44.5617 
*END

*D_NET *816 0.00132383
*CONN
*I *1271:A I *D OR3x1_ASAP7_75t_SL
*I *1782:A I *D BUFx3_ASAP7_75t_SL
*I *1781:A I *D BUFx3_ASAP7_75t_SL
*I *1253:C I *D OR4x1_ASAP7_75t_SL
*I *1319:A I *D OR4x1_ASAP7_75t_SL
*I *900:A I *D OR2x2_ASAP7_75t_SL
*I *1445:A I *D NOR2x1_ASAP7_75t_SL
*I *1286:A I *D OR3x1_ASAP7_75t_SL
*I *1442:A I *D OR2x2_ASAP7_75t_SL
*I *1262:D I *D OR5x1_ASAP7_75t_SL
*I *1784:Y O *D BUFx6f_ASAP7_75t_SL
*CAP
1 *1271:A 1.81818e-05
2 *1782:A 7.96528e-06
3 *1781:A 1.87465e-05
4 *1253:C 1.51306e-06
5 *1319:A 1.24535e-05
6 *900:A 0
7 *1445:A 0
8 *1286:A 0
9 *1442:A 4.54257e-06
10 *1262:D 1.99391e-05
11 *1784:Y 1.73118e-05
12 *816:134 4.96549e-05
13 *816:128 5.71922e-05
14 *816:107 1.47633e-05
15 *816:99 1.71467e-05
16 *816:95 4.0693e-05
17 *816:91 6.46712e-05
18 *816:89 3.31383e-05
19 *816:81 2.70323e-05
20 *816:68 2.76219e-05
21 *816:53 4.33959e-05
22 *816:32 7.62511e-05
23 *816:26 5.50558e-05
24 *816:18 4.78315e-05
25 *816:16 3.04524e-05
26 *816:10 6.40396e-05
27 *816:8 4.29398e-05
28 *1253:C *839:30 2.12481e-06
29 *1262:D *840:26 0
30 *1271:A *834:12 1.60814e-06
31 *1271:A *834:38 1.64764e-06
32 *1271:A *837:14 1.849e-06
33 *1782:A *829:6 8.06588e-06
34 *816:10 *834:23 1.54783e-06
35 *816:18 *834:23 7.09135e-06
36 *816:18 *839:54 3.14574e-06
37 *816:18 *839:62 4.82798e-06
38 *816:18 *839:68 6.52764e-06
39 *816:26 *1270:A 1.88951e-06
40 *816:26 *1270:B 3.89037e-06
41 *816:26 *833:12 2.68255e-06
42 *816:26 *837:14 1.40419e-08
43 *816:26 *839:62 6.7842e-07
44 *816:81 *829:28 1.15978e-05
45 *816:89 *1848:A 6.90789e-06
46 *816:91 *1848:A 3.56648e-06
47 *816:95 *1848:A 0
48 *816:95 *850:42 9.55807e-06
49 *816:95 *873:12 0
50 *816:107 *850:50 5.52885e-06
51 *816:128 *834:38 0
52 *816:128 *834:44 8.06436e-06
53 *816:128 *839:26 1.04198e-05
54 *816:128 *839:54 3.78019e-05
55 *816:134 *829:6 2.03526e-06
56 *816:134 *839:26 7.30789e-05
57 *816:134 *840:137 0
58 *1254:B *1781:A 0
59 *1271:C *1271:A 1.70866e-06
60 *1271:C *816:128 1.70866e-06
61 *1286:C *816:81 5.62196e-06
62 *1319:C *1319:A 5.77516e-06
63 *1319:C *816:91 4.20803e-06
64 *1319:D *1319:A 3.89037e-06
65 *1442:B *1442:A 2.53753e-06
66 *1442:B *816:68 3.05118e-08
67 *334:42 *1319:A 6.92634e-06
68 *342:16 *816:81 1.23408e-05
69 *342:20 *816:68 5.58518e-05
70 *342:20 *816:81 6.92634e-06
71 *342:26 *1262:D 1.08543e-05
72 *342:26 *816:53 3.91501e-06
73 *342:26 *816:68 1.35961e-06
74 *362:8 *1262:D 8.77428e-07
75 *369:14 *1271:A 2.53753e-06
76 *369:14 *816:10 3.18075e-06
77 *369:14 *816:16 1.88951e-06
78 *370:10 *816:128 4.10928e-06
79 *383:37 *816:68 2.03535e-05
80 *383:37 *816:81 7.14604e-06
81 *383:41 *816:81 7.89181e-07
82 *383:43 *816:81 1.5963e-06
83 *404:14 *816:68 1.20741e-05
84 *404:20 *816:68 8.38704e-06
85 *413:10 *816:134 9.16654e-06
86 *413:18 *816:26 1.03345e-06
87 *413:18 *816:128 2.22736e-06
88 *413:18 *816:134 1.10561e-06
89 *413:34 *816:99 2.03526e-06
90 *413:34 *816:107 8.146e-06
91 *413:36 *816:95 0
92 *413:51 *816:95 0
93 *414:10 *1319:A 1.25483e-05
94 *414:10 *816:91 1.92671e-05
95 *565:10 *816:107 5.37866e-07
96 *575:16 *816:95 2.05484e-06
97 *579:10 *816:95 2.17799e-05
98 *579:10 *816:107 0
99 *653:10 *816:134 1.07573e-06
100 *653:26 *816:89 1.48371e-05
101 *656:18 *816:10 0
102 *659:16 *816:8 1.90474e-05
103 *810:76 *1781:A 0
104 *810:86 *1253:C 5.62196e-06
105 *810:86 *1781:A 8.06436e-06
*RES
1 *1784:Y *816:8 43.492 
2 *816:8 *816:10 17.4581 
3 *816:10 *816:16 41.3527 
4 *816:16 *816:18 9.01066 
5 *816:18 *816:26 41.3155 
6 *816:26 *816:32 45.2219 
7 *816:32 *1262:D 46.4212 
8 *816:32 *816:53 41.3527 
9 *816:53 *1442:A 38.3422 
10 *816:53 *816:68 40.5376 
11 *816:68 *1286:A 17.2 
12 *816:68 *816:81 44.2252 
13 *816:81 *816:89 45.3516 
14 *816:89 *816:91 11.2313 
15 *816:91 *816:95 46.4846 
16 *816:95 *816:99 18.8045 
17 *816:99 *816:107 45.9147 
18 *816:107 *1445:A 17.2 
19 *816:99 *900:A 17.2 
20 *816:91 *1319:A 28.4313 
21 *816:18 *816:128 38.6003 
22 *816:128 *816:134 45.8364 
23 *816:134 *1253:C 36.0045 
24 *816:134 *1781:A 46.0281 
25 *816:128 *1782:A 23.0831 
26 *816:10 *1271:A 47.3528 
*END

*D_NET *817 0.0018484
*CONN
*I *1015:B I *D OA21x2_ASAP7_75t_SL
*I *954:A1 I *D AO22x2_ASAP7_75t_SL
*I *935:C I *D OA211x2_ASAP7_75t_SL
*I *913:C I *D OA211x2_ASAP7_75t_SL
*I *918:A1 I *D AO32x2_ASAP7_75t_SL
*I *926:B I *D OA21x2_ASAP7_75t_SL
*I *904:A1 I *D AO32x2_ASAP7_75t_SL
*I *903:A I *D AND3x1_ASAP7_75t_SL
*I *938:B I *D AND2x4_ASAP7_75t_SL
*I *1452:C I *D OA211x2_ASAP7_75t_SL
*I *944:A I *D AND2x2_ASAP7_75t_SL
*I *942:B I *D OA21x2_ASAP7_75t_SL
*I *1785:Y O *D BUFx3_ASAP7_75t_SL
*CAP
1 *1015:B 0
2 *954:A1 0
3 *935:C 0
4 *913:C 0
5 *918:A1 0
6 *926:B 5.44044e-06
7 *904:A1 0
8 *903:A 0
9 *938:B 0
10 *1452:C 8.79099e-06
11 *944:A 0
12 *942:B 8.46526e-06
13 *1785:Y 9.38902e-06
14 *817:173 3.07378e-05
15 *817:158 1.11826e-05
16 *817:134 3.25548e-05
17 *817:132 4.35374e-05
18 *817:124 3.52717e-05
19 *817:118 9.62919e-05
20 *817:116 6.83375e-05
21 *817:107 2.15332e-05
22 *817:101 3.96462e-05
23 *817:97 7.00927e-05
24 *817:86 3.53003e-05
25 *817:78 8.21749e-05
26 *817:76 7.01933e-05
27 *817:74 1.44879e-05
28 *817:54 4.03245e-05
29 *817:48 5.24497e-05
30 *817:44 3.96341e-05
31 *817:35 1.63653e-05
32 *817:24 5.57456e-05
33 *817:20 0.000149527
34 *817:18 0.000126457
35 *817:12 2.38996e-05
36 *817:8 2.1213e-05
37 *817:48 *854:76 1.52743e-05
38 *817:86 *827:16 9.30483e-06
39 *817:86 *882:20 0
40 *817:97 *882:20 0
41 *817:107 *854:14 9.52454e-06
42 *817:107 *854:20 6.29856e-05
43 *817:107 *854:128 3.3921e-06
44 *817:118 *854:34 8.65947e-06
45 *817:124 *854:34 4.92332e-06
46 *817:124 *854:36 1.09067e-06
47 *817:134 *854:46 6.27229e-06
48 *817:134 *854:58 3.05118e-08
49 *918:A3 *817:134 3.61852e-06
50 *935:A1 *817:173 1.35684e-06
51 *941:D *817:24 1.9992e-06
52 *942:A1 *942:B 3.3921e-06
53 *1024:A *817:8 0
54 *1752:A *817:134 0
55 *2:8 *817:8 0
56 *2:23 *817:12 1.40871e-05
57 *15:12 *817:173 0
58 *20:8 *817:54 0
59 *226:20 *817:24 0
60 *279:16 *817:8 1.12894e-06
61 *279:16 *817:12 2.50424e-06
62 *279:16 *817:18 0
63 *490:12 *817:78 1.18996e-06
64 *490:23 *817:74 2.68933e-07
65 *490:23 *817:78 2.64704e-05
66 *524:73 *817:12 2.30405e-06
67 *524:73 *817:18 7.50128e-07
68 *525:8 *817:107 0
69 *525:8 *817:116 0
70 *525:20 *1452:C 2.75254e-05
71 *525:20 *817:54 4.71862e-06
72 *527:10 *817:54 0
73 *532:12 *817:118 7.98105e-06
74 *535:12 *817:107 1.56713e-06
75 *536:14 *817:107 4.3511e-05
76 *541:14 *817:158 1.28578e-05
77 *544:18 *817:124 1.51765e-05
78 *544:18 *817:132 2.37635e-05
79 *544:18 *817:134 7.71949e-06
80 *546:14 *817:132 3.48165e-06
81 *550:16 *817:124 4.46074e-05
82 *550:16 *817:132 2.37635e-05
83 *550:16 *817:158 1.04413e-05
84 *551:14 *926:B 6.70433e-06
85 *554:27 *926:B 1.59615e-06
86 *554:27 *817:134 3.77773e-06
87 *562:14 *817:173 2.66797e-07
88 *563:10 *817:173 8.46363e-06
89 *565:10 *817:107 9.67723e-06
90 *565:10 *817:116 8.33296e-06
91 *565:18 *817:78 0
92 *565:18 *817:86 0
93 *565:18 *817:97 0
94 *565:18 *817:107 1.45158e-05
95 *566:12 *817:48 8.65792e-06
96 *566:21 *817:48 2.92189e-05
97 *567:10 *817:35 2.65573e-06
98 *567:10 *817:44 1.67815e-06
99 *567:10 *817:74 3.05118e-08
100 *567:10 *817:78 0
101 *569:8 *817:24 3.60632e-06
102 *570:8 *942:B 2.50424e-06
103 *571:10 *817:35 6.10236e-07
104 *575:16 *817:35 0
105 *575:16 *817:44 0
106 *575:16 *817:74 0
107 *579:10 *817:97 1.62854e-06
108 *579:18 *817:78 0
109 *579:18 *817:97 0
110 *697:8 *817:78 0
111 *783:31 *942:B 6.7842e-07
112 *784:8 *817:134 7.12444e-05
113 *786:28 *817:134 3.02246e-05
114 *786:41 *817:134 2.56377e-05
*RES
1 *1785:Y *817:8 40.0317 
2 *817:8 *817:12 27.3617 
3 *817:12 *817:18 42.2843 
4 *817:18 *817:20 66.8531 
5 *817:20 *817:24 41.9793 
6 *817:24 *942:B 39.2134 
7 *817:24 *817:35 7.88432 
8 *817:35 *944:A 34.4 
9 *817:35 *817:44 3.94216 
10 *817:44 *817:48 35.384 
11 *817:48 *817:54 35.8942 
12 *817:54 *1452:C 41.3527 
13 *817:48 *938:B 17.2 
14 *817:44 *817:74 25.5058 
15 *817:74 *817:76 17.2 
16 *817:76 *817:78 54.6271 
17 *817:78 *817:86 42.7058 
18 *817:86 *903:A 34.4 
19 *817:86 *817:97 33.5318 
20 *817:97 *817:101 24.1527 
21 *817:101 *817:107 45.9425 
22 *817:107 *904:A1 17.2 
23 *817:101 *817:116 20.0158 
24 *817:116 *817:118 43.3208 
25 *817:118 *817:124 36.1493 
26 *817:124 *817:132 47.0977 
27 *817:132 *817:134 37.7321 
28 *817:134 *926:B 39.2134 
29 *817:124 *918:A1 34.4 
30 *817:118 *817:158 44.4803 
31 *817:158 *913:C 17.2 
32 *817:97 *817:173 49.5168 
33 *817:173 *935:C 17.2 
34 *817:74 *954:A1 17.2 
35 *817:12 *1015:B 17.2 
*END

*D_NET *818 0.00206987
*CONN
*I *1833:A I *D BUFx2_ASAP7_75t_SL
*I *1512:CLK I *D DFFHQNx1_ASAP7_75t_SL
*I *1514:CLK I *D DFFHQNx1_ASAP7_75t_SL
*I *1515:CLK I *D DFFHQNx1_ASAP7_75t_SL
*I *1516:CLK I *D DFFHQNx1_ASAP7_75t_SL
*I *1517:CLK I *D DFFHQNx1_ASAP7_75t_SL
*I *1521:CLK I *D DFFHQNx2_ASAP7_75t_SL
*I *1511:CLK I *D DFFHQNx1_ASAP7_75t_SL
*I *1507:CLK I *D DFFHQNx2_ASAP7_75t_SL
*I *1508:CLK I *D DFFHQNx2_ASAP7_75t_SL
*I *1518:CLK I *D DFFHQNx1_ASAP7_75t_SL
*I *1519:CLK I *D DFFHQNx1_ASAP7_75t_SL
*I *1520:CLK I *D DFFHQNx1_ASAP7_75t_SL
*I *1510:CLK I *D DFFHQNx1_ASAP7_75t_SL
*I *1786:Y O *D BUFx4_ASAP7_75t_SL
*CAP
1 *1833:A 1.39751e-05
2 *1512:CLK 0
3 *1514:CLK 1.92605e-05
4 *1515:CLK 2.70144e-05
5 *1516:CLK 3.18084e-06
6 *1517:CLK 0
7 *1521:CLK 0
8 *1511:CLK 6.12516e-06
9 *1507:CLK 6.91812e-06
10 *1508:CLK 0
11 *1518:CLK 0
12 *1519:CLK 0
13 *1520:CLK 0
14 *1510:CLK 3.35448e-05
15 *1786:Y 0
16 *818:187 4.06349e-05
17 *818:169 4.24067e-05
18 *818:165 4.83925e-05
19 *818:136 2.96169e-05
20 *818:130 7.04781e-05
21 *818:126 9.25883e-05
22 *818:124 7.91049e-05
23 *818:115 7.36813e-05
24 *818:81 2.50556e-05
25 *818:70 2.76697e-05
26 *818:66 6.0071e-05
27 *818:60 7.78685e-05
28 *818:40 4.53528e-05
29 *818:34 2.4114e-05
30 *818:32 3.27176e-05
31 *818:30 3.39216e-05
32 *818:26 5.40772e-05
33 *818:20 2.95548e-05
34 *818:18 7.2832e-05
35 *818:14 7.70069e-05
36 *818:10 4.08263e-05
37 *818:8 8.36478e-05
38 *818:6 3.45464e-05
39 *818:8 *874:10 1.57656e-05
40 *818:10 *874:10 8.96212e-07
41 *818:10 *874:12 3.34944e-05
42 *818:14 *874:12 5.22486e-06
43 *818:20 *820:70 2.84286e-06
44 *818:26 *820:70 1.47841e-05
45 *818:26 *871:20 0
46 *818:26 *871:26 3.23488e-06
47 *818:30 *820:262 0
48 *818:30 *820:275 0
49 *818:30 *871:26 2.25787e-06
50 *818:30 *871:30 5.45263e-06
51 *818:40 *820:62 2.1001e-06
52 *818:40 *871:30 1.09064e-05
53 *818:60 *874:22 0
54 *818:115 *957:A1 1.58373e-06
55 *818:124 *1112:B 2.03526e-06
56 *818:124 *875:22 1.06578e-05
57 *818:126 *874:90 3.32721e-06
58 *818:126 *875:30 0
59 *818:169 *871:93 0
60 *818:169 *871:123 0
61 *818:187 *874:10 4.1009e-06
62 *957:B *818:115 2.96155e-06
63 *957:C *818:115 3.68287e-06
64 *1140:A *818:66 1.84268e-06
65 *1510:D *1510:CLK 3.80219e-06
66 *1511:D *1511:CLK 2.06482e-05
67 *1519:D *818:81 4.09246e-06
68 *1520:D *818:34 6.7842e-07
69 *1520:D *818:60 4.18905e-06
70 *1521:D *818:124 1.21211e-05
71 *10:10 *818:187 3.47607e-06
72 *10:16 *818:187 2.83449e-06
73 *11:14 *818:187 0
74 *22:8 *818:70 6.01313e-06
75 *22:8 *818:81 6.15569e-05
76 *23:12 *818:136 3.0339e-05
77 *23:23 *818:136 1.86635e-05
78 *31:6 *1510:CLK 0.000111879
79 *72:6 *818:18 0
80 *72:12 *818:26 2.83874e-07
81 *72:16 *818:26 1.29186e-06
82 *77:6 *818:124 7.18493e-05
83 *139:8 *818:20 3.16603e-06
84 *139:8 *818:26 5.1866e-06
85 *140:8 *818:30 0
86 *152:8 *818:30 3.7004e-06
87 *263:10 *818:30 1.07573e-06
88 *514:30 *818:115 3.36309e-05
89 *580:8 *818:126 0
90 *580:8 *818:165 0
91 *581:14 *818:115 1.45042e-05
92 *581:22 *818:115 4.05232e-06
93 *585:10 *818:187 3.66048e-06
94 *592:28 *1833:A 1.46448e-05
95 *593:10 *818:187 1.31716e-05
96 *678:12 *818:18 4.1108e-05
97 *713:221 *818:136 1.81284e-05
98 *714:35 *1510:CLK 5.82745e-07
99 *714:35 *818:40 0
100 *714:42 *1510:CLK 3.52155e-06
101 *722:18 *818:8 3.84245e-05
102 *722:18 *818:10 3.22363e-05
103 *722:18 *818:187 5.20199e-05
104 *815:88 *818:10 0
*RES
1 *1786:Y *818:6 34.4 
2 *818:6 *818:8 12.9528 
3 *818:8 *818:10 29.2846 
4 *818:10 *818:14 21.7053 
5 *818:14 *818:18 49.8243 
6 *818:18 *818:20 2.81583 
7 *818:20 *818:26 34.3464 
8 *818:26 *818:30 40.853 
9 *818:30 *818:32 17.2 
10 *818:32 *818:34 5.88308 
11 *818:34 *818:40 45.6633 
12 *818:40 *1510:CLK 47.685 
13 *818:34 *1520:CLK 17.2 
14 *818:32 *818:60 46.1573 
15 *818:60 *818:66 35.1721 
16 *818:66 *818:70 18.8045 
17 *818:70 *1519:CLK 17.2 
18 *818:70 *818:81 37.2153 
19 *818:81 *1518:CLK 34.4 
20 *818:26 *1508:CLK 17.2 
21 *818:20 *1507:CLK 38.1438 
22 *818:10 *1511:CLK 40.2831 
23 *818:8 *818:115 45.5457 
24 *818:115 *1521:CLK 17.2 
25 *818:115 *818:124 47.685 
26 *818:124 *818:126 17.4581 
27 *818:126 *818:130 47.611 
28 *818:130 *818:136 43.4137 
29 *818:136 *1517:CLK 34.4 
30 *818:130 *1516:CLK 18.8045 
31 *818:126 *1515:CLK 49.9099 
32 *818:124 *818:165 29.7277 
33 *818:165 *818:169 35.7845 
34 *818:169 *1514:CLK 45.6313 
35 *818:165 *1512:CLK 17.2 
36 *818:6 *818:187 44.232 
37 *818:187 *1833:A 27.3617 
*END

*D_NET *819 0.00297305
*CONN
*I *1213:C I *D OA211x2_ASAP7_75t_SL
*I *1210:C I *D OA211x2_ASAP7_75t_SL
*I *1207:C I *D OA211x2_ASAP7_75t_SL
*I *1204:C I *D OA211x2_ASAP7_75t_SL
*I *1201:C I *D OA211x2_ASAP7_75t_SL
*I *1216:C I *D OA211x2_ASAP7_75t_SL
*I *1197:B I *D OA211x2_ASAP7_75t_SL
*I *1219:C I *D OA211x2_ASAP7_75t_SL
*I *1335:B I *D OA21x2_ASAP7_75t_SL
*I *1189:C I *D OA211x2_ASAP7_75t_SL
*I *1191:A I *D AND3x1_ASAP7_75t_SL
*I *1385:A1 I *D AO22x1_ASAP7_75t_SL
*I *1392:A1 I *D AO22x1_ASAP7_75t_SL
*I *1291:A1 I *D AO32x1_ASAP7_75t_SL
*I *1787:Y O *D BUFx3_ASAP7_75t_SL
*CAP
1 *1213:C 0
2 *1210:C 1.07183e-05
3 *1207:C 5.16531e-06
4 *1204:C 1.58859e-06
5 *1201:C 6.82341e-06
6 *1216:C 9.48208e-07
7 *1197:B 3.09382e-06
8 *1219:C 0
9 *1335:B 0
10 *1189:C 0
11 *1191:A 2.58211e-06
12 *1385:A1 7.13214e-06
13 *1392:A1 1.35502e-05
14 *1291:A1 3.65714e-05
15 *1787:Y 0
16 *819:231 4.38786e-05
17 *819:225 3.77982e-05
18 *819:217 3.0978e-05
19 *819:202 3.13766e-05
20 *819:198 4.22991e-05
21 *819:183 7.64657e-05
22 *819:172 2.07263e-05
23 *819:164 6.92286e-05
24 *819:155 2.12883e-05
25 *819:142 2.01963e-05
26 *819:136 2.08037e-05
27 *819:132 1.87421e-05
28 *819:126 0.000111801
29 *819:114 2.56947e-06
30 *819:108 4.06361e-05
31 *819:93 2.24585e-05
32 *819:60 4.97005e-05
33 *819:56 2.66794e-05
34 *819:54 4.58223e-05
35 *819:48 5.29544e-05
36 *819:46 4.95035e-05
37 *819:42 8.43665e-05
38 *819:36 4.11443e-05
39 *819:30 0.000175023
40 *819:28 0.000219743
41 *819:24 9.4886e-05
42 *819:20 4.48441e-05
43 *819:12 0.000126123
44 *819:10 0.000106973
45 *819:8 5.4782e-05
46 *819:6 5.4782e-05
47 *819:4 9.83664e-05
48 *819:8 *820:363 0
49 *819:8 *861:36 0
50 *819:8 *862:62 0
51 *819:8 *869:44 3.47607e-06
52 *819:8 *869:57 0
53 *819:12 *1069:A2 1.334e-05
54 *819:30 *860:118 7.91461e-06
55 *819:36 *860:10 9.93857e-06
56 *819:42 *1354:B 5.85387e-06
57 *819:42 *825:51 8.33296e-06
58 *819:114 *862:151 0
59 *819:114 *862:164 0
60 *819:155 *861:72 1.22925e-05
61 *819:164 *861:68 0
62 *819:172 *861:64 1.51653e-06
63 *819:172 *861:68 8.33296e-06
64 *819:183 *1483:CLK 0
65 *819:183 *861:68 0
66 *819:231 *862:102 1.02506e-06
67 *819:231 *862:126 0
68 *1066:A *819:8 6.91282e-06
69 *1069:A1 *819:8 1.2077e-05
70 *1086:B *819:126 3.68565e-06
71 *1189:B *819:108 2.52755e-07
72 *1201:A1 *1201:C 3.68287e-06
73 *1201:A1 *819:198 0
74 *1204:B *1204:C 1.36155e-06
75 *1207:A1 *1207:C 5.41446e-06
76 *1213:B *819:217 4.41457e-06
77 *1213:B *819:225 1.36155e-06
78 *1216:A2 *819:172 2.90209e-08
79 *1219:A1 *819:136 2.71839e-06
80 *1219:A1 *819:142 3.46317e-06
81 *1219:A1 *819:155 1.95129e-06
82 *1291:A2 *1291:A1 2.56342e-06
83 *1291:B1 *1291:A1 6.02341e-06
84 *1354:A2 *819:42 3.47607e-06
85 *1392:A2 *1385:A1 6.71283e-06
86 *1392:A2 *819:54 1.34402e-05
87 *1392:B2 *819:54 9.61945e-08
88 *1487:D *819:30 0
89 *1733:A *819:54 2.77216e-06
90 *1762:A *819:42 3.65131e-06
91 *1775:A *819:30 2.0895e-06
92 *62:34 *819:183 0
93 *90:14 *819:30 5.51397e-07
94 *91:14 *819:24 8.38787e-06
95 *91:14 *819:28 8.90942e-06
96 *91:14 *819:30 3.68565e-06
97 *91:20 *819:30 7.86466e-06
98 *101:10 *819:8 9.93857e-06
99 *107:10 *819:8 0
100 *110:10 *1201:C 5.51397e-07
101 *110:10 *819:183 2.68933e-07
102 *111:8 *819:217 6.10148e-06
103 *112:10 *1207:C 2.20493e-06
104 *112:10 *1210:C 1.66587e-05
105 *114:8 *819:225 5.37866e-07
106 *129:8 *819:20 7.21596e-07
107 *132:8 *819:42 2.20493e-06
108 *135:8 *819:46 0
109 *183:20 *819:36 8.51183e-06
110 *203:8 *819:8 1.849e-06
111 *287:60 *819:54 4.66977e-06
112 *287:72 *1392:A1 2.87605e-06
113 *294:60 *819:8 0
114 *302:8 *819:24 8.67509e-05
115 *302:8 *819:108 2.73812e-05
116 *303:8 *819:20 9.97906e-07
117 *303:8 *819:114 8.46363e-06
118 *304:8 *819:24 0
119 *304:8 *819:93 1.10453e-05
120 *304:8 *819:108 0
121 *304:16 *819:93 1.692e-05
122 *305:8 *819:132 2.68586e-05
123 *305:8 *819:142 4.83862e-06
124 *305:8 *819:164 1.09954e-05
125 *311:14 *1201:C 2.14259e-05
126 *311:14 *819:183 8.58704e-06
127 *311:14 *819:198 4.83862e-06
128 *314:10 *819:217 0
129 *318:12 *1210:C 2.20493e-06
130 *321:8 *819:183 1.62666e-05
131 *322:14 *1216:C 3.90258e-06
132 *322:14 *819:172 1.04475e-06
133 *346:28 *1392:A1 3.32204e-06
134 *346:28 *819:60 1.25003e-05
135 *388:24 *819:60 6.30411e-06
136 *388:28 *1291:A1 9.25246e-05
137 *388:37 *819:54 1.31322e-05
138 *388:54 *819:54 1.50912e-05
139 *430:24 *819:30 1.10341e-05
140 *438:12 *819:42 1.09842e-06
141 *438:12 *819:46 5.0551e-07
142 *462:10 *819:42 1.26641e-06
143 *471:16 *819:54 5.49212e-07
144 *474:8 *1385:A1 1.58373e-06
145 *478:10 *819:36 0
146 *686:26 *819:8 4.11766e-06
147 *686:37 *819:8 1.03383e-05
148 *686:149 *819:126 0
149 *690:10 *819:132 5.79724e-07
150 *690:21 *819:132 2.74606e-06
151 *690:21 *819:155 5.31503e-06
152 *690:40 *819:142 4.83862e-06
153 *690:40 *819:164 1.74682e-05
154 *690:52 *819:172 3.89037e-06
155 *690:52 *819:183 3.05118e-08
156 *690:63 *819:172 6.33206e-07
157 *690:97 *819:172 2.53282e-06
158 *690:97 *819:183 0
159 *690:108 *819:198 0
160 *690:114 *819:198 0
161 *690:127 *819:198 0
162 *690:135 *1204:C 1.36155e-06
163 *690:135 *819:202 3.16539e-06
164 *690:150 *819:202 5.83666e-07
165 *690:150 *819:217 1.8895e-05
166 *690:150 *819:225 1.52651e-06
167 *690:158 *819:217 0
168 *690:158 *819:225 6.33206e-07
169 *690:166 *819:225 3.32579e-06
170 *690:168 *1207:C 1.2768e-05
171 *690:168 *819:231 9.50284e-06
172 *690:179 *1210:C 3.3563e-06
173 *690:238 *819:202 1.02842e-06
174 *690:238 *819:217 3.05118e-08
175 *705:28 *1392:A1 0
176 *705:36 *819:54 8.66876e-06
177 *711:64 *819:8 0.000120053
178 *711:74 *819:8 1.68065e-05
179 *711:87 *819:8 2.67953e-05
180 *799:25 *819:93 8.84842e-06
181 *807:6 *819:30 0
182 *807:8 *819:30 0
183 *807:14 *819:30 0
*RES
1 *1787:Y *819:4 17.2 
2 *819:4 *819:6 17.2 
3 *819:6 *819:8 65.3273 
4 *819:8 *819:10 17.2 
5 *819:10 *819:12 37.9726 
6 *819:12 *819:20 45.2949 
7 *819:20 *819:24 46.4846 
8 *819:24 *819:28 31.6403 
9 *819:28 *819:30 75.4103 
10 *819:30 *819:36 41.158 
11 *819:36 *819:42 39.861 
12 *819:42 *819:46 38.0582 
13 *819:46 *819:48 17.2 
14 *819:48 *819:54 42.3971 
15 *819:54 *819:56 17.2 
16 *819:56 *819:60 29.5897 
17 *819:60 *1291:A1 45.0109 
18 *819:56 *1392:A1 41.5228 
19 *819:48 *1385:A1 39.3551 
20 *819:28 *819:93 38.6003 
21 *819:93 *1191:A 35.4697 
22 *819:24 *819:108 40.2578 
23 *819:108 *819:114 37.2158 
24 *819:114 *1189:C 17.2 
25 *819:20 *1335:B 17.2 
26 *819:4 *819:126 46.5298 
27 *819:126 *819:132 47.916 
28 *819:132 *819:136 19.8741 
29 *819:136 *819:142 19.9591 
30 *819:142 *1219:C 17.2 
31 *819:142 *819:155 48.8156 
32 *819:155 *1197:B 18.8045 
33 *819:136 *819:164 12.9528 
34 *819:164 *819:172 45.2382 
35 *819:172 *1216:C 35.4697 
36 *819:164 *819:183 29.2846 
37 *819:183 *1201:C 40.8179 
38 *819:183 *819:198 35.416 
39 *819:198 *819:202 22.8317 
40 *819:202 *1204:C 35.4697 
41 *819:202 *819:217 37.8671 
42 *819:217 *819:225 42.2276 
43 *819:225 *819:231 31.3038 
44 *819:231 *1207:C 39.2134 
45 *819:231 *1210:C 43.8888 
46 *819:217 *1213:C 17.2 
*END

*D_NET *820 0.00426093
*CONN
*I *1424:B I *D OA21x2_ASAP7_75t_SL
*I *958:B I *D OA21x2_ASAP7_75t_SL
*I *974:B I *D OA21x2_ASAP7_75t_SL
*I *1787:A I *D BUFx3_ASAP7_75t_SL
*I *994:B I *D OA21x2_ASAP7_75t_SL
*I *987:C I *D OA211x2_ASAP7_75t_SL
*I *1438:B I *D OA21x2_ASAP7_75t_SL
*I *1432:C I *D OA211x2_ASAP7_75t_SL
*I *1419:B I *D OA21x2_ASAP7_75t_SL
*I *961:A I *D AND3x1_ASAP7_75t_SL
*I *1175:A1 I *D AO32x1_ASAP7_75t_SL
*I *1397:B I *D OA211x2_ASAP7_75t_SL
*I *1398:A I *D AND3x1_ASAP7_75t_SL
*I *1394:B I *D OA211x2_ASAP7_75t_SL
*I *1174:A I *D AND3x1_ASAP7_75t_SL
*I *1163:C I *D OA211x2_ASAP7_75t_SL
*I *1009:A I *D AND2x2_ASAP7_75t_SL
*I *1010:A1 I *D AO32x2_ASAP7_75t_SL
*I *1412:C I *D OA211x2_ASAP7_75t_SL
*I *1429:C I *D OA211x2_ASAP7_75t_SL
*I *1013:B I *D OA211x2_ASAP7_75t_SL
*I *1788:Y O *D BUFx6f_ASAP7_75t_SL
*CAP
1 *1424:B 1.49744e-06
2 *958:B 1.53268e-06
3 *974:B 0
4 *1787:A 3.99011e-06
5 *994:B 1.96516e-05
6 *987:C 0
7 *1438:B 0
8 *1432:C 0
9 *1419:B 1.82465e-06
10 *961:A 0
11 *1175:A1 0
12 *1397:B 0
13 *1398:A 3.3561e-06
14 *1394:B 0
15 *1174:A 1.27393e-05
16 *1163:C 7.3192e-06
17 *1009:A 1.54135e-05
18 *1010:A1 3.12373e-06
19 *1412:C 2.52259e-06
20 *1429:C 0
21 *1013:B 0
22 *1788:Y 1.0276e-05
23 *820:378 3.83766e-05
24 *820:363 8.77574e-05
25 *820:361 8.37672e-05
26 *820:359 3.0074e-05
27 *820:344 2.77184e-05
28 *820:336 5.11815e-05
29 *820:327 7.22784e-05
30 *820:325 6.23486e-05
31 *820:321 4.48519e-05
32 *820:310 3.71706e-05
33 *820:308 4.30731e-05
34 *820:302 4.46818e-05
35 *820:298 7.87404e-05
36 *820:296 5.88847e-05
37 *820:283 3.54731e-06
38 *820:277 3.97432e-05
39 *820:275 5.74463e-05
40 *820:262 7.57283e-05
41 *820:251 1.88434e-05
42 *820:236 4.22559e-06
43 *820:228 2.66919e-05
44 *820:197 2.66466e-05
45 *820:193 5.05759e-05
46 *820:187 6.97444e-05
47 *820:185 4.55629e-05
48 *820:181 1.01369e-05
49 *820:173 3.00034e-05
50 *820:167 4.70604e-05
51 *820:148 3.68293e-05
52 *820:146 4.51512e-05
53 *820:129 7.34631e-05
54 *820:125 4.34589e-05
55 *820:123 8.33474e-05
56 *820:121 8.70954e-05
57 *820:115 4.34126e-05
58 *820:102 5.50781e-05
59 *820:93 1.50432e-05
60 *820:89 3.7872e-05
61 *820:83 4.47959e-05
62 *820:81 8.94342e-05
63 *820:70 0.00012539
64 *820:66 7.54845e-05
65 *820:62 5.65694e-05
66 *820:51 4.21534e-06
67 *820:43 0.000115955
68 *820:39 7.31103e-05
69 *820:26 2.08725e-05
70 *820:22 4.48767e-05
71 *820:18 2.81556e-05
72 *820:10 2.74459e-05
73 *1009:A *1010:A2 2.68933e-07
74 *1009:A *889:8 0
75 *1163:C *863:106 4.75333e-06
76 *820:18 *823:18 2.29213e-06
77 *820:70 *871:20 0
78 *820:70 *871:26 1.09067e-06
79 *820:81 *823:86 0
80 *820:81 *871:10 0
81 *820:81 *871:20 0
82 *820:89 *889:8 4.45472e-06
83 *820:115 *1010:A2 2.9732e-06
84 *820:115 *823:73 0
85 *820:115 *889:25 0
86 *820:115 *889:35 0
87 *820:115 *889:68 0
88 *820:123 *823:73 0
89 *820:123 *863:106 0
90 *820:146 *863:106 4.03236e-06
91 *820:146 *863:117 7.19886e-06
92 *820:146 *878:16 5.08828e-06
93 *820:167 *878:32 2.80835e-06
94 *820:173 *1064:A 2.24322e-06
95 *820:173 *878:32 4.51243e-05
96 *820:251 *823:86 4.74248e-06
97 *820:275 *871:20 0
98 *820:283 *874:12 8.2174e-07
99 *820:296 *874:12 6.33206e-06
100 *820:310 *875:20 0
101 *820:310 *896:21 0
102 *820:327 *987:A1 8.21017e-06
103 *820:327 *896:21 1.86759e-06
104 *820:327 *896:32 2.83874e-07
105 *820:327 *896:47 4.5868e-06
106 *820:327 *896:53 0
107 *820:378 *888:10 3.79923e-06
108 *958:A2 *820:308 6.70433e-06
109 *1009:B *1009:A 4.57952e-06
110 *1010:A3 *1010:A1 8.87763e-06
111 *1010:A3 *820:93 2.89992e-05
112 *1064:B *820:173 2.3365e-05
113 *1086:B *1787:A 3.65131e-06
114 *1158:A2 *820:129 6.6195e-06
115 *1158:A2 *820:228 4.33445e-06
116 *1174:B *1174:A 3.90258e-06
117 *1176:C *820:187 4.83862e-06
118 *1279:A *820:197 5.79724e-07
119 *1397:C *820:181 6.7842e-07
120 *1398:B *1398:A 1.35684e-06
121 *1398:B *820:193 5.51397e-07
122 *1399:B *820:197 1.5053e-05
123 *1419:A1 *820:66 5.85387e-06
124 *1419:A1 *820:262 1.47193e-05
125 *1429:B *820:51 6.02341e-06
126 *1432:B *820:277 1.53057e-06
127 *1455:B *820:70 0
128 *1536:CLK *994:B 3.48165e-06
129 *1776:A *820:363 1.45158e-05
130 *1850:A *820:81 0
131 *1869:A *820:81 0
132 *6:10 *820:336 1.49407e-08
133 *6:10 *820:344 5.05247e-06
134 *6:10 *820:359 9.66472e-07
135 *6:27 *820:336 0
136 *6:27 *820:359 0
137 *29:22 *958:B 7.46912e-07
138 *33:29 *820:197 2.07439e-06
139 *70:33 *820:363 6.9478e-05
140 *72:29 *820:70 0
141 *73:12 *1419:B 2.27303e-05
142 *73:22 *1419:B 1.04475e-06
143 *73:22 *820:262 0
144 *77:22 *820:310 0
145 *78:12 *958:B 0
146 *78:12 *820:302 0
147 *78:16 *820:378 1.09067e-06
148 *95:12 *820:123 2.16262e-05
149 *97:8 *820:228 1.15945e-06
150 *139:8 *820:70 2.83874e-07
151 *140:8 *820:275 2.68933e-07
152 *141:12 *820:22 2.73315e-05
153 *141:12 *820:39 2.13304e-05
154 *153:8 *820:310 2.73415e-06
155 *163:8 *820:302 2.83874e-07
156 *168:8 *820:336 2.83874e-07
157 *170:10 *820:121 9.30483e-06
158 *170:10 *820:123 2.28839e-06
159 *192:12 *820:197 1.49128e-05
160 *212:22 *820:146 0
161 *212:22 *820:167 2.30288e-06
162 *212:22 *820:173 1.0186e-05
163 *212:30 *820:181 8.58704e-06
164 *216:10 *820:327 4.91373e-05
165 *216:10 *820:336 7.84037e-07
166 *216:10 *820:378 0
167 *220:18 *820:81 1.12055e-06
168 *225:12 *820:22 6.83995e-06
169 *225:12 *820:39 4.98489e-06
170 *225:14 *820:10 0
171 *225:14 *820:22 6.49184e-07
172 *236:27 *820:39 7.49203e-06
173 *262:88 *820:81 1.06688e-06
174 *266:37 *1163:C 1.17284e-05
175 *266:37 *820:146 3.18406e-05
176 *267:12 *820:123 5.17586e-05
177 *270:8 *1174:A 2.98814e-07
178 *270:8 *820:167 2.83874e-07
179 *272:14 *820:228 3.39905e-05
180 *275:8 *820:123 3.73518e-07
181 *275:8 *820:228 0
182 *282:87 *820:173 2.0917e-07
183 *288:10 *820:197 1.09842e-06
184 *288:16 *820:193 5.08828e-06
185 *288:16 *820:197 5.79724e-07
186 *292:10 *820:187 5.20818e-05
187 *292:20 *820:187 1.0745e-05
188 *294:16 *820:363 6.10236e-08
189 *294:52 *820:363 7.33402e-05
190 *294:60 *820:363 6.24522e-06
191 *350:29 *820:197 6.57404e-06
192 *377:10 *820:197 5.11758e-06
193 *430:10 *820:173 0
194 *430:10 *820:197 0
195 *436:10 *1174:A 0
196 *442:10 *820:181 1.98917e-05
197 *442:10 *820:187 1.64518e-05
198 *442:16 *820:193 5.0551e-07
199 *480:10 *820:181 0
200 *483:8 *820:193 5.19552e-07
201 *494:8 *820:81 3.3563e-06
202 *499:34 *820:62 1.8464e-05
203 *499:34 *820:70 4.45472e-06
204 *499:76 *820:81 7.43697e-06
205 *500:14 *820:62 1.39311e-05
206 *500:14 *820:70 1.15587e-05
207 *500:14 *820:262 2.11853e-06
208 *501:42 *820:70 0
209 *501:42 *820:81 0
210 *502:12 *820:26 2.62194e-05
211 *503:53 *820:51 1.68784e-06
212 *504:18 *1424:B 7.64042e-07
213 *504:18 *820:26 1.51111e-06
214 *514:28 *820:81 5.52807e-07
215 *515:14 *820:310 9.27991e-06
216 *515:14 *820:325 5.22376e-07
217 *529:76 *820:378 0
218 *580:12 *820:308 1.56713e-06
219 *582:8 *820:310 4.88501e-06
220 *584:14 *820:81 0
221 *586:14 *820:115 0
222 *592:12 *1009:A 1.06092e-05
223 *592:18 *1009:A 3.16603e-06
224 *592:24 *820:89 4.56363e-06
225 *592:24 *820:251 7.72307e-07
226 *595:8 *820:378 1.66587e-05
227 *598:14 *820:115 5.28388e-07
228 *598:20 *820:115 7.58669e-07
229 *619:10 *1009:A 0
230 *619:10 *820:115 0
231 *620:10 *820:115 3.88991e-06
232 *625:28 *1009:A 8.3257e-06
233 *625:28 *820:115 3.84173e-05
234 *626:10 *1009:A 5.06565e-06
235 *628:10 *820:26 3.88306e-06
236 *654:8 *820:10 9.43723e-06
237 *655:14 *820:344 3.079e-06
238 *663:25 *820:18 2.02432e-06
239 *676:27 *820:26 5.52807e-07
240 *677:6 *820:18 1.91973e-05
241 *678:10 *820:302 0
242 *678:12 *820:298 0.000125414
243 *678:20 *820:275 0
244 *678:20 *820:277 1.96943e-05
245 *678:29 *820:302 0
246 *685:19 *820:81 0
247 *688:8 *820:123 0
248 *689:53 *820:197 0
249 *692:10 *820:187 5.48826e-06
250 *693:66 *820:167 0
251 *695:50 *1174:A 7.6881e-06
252 *711:31 *820:228 1.44735e-05
253 *711:58 *820:363 1.12901e-05
254 *711:64 *820:363 0
255 *714:10 *820:51 0
256 *717:30 *820:181 1.04475e-06
257 *717:30 *820:185 5.51397e-07
258 *722:61 *820:327 3.47607e-06
259 *722:74 *820:327 1.97537e-05
260 *731:21 *1398:A 3.48708e-06
261 *731:21 *820:187 3.42768e-05
262 *736:12 *820:89 5.19475e-06
263 *736:38 *820:89 3.31198e-05
264 *736:38 *820:251 2.26368e-05
265 *745:10 *820:123 1.17606e-05
266 *745:10 *820:228 2.46429e-06
267 *756:24 *820:193 2.88806e-06
268 *769:48 *820:173 4.20803e-06
269 *771:18 *820:123 0
270 *773:10 *820:115 1.26646e-05
271 *775:60 *820:327 7.59847e-06
272 *776:16 *820:378 0
273 *776:22 *820:327 2.77657e-06
274 *776:39 *820:327 1.66659e-05
275 *789:6 *820:325 9.30483e-06
276 *789:6 *820:378 2.66207e-05
277 *790:10 *1424:B 0
278 *790:10 *820:39 0
279 *790:18 *820:26 0
280 *808:34 *820:363 1.96231e-05
281 *808:49 *820:363 5.64371e-05
282 *809:10 *820:363 4.53155e-06
283 *809:25 *820:363 7.27531e-06
284 *811:10 *820:123 0
285 *815:14 *994:B 2.03696e-05
286 *815:59 *820:363 1.18937e-05
287 *818:20 *820:70 2.84286e-06
288 *818:26 *820:70 1.47841e-05
289 *818:30 *820:262 0
290 *818:30 *820:275 0
291 *818:40 *820:62 2.1001e-06
292 *819:8 *820:363 0
*RES
1 *1788:Y *820:10 40.4531 
2 *820:10 *820:18 44.8451 
3 *820:18 *820:22 26.292 
4 *820:22 *820:26 36.9108 
5 *820:26 *1013:B 34.4 
6 *820:22 *820:39 31.249 
7 *820:39 *820:43 33.2164 
8 *820:43 *820:51 37.4124 
9 *820:51 *1429:C 17.2 
10 *820:43 *820:62 46.0201 
11 *820:62 *820:66 18.8045 
12 *820:66 *820:70 45.3583 
13 *820:70 *1412:C 35.4697 
14 *820:70 *820:81 58.5693 
15 *820:81 *820:83 17.2 
16 *820:83 *820:89 40.821 
17 *820:89 *820:93 26.292 
18 *820:93 *1010:A1 19.8741 
19 *820:93 *820:102 17.2 
20 *820:102 *1009:A 48.8723 
21 *820:102 *820:115 33.2268 
22 *820:115 *820:121 37.0741 
23 *820:121 *820:123 70.3958 
24 *820:123 *820:125 17.2 
25 *820:125 *820:129 26.292 
26 *820:129 *1163:C 40.4815 
27 *820:129 *820:146 44.5364 
28 *820:146 *820:148 17.2 
29 *820:148 *1174:A 42.2276 
30 *820:148 *820:167 48.3905 
31 *820:167 *820:173 40.874 
32 *820:173 *820:181 42.7625 
33 *820:181 *820:185 18.8045 
34 *820:185 *820:187 41.6743 
35 *820:187 *820:193 45.6313 
36 *820:193 *820:197 39.1635 
37 *820:197 *1394:B 17.2 
38 *820:187 *1398:A 37.1591 
39 *820:181 *1397:B 17.2 
40 *820:125 *820:228 49.2523 
41 *820:228 *820:236 36.6615 
42 *820:236 *1175:A1 17.2 
43 *820:83 *820:251 47.969 
44 *820:251 *961:A 17.2 
45 *820:66 *820:262 37.6651 
46 *820:262 *1419:B 42.4224 
47 *820:262 *820:275 40.853 
48 *820:275 *820:277 11.2313 
49 *820:277 *820:283 37.2158 
50 *820:283 *1432:C 17.2 
51 *820:277 *820:296 42.7058 
52 *820:296 *820:298 35.8333 
53 *820:298 *820:302 41.9793 
54 *820:302 *820:308 41.3527 
55 *820:308 *820:310 25.9056 
56 *820:310 *1438:B 34.4 
57 *820:310 *820:321 20.0158 
58 *820:321 *820:325 19.8741 
59 *820:325 *820:327 57.4429 
60 *820:327 *987:C 34.4 
61 *820:327 *820:336 7.79046 
62 *820:336 *820:344 38.5642 
63 *820:344 *994:B 48.8403 
64 *820:336 *820:359 38.5525 
65 *820:359 *820:361 17.2 
66 *820:361 *820:363 92.3592 
67 *820:363 *1787:A 37.0741 
68 *820:321 *820:378 48.8753 
69 *820:378 *974:B 34.4 
70 *820:302 *958:B 36.0895 
71 *820:39 *1424:B 35.8079 
*END

*D_NET *821 7.6107e-05
*CONN
*I *1798:A I *D BUFx3_ASAP7_75t_SL
*I *1308:B I *D OR2x2_ASAP7_75t_SL
*I *1789:Y O *D BUFx3_ASAP7_75t_SL
*CAP
1 *1798:A 1.87715e-05
2 *1308:B 0
3 *1789:Y 2.98217e-06
4 *821:12 2.35442e-05
5 *821:8 7.75492e-06
6 *1798:A *829:22 1.16955e-05
7 *821:8 *840:18 6.33206e-07
8 *821:8 *840:137 3.47607e-06
9 *353:21 *821:8 1.64764e-06
10 *404:8 *1798:A 5.60174e-06
*RES
1 *1789:Y *821:8 37.2158 
2 *821:8 *821:12 19.8741 
3 *821:12 *1308:B 17.2 
4 *821:12 *1798:A 28.9662 
*END

*D_NET *822 0.000148034
*CONN
*I *922:A I *D AND3x1_ASAP7_75t_SL
*I *1012:C I *D OR3x1_ASAP7_75t_SL
*I *1790:Y O *D BUFx3_ASAP7_75t_SL
*CAP
1 *922:A 1.12403e-05
2 *1012:C 2.56154e-05
3 *1790:Y 7.21774e-06
4 *822:8 4.40734e-05
5 *3:30 *1012:C 7.58545e-06
6 *225:31 *922:A 2.63431e-05
7 *225:31 *822:8 2.3276e-05
8 *227:8 *1012:C 1.0391e-06
9 *632:12 *922:A 1.64348e-06
10 *647:8 *922:A 0
11 *647:8 *822:8 0
*RES
1 *1790:Y *822:8 42.2843 
2 *822:8 *1012:C 46.701 
3 *822:8 *922:A 44.4803 
*END

*D_NET *823 0.00191428
*CONN
*I *1533:CLK I *D DFFHQNx1_ASAP7_75t_SL
*I *1532:CLK I *D DFFHQNx1_ASAP7_75t_SL
*I *1538:CLK I *D DFFHQNx1_ASAP7_75t_SL
*I *1539:CLK I *D DFFHQNx1_ASAP7_75t_SL
*I *1832:A I *D INVx6_ASAP7_75t_SL
*I *1527:CLK I *D DFFHQNx1_ASAP7_75t_SL
*I *1540:CLK I *D DFFHQNx1_ASAP7_75t_SL
*I *1509:CLK I *D DFFHQNx1_ASAP7_75t_SL
*I *1791:Y O *D BUFx4_ASAP7_75t_SL
*CAP
1 *1533:CLK 1.91734e-05
2 *1532:CLK 0
3 *1538:CLK 0
4 *1539:CLK 0
5 *1832:A 0
6 *1527:CLK 0
7 *1540:CLK 0
8 *1509:CLK 0
9 *1791:Y 0
10 *823:86 2.50246e-05
11 *823:82 0.000102835
12 *823:73 4.45661e-05
13 *823:69 0.000111302
14 *823:62 3.42907e-05
15 *823:60 5.57376e-05
16 *823:46 0.000253469
17 *823:44 0.000264084
18 *823:38 2.23402e-05
19 *823:34 4.83174e-05
20 *823:18 5.88672e-05
21 *823:16 6.17155e-05
22 *823:12 2.84835e-06
23 *823:10 4.65797e-05
24 *823:8 7.99846e-05
25 *823:4 4.0453e-05
26 *823:16 *876:6 2.12481e-06
27 *823:34 *846:127 1.79289e-08
28 *823:46 *877:14 7.81138e-06
29 *823:46 *895:6 2.54511e-05
30 *823:82 *889:14 3.44136e-05
31 *975:A3 *823:46 1.51653e-06
32 *1089:A *823:82 1.29877e-05
33 *1090:A *823:34 6.8435e-06
34 *1090:A *823:60 9.94583e-06
35 *1655:A *823:62 2.0895e-06
36 *1818:A *823:46 1.1057e-05
37 *3:30 *823:18 6.18268e-06
38 *4:8 *823:82 8.87763e-06
39 *76:22 *823:18 1.12894e-06
40 *170:10 *823:73 0
41 *216:22 *823:8 6.7842e-07
42 *216:30 *823:8 2.54159e-06
43 *217:26 *823:34 1.81002e-05
44 *217:26 *823:44 3.38681e-06
45 *217:26 *823:60 1.50458e-05
46 *217:38 *823:8 9.33789e-06
47 *220:38 *823:8 5.22376e-07
48 *225:39 *823:18 0
49 *225:50 *823:10 0
50 *227:14 *823:18 2.22278e-05
51 *227:18 *823:18 5.79312e-06
52 *262:31 *823:18 6.65157e-06
53 *499:20 *823:18 1.20599e-05
54 *501:57 *823:73 0
55 *524:94 *823:60 4.90056e-06
56 *529:22 *823:38 3.13426e-06
57 *529:28 *823:10 6.33206e-07
58 *584:14 *823:86 1.36943e-05
59 *586:14 *823:73 0
60 *590:10 *823:60 0
61 *591:8 *823:10 5.65663e-06
62 *592:8 *823:44 8.45637e-06
63 *592:8 *823:60 1.70866e-06
64 *592:24 *823:86 2.68933e-07
65 *596:8 *823:46 5.85387e-06
66 *619:10 *823:73 6.74311e-06
67 *620:10 *823:73 0
68 *654:8 *823:18 1.30972e-05
69 *654:16 *823:10 0.000136522
70 *654:16 *823:18 6.68566e-06
71 *654:16 *823:44 0
72 *663:25 *823:18 0
73 *663:70 *823:86 1.01014e-05
74 *663:74 *823:86 1.60673e-05
75 *688:8 *823:73 5.67735e-06
76 *727:29 *823:10 3.00603e-06
77 *727:29 *823:18 6.33206e-07
78 *728:26 *823:60 0
79 *728:39 *823:60 0
80 *728:60 *823:46 0.000145235
81 *736:38 *823:86 1.09842e-06
82 *762:10 *823:34 1.96887e-05
83 *820:18 *823:18 2.29213e-06
84 *820:81 *823:86 0
85 *820:115 *823:73 0
86 *820:123 *823:73 0
87 *820:251 *823:86 4.74248e-06
*RES
1 *1791:Y *823:4 17.2 
2 *823:4 *823:8 31.6403 
3 *823:8 *823:10 46.1796 
4 *823:10 *823:12 17.2 
5 *823:12 *823:16 18.8045 
6 *823:16 *823:18 52.3744 
7 *823:18 *1509:CLK 34.4 
8 *823:12 *1540:CLK 17.2 
9 *823:4 *823:34 26.2107 
10 *823:34 *823:38 22.0134 
11 *823:38 *823:44 43.4107 
12 *823:44 *823:46 121.405 
13 *823:46 *1527:CLK 17.2 
14 *823:38 *1832:A 17.2 
15 *823:34 *823:60 41.9793 
16 *823:60 *823:62 14.4403 
17 *823:62 *1539:CLK 17.2 
18 *823:62 *823:69 4.81343 
19 *823:69 *823:73 48.1741 
20 *823:73 *1538:CLK 34.4 
21 *823:69 *823:82 36.9029 
22 *823:82 *823:86 41.9793 
23 *823:86 *1532:CLK 34.4 
24 *823:82 *1533:CLK 28.4313 
*END

*D_NET *824 0.000114991
*CONN
*I *976:A I *D XOR2x2_ASAP7_75t_SL
*I *1382:B I *D OR3x1_ASAP7_75t_SL
*I *1792:Y O *D BUFx3_ASAP7_75t_SL
*CAP
1 *976:A 0
2 *1382:B 0
3 *1792:Y 5.16055e-06
4 *824:14 3.88771e-05
5 *824:8 4.40377e-05
6 *824:8 *835:12 4.89331e-06
7 *824:14 *835:12 1.908e-06
8 *824:14 *844:77 2.20493e-06
9 *824:14 *844:85 3.90258e-06
10 *977:C *824:14 1.4007e-05
11 *604:12 *824:8 0
*RES
1 *1792:Y *824:8 38.9053 
2 *824:8 *824:14 41.887 
3 *824:14 *1382:B 17.2 
4 *824:8 *976:A 34.4 
*END

*D_NET *825 0.000916324
*CONN
*I *1228:B I *D AOI21x1_ASAP7_75t_SL
*I *1290:A I *D NOR2x1_ASAP7_75t_SL
*I *1354:B I *D AOI21x1_ASAP7_75t_SL
*I *1249:A I *D NOR2x2_ASAP7_75t_SL
*I *1793:Y O *D BUFx3_ASAP7_75t_SL
*CAP
1 *1228:B 5.39325e-06
2 *1290:A 0
3 *1354:B 2.69297e-06
4 *1249:A 1.57557e-05
5 *1793:Y 0
6 *825:51 3.04296e-05
7 *825:45 3.37364e-05
8 *825:37 0.000119371
9 *825:35 0.000113371
10 *825:33 5.12515e-05
11 *825:31 5.142e-05
12 *825:25 5.32857e-05
13 *825:12 2.58441e-05
14 *825:4 5.78123e-05
15 *1224:A *825:33 1.68491e-05
16 *1226:B *825:33 0
17 *1354:A2 *825:51 5.58366e-06
18 *185:36 *825:37 0
19 *186:46 *825:25 1.76736e-05
20 *192:16 *825:37 0
21 *195:25 *825:31 9.08513e-06
22 *264:18 *825:33 2.27339e-05
23 *268:20 *825:33 0
24 *268:26 *825:37 8.52138e-05
25 *282:8 *825:25 1.67815e-06
26 *282:16 *825:25 2.80709e-06
27 *285:14 *825:37 5.37321e-06
28 *285:28 *825:12 0
29 *327:8 *825:33 0
30 *330:8 *825:33 0
31 *351:8 *1249:A 2.03526e-06
32 *387:10 *825:45 2.20028e-06
33 *438:12 *825:51 3.02926e-06
34 *462:10 *825:45 9.03277e-07
35 *462:10 *825:51 7.93357e-05
36 *663:95 *825:12 5.19475e-06
37 *663:95 *825:25 4.41457e-05
38 *693:94 *825:12 6.94376e-06
39 *699:46 *1228:B 2.03526e-06
40 *731:57 *825:33 0
41 *733:33 *825:33 3.73518e-07
42 *733:35 *825:25 0
43 *733:35 *825:33 2.73415e-06
44 *807:25 *1228:B 4.07915e-06
45 *807:25 *825:33 2.17666e-05
46 *819:42 *1354:B 5.85387e-06
47 *819:42 *825:51 8.33296e-06
*RES
1 *1793:Y *825:4 17.2 
2 *825:4 *825:12 41.6361 
3 *825:12 *1249:A 26.292 
4 *825:4 *825:25 48.0288 
5 *825:25 *825:31 37.0741 
6 *825:31 *825:33 38.0137 
7 *825:33 *825:35 17.2 
8 *825:35 *825:37 38.7424 
9 *825:37 *825:45 37.9189 
10 *825:45 *825:51 45.8364 
11 *825:51 *1354:B 36.0045 
12 *825:45 *1290:A 17.2 
13 *825:33 *1228:B 37.9756 
*END

*D_NET *826 8.21595e-05
*CONN
*I *1803:A I *D BUFx3_ASAP7_75t_SL
*I *1232:C I *D OR3x1_ASAP7_75t_SL
*I *1794:Y O *D BUFx3_ASAP7_75t_SL
*CAP
1 *1803:A 1.31524e-05
2 *1232:C 0
3 *1794:Y 7.11796e-06
4 *826:10 1.31524e-05
5 *826:8 7.11796e-06
6 *84:10 *826:8 2.83874e-07
7 *625:12 *826:8 1.66587e-05
8 *625:20 *1803:A 1.27255e-05
9 *655:22 *826:8 1.19507e-05
*RES
1 *1794:Y *826:8 42.2843 
2 *826:8 *826:10 17.2 
3 *826:10 *1232:C 17.2 
4 *826:10 *1803:A 27.3617 
*END

*D_NET *827 0.00225954
*CONN
*I *1831:A I *D BUFx24_ASAP7_75t_SL
*I *1541:CLK I *D DFFHQNx1_ASAP7_75t_SL
*I *1529:CLK I *D DFFHQNx1_ASAP7_75t_SL
*I *1530:CLK I *D DFFHQNx1_ASAP7_75t_SL
*I *1523:CLK I *D DFFHQNx1_ASAP7_75t_SL
*I *1524:CLK I *D DFFHQNx1_ASAP7_75t_SL
*I *1525:CLK I *D DFFHQNx1_ASAP7_75t_SL
*I *1522:CLK I *D DFFHQNx1_ASAP7_75t_SL
*I *1528:CLK I *D DFFHQNx1_ASAP7_75t_SL
*I *1526:CLK I *D DFFHQNx1_ASAP7_75t_SL
*I *1795:Y O *D BUFx4_ASAP7_75t_SL
*CAP
1 *1831:A 1.05142e-05
2 *1541:CLK 0
3 *1529:CLK 0
4 *1530:CLK 0
5 *1523:CLK 0
6 *1524:CLK 0
7 *1525:CLK 0
8 *1522:CLK 0
9 *1528:CLK 0
10 *1526:CLK 2.84835e-06
11 *1795:Y 5.26104e-06
12 *827:124 3.04305e-05
13 *827:106 2.29595e-05
14 *827:100 6.16689e-05
15 *827:98 6.91399e-05
16 *827:96 8.20777e-05
17 *827:94 8.20777e-05
18 *827:87 1.09323e-05
19 *827:67 5.35758e-05
20 *827:61 0.000119748
21 *827:45 7.06833e-05
22 *827:43 7.80732e-05
23 *827:39 4.25834e-05
24 *827:37 4.17042e-05
25 *827:26 9.35898e-06
26 *827:24 2.76977e-05
27 *827:22 0.000119391
28 *827:16 0.000221992
29 *827:14 0.000257227
30 *827:12 9.52794e-05
31 *827:8 3.93667e-05
32 *1526:CLK *854:58 2.12481e-06
33 *827:8 *846:147 2.83874e-07
34 *827:12 *846:147 1.49407e-08
35 *827:14 *882:12 3.24501e-05
36 *827:16 *882:12 0.000127031
37 *827:37 *854:58 2.79851e-06
38 *827:39 *854:62 1.67821e-05
39 *827:39 *854:64 3.13216e-05
40 *827:106 *881:10 6.10236e-07
41 *914:B *827:24 0
42 *915:B *827:16 1.26378e-06
43 *915:B *827:22 2.28884e-06
44 *918:B1 *827:87 9.08513e-06
45 *949:B1 *827:106 1.31577e-05
46 *1406:A *827:12 1.19507e-05
47 *1406:B *827:12 6.11625e-06
48 *1529:D *827:100 1.91973e-05
49 *1529:D *827:106 1.91973e-05
50 *12:8 *827:96 1.09067e-06
51 *12:27 *827:96 1.64348e-06
52 *13:10 *827:96 0
53 *13:10 *827:124 6.39911e-06
54 *13:23 *827:96 0
55 *216:51 *1831:A 3.73144e-06
56 *216:51 *827:12 1.74049e-06
57 *217:44 *827:8 2.83874e-07
58 *217:44 *827:12 2.98814e-08
59 *217:74 *827:12 0
60 *219:45 *827:12 1.12532e-05
61 *220:38 *1831:A 1.07377e-06
62 *226:10 *827:124 1.13071e-05
63 *486:26 *827:96 1.95817e-05
64 *496:10 *827:96 2.23994e-05
65 *496:16 *827:96 1.13631e-05
66 *526:10 *827:39 0
67 *526:16 *827:45 1.25942e-05
68 *528:8 *827:45 9.92599e-06
69 *544:8 *827:24 5.1866e-06
70 *545:8 *827:22 0
71 *545:8 *827:24 0
72 *546:8 *827:22 4.58327e-06
73 *546:14 *827:22 3.56648e-06
74 *550:16 *827:22 2.47303e-05
75 *550:16 *827:24 0.00011218
76 *550:16 *827:87 0
77 *552:21 *827:12 0
78 *555:14 *827:39 0
79 *556:12 *827:39 1.02307e-05
80 *572:10 *827:96 0
81 *573:12 *827:100 3.79998e-06
82 *573:12 *827:106 4.99576e-06
83 *576:10 *827:96 3.86859e-05
84 *697:24 *827:24 6.97416e-06
85 *697:26 *827:24 4.48918e-05
86 *697:26 *827:39 9.63076e-06
87 *701:10 *827:39 1.97947e-06
88 *753:30 *827:96 1.30749e-05
89 *781:8 *827:96 0
90 *786:41 *827:61 1.0391e-06
91 *817:86 *827:16 9.30483e-06
*RES
1 *1795:Y *827:8 37.779 
2 *827:8 *827:12 34.6581 
3 *827:12 *827:14 29.4154 
4 *827:14 *827:16 86.1068 
5 *827:16 *827:22 34.233 
6 *827:22 *827:24 37.7321 
7 *827:24 *827:26 17.2 
8 *827:26 *1526:CLK 18.8045 
9 *827:26 *827:37 20.9438 
10 *827:37 *827:39 36.6058 
11 *827:39 *827:43 21.7053 
12 *827:43 *827:45 36.9029 
13 *827:45 *1528:CLK 17.2 
14 *827:39 *1522:CLK 34.4 
15 *827:22 *827:61 43.4064 
16 *827:61 *827:67 45.6627 
17 *827:67 *1525:CLK 34.4 
18 *827:61 *1524:CLK 17.2 
19 *827:16 *827:87 40.4531 
20 *827:87 *1523:CLK 17.2 
21 *827:14 *827:94 17.2 
22 *827:94 *827:96 69.2694 
23 *827:96 *827:98 17.2 
24 *827:98 *827:100 21.9278 
25 *827:100 *827:106 32.9367 
26 *827:106 *1530:CLK 34.4 
27 *827:100 *1529:CLK 17.2 
28 *827:98 *827:124 37.442 
29 *827:124 *1541:CLK 34.4 
30 *827:8 *1831:A 39.2134 
*END

*D_NET *828 0.000199127
*CONN
*I *1337:A I *D OR3x1_ASAP7_75t_SL
*I *1796:Y O *D BUFx3_ASAP7_75t_SL
*CAP
1 *1337:A 2.22261e-06
2 *1796:Y 0
3 *828:8 7.54517e-05
4 *828:6 7.32291e-05
5 *828:8 *982:B 9.89069e-07
6 *828:8 *999:D 1.94229e-07
7 *828:8 *843:78 2.18285e-06
8 *828:8 *844:77 6.70084e-06
9 *828:8 *850:32 0
10 *1383:B *828:8 1.32768e-05
11 *272:32 *828:8 0
12 *470:8 *828:8 0
13 *603:8 *828:8 1.49579e-05
14 *655:47 *828:8 0
15 *763:71 *828:8 1.80596e-06
16 *812:62 *828:8 8.1157e-06
*RES
1 *1796:Y *828:6 34.4 
2 *828:6 *828:8 58.5693 
3 *828:8 *1337:A 35.4697 
*END

*D_NET *829 0.000496237
*CONN
*I *1310:A I *D XNOR2x2_ASAP7_75t_SL
*I *948:A I *D XNOR2x1_ASAP7_75t_SL
*I *1797:Y O *D BUFx3_ASAP7_75t_SL
*CAP
1 *1310:A 4.6107e-06
2 *948:A 0
3 *1797:Y 2.27665e-05
4 *829:28 3.19468e-05
5 *829:26 4.07154e-05
6 *829:22 4.83685e-05
7 *829:20 5.09781e-05
8 *829:14 3.06852e-05
9 *829:6 4.66843e-05
10 *829:6 *840:18 3.73144e-06
11 *829:6 *840:22 3.65131e-06
12 *829:14 *1241:A 1.40419e-08
13 *829:14 *840:18 3.47607e-06
14 *829:14 *840:22 2.52755e-07
15 *829:22 *830:6 1.29753e-05
16 *829:22 *830:19 2.20493e-06
17 *829:26 *832:12 5.37866e-07
18 *829:28 *832:12 3.25708e-06
19 *829:28 *832:25 7.71651e-05
20 *1782:A *829:6 8.06588e-06
21 *1798:A *829:22 1.16955e-05
22 *353:21 *829:14 8.33296e-06
23 *363:10 *829:20 2.25787e-06
24 *383:43 *829:28 1.4864e-06
25 *384:53 *829:28 0
26 *404:8 *829:22 7.31327e-06
27 *413:16 *829:6 3.73144e-06
28 *653:18 *829:28 3.875e-06
29 *653:20 *829:28 1.67815e-06
30 *810:39 *829:22 2.27303e-05
31 *810:100 *829:20 1.93545e-05
32 *814:6 *829:14 8.06117e-06
33 *816:81 *829:28 1.15978e-05
34 *816:134 *829:6 2.03526e-06
*RES
1 *1797:Y *829:6 33.7796 
2 *829:6 *829:14 46.3079 
3 *829:14 *829:20 41.158 
4 *829:20 *829:22 33.694 
5 *829:22 *829:26 20.0158 
6 *829:26 *829:28 34.3531 
7 *829:28 *948:A 17.2 
8 *829:26 *1310:A 37.0741 
*END

*D_NET *830 0.000352416
*CONN
*I *937:A I *D XNOR2x2_ASAP7_75t_SL
*I *1294:A I *D XNOR2x2_ASAP7_75t_SL
*I *1798:Y O *D BUFx3_ASAP7_75t_SL
*CAP
1 *937:A 0
2 *1294:A 0
3 *1798:Y 9.77667e-06
4 *830:25 3.35086e-05
5 *830:23 4.03007e-05
6 *830:19 2.27045e-05
7 *830:6 2.5689e-05
8 *830:25 *872:56 1.04345e-05
9 *936:D *830:25 0
10 *1293:D *830:19 7.72297e-06
11 *383:37 *830:19 1.23312e-05
12 *383:37 *830:25 3.65431e-05
13 *384:12 *830:25 3.41808e-05
14 *384:18 *830:25 4.05395e-05
15 *384:53 *830:25 1.89747e-06
16 *390:10 *830:19 5.37569e-06
17 *404:8 *830:6 5.41446e-06
18 *404:14 *830:25 0
19 *405:12 *830:23 3.56177e-06
20 *413:26 *830:25 9.21559e-06
21 *413:30 *830:25 2.55347e-05
22 *564:8 *830:25 4.26751e-07
23 *729:27 *830:19 0
24 *810:45 *830:19 5.49212e-07
25 *814:29 *830:19 0
26 *814:44 *830:19 1.1529e-05
27 *829:22 *830:6 1.29753e-05
28 *829:22 *830:19 2.20493e-06
*RES
1 *1798:Y *830:6 26.292 
2 *830:6 *1294:A 17.2 
3 *830:6 *830:19 48.9573 
4 *830:19 *830:23 19.8741 
5 *830:23 *830:25 38.8585 
6 *830:25 *937:A 34.4 
*END

*D_NET *831 5.62356e-05
*CONN
*I *1308:A I *D OR2x2_ASAP7_75t_SL
*I *1800:A I *D BUFx6f_ASAP7_75t_SL
*I *1799:Y O *D BUFx3_ASAP7_75t_SL
*CAP
1 *1308:A 0
2 *1800:A 0
3 *1799:Y 9.20572e-06
4 *831:19 7.38698e-06
5 *831:6 1.65927e-05
6 *353:21 *831:19 5.51814e-06
7 *371:8 *831:19 1.3295e-05
8 *653:14 *831:6 3.16328e-06
9 *653:14 *831:19 1.07377e-06
*RES
1 *1799:Y *831:6 21.4786 
2 *831:6 *1800:A 17.2 
3 *831:6 *831:19 41.0446 
4 *831:19 *1308:A 17.2 
*END

*D_NET *832 0.000704716
*CONN
*I *1287:A I *D XOR2x2_ASAP7_75t_SL
*I *936:B I *D OR4x1_ASAP7_75t_SL
*I *931:B I *D OA21x2_ASAP7_75t_SL
*I *932:A I *D NOR3x1_ASAP7_75t_SL
*I *1293:A I *D OR4x1_ASAP7_75t_SL
*I *1800:Y O *D BUFx6f_ASAP7_75t_SL
*CAP
1 *1287:A 0
2 *936:B 6.52997e-06
3 *931:B 1.68968e-06
4 *932:A 0
5 *1293:A 5.39158e-06
6 *1800:Y 4.55183e-05
7 *832:62 1.79842e-05
8 *832:37 1.37156e-05
9 *832:31 3.62439e-05
10 *832:25 6.83148e-05
11 *832:23 5.16103e-05
12 *832:12 3.23013e-05
13 *832:8 3.42298e-05
14 *832:6 4.55183e-05
15 *931:B *842:20 5.62196e-06
16 *936:B *842:12 4.41457e-06
17 *832:25 *850:50 0
18 *832:25 *850:54 6.33206e-07
19 *832:31 *842:20 8.87763e-06
20 *832:31 *850:54 3.51963e-06
21 *832:31 *850:60 8.52654e-07
22 *832:37 *841:20 3.05118e-08
23 *931:A2 *832:31 2.46694e-05
24 *933:A2 *832:37 1.62854e-06
25 *342:16 *832:25 7.27031e-05
26 *383:43 *832:25 0
27 *384:22 *832:31 5.67747e-07
28 *384:53 *832:12 1.68513e-05
29 *391:8 *832:12 9.8079e-06
30 *391:8 *832:62 4.24343e-05
31 *391:31 *832:62 1.308e-05
32 *406:10 *832:62 0
33 *519:44 *832:25 4.49339e-06
34 *519:44 *832:31 1.70866e-06
35 *522:14 *832:31 7.30263e-06
36 *522:20 *832:31 8.04273e-06
37 *565:10 *832:31 1.15945e-06
38 *565:10 *832:37 1.47913e-06
39 *579:10 *832:37 0
40 *653:14 *832:6 1.77898e-05
41 *653:18 *832:12 0
42 *653:18 *832:62 0
43 *653:20 *832:25 8.85176e-06
44 *653:26 *832:25 8.18867e-06
45 *829:26 *832:12 5.37866e-07
46 *829:28 *832:12 3.25708e-06
47 *829:28 *832:25 7.71651e-05
*RES
1 *1800:Y *832:6 39.1278 
2 *832:6 *832:8 17.2 
3 *832:8 *832:12 33.5318 
4 *832:12 *1293:A 19.8741 
5 *832:12 *832:23 23.0831 
6 *832:23 *832:25 46.7428 
7 *832:25 *832:31 36.4857 
8 *832:31 *832:37 43.4107 
9 *832:37 *932:A 17.2 
10 *832:31 *931:B 18.8045 
11 *832:25 *936:B 37.609 
12 *832:8 *832:62 35.7845 
13 *832:62 *1287:A 17.2 
*END

*D_NET *833 0.000210199
*CONN
*I *1272:A I *D XOR2x2_ASAP7_75t_SL
*I *920:B I *D XNOR2x2_ASAP7_75t_SL
*I *1801:Y O *D BUFx3_ASAP7_75t_SL
*CAP
1 *1272:A 1.208e-05
2 *920:B 0
3 *1801:Y 2.63207e-05
4 *833:12 2.76521e-05
5 *833:8 6.60528e-05
6 *833:8 *839:22 1.60115e-05
7 *833:8 *839:54 1.10486e-05
8 *833:12 *837:22 1.93021e-05
9 *833:12 *837:65 1.02842e-06
10 *833:12 *839:68 4.67803e-07
11 *1263:B *833:12 5.10048e-06
12 *353:21 *833:12 1.35961e-06
13 *369:20 *833:12 2.19795e-06
14 *383:6 *1272:A 3.65131e-06
15 *383:6 *833:8 7.12825e-06
16 *413:18 *1272:A 1.12894e-06
17 *413:18 *833:12 6.98573e-06
18 *816:26 *833:12 2.68255e-06
*RES
1 *1801:Y *833:8 47.7706 
2 *833:8 *833:12 39.7266 
3 *833:12 *920:B 17.2 
4 *833:8 *1272:A 42.1426 
*END

*D_NET *834 0.000420846
*CONN
*I *1263:A I *D XOR2x2_ASAP7_75t_SL
*I *917:A I *D XNOR2x2_ASAP7_75t_SL
*I *1270:D I *D OR4x1_ASAP7_75t_SL
*I *1802:Y O *D BUFx3_ASAP7_75t_SL
*CAP
1 *1263:A 0
2 *917:A 0
3 *1270:D 0
4 *1802:Y 0
5 *834:44 2.0936e-05
6 *834:38 3.74638e-05
7 *834:23 6.44323e-05
8 *834:21 6.44323e-05
9 *834:12 2.09406e-05
10 *834:6 3.74684e-05
11 *834:12 *1270:C 1.16955e-05
12 *834:12 *837:6 2.28613e-05
13 *834:23 *837:40 0
14 *834:23 *839:68 2.2507e-06
15 *834:23 *839:123 1.62854e-06
16 *834:23 *840:46 0
17 *834:23 *842:8 0
18 *834:23 *850:99 5.67735e-06
19 *834:38 *839:10 1.03682e-05
20 *834:38 *839:18 9.08513e-06
21 *834:44 *839:10 0
22 *1271:A *834:12 1.60814e-06
23 *1271:A *834:38 1.64764e-06
24 *369:8 *834:12 2.55346e-06
25 *369:14 *834:23 2.89113e-05
26 *370:10 *834:38 1.95129e-06
27 *810:121 *834:38 1.40724e-05
28 *810:121 *834:44 4.41579e-05
29 *816:10 *834:23 1.54783e-06
30 *816:18 *834:23 7.09135e-06
31 *816:128 *834:38 0
32 *816:128 *834:44 8.06436e-06
*RES
1 *1802:Y *834:6 34.4 
2 *834:6 *834:12 31.3889 
3 *834:12 *1270:D 17.2 
4 *834:12 *834:21 17.2 
5 *834:21 *834:23 53.5008 
6 *834:23 *917:A 34.4 
7 *834:6 *834:38 48.5605 
8 *834:38 *834:44 32.8516 
9 *834:44 *1263:A 17.2 
*END

*D_NET *835 0.000269595
*CONN
*I *963:A I *D XNOR2x2_ASAP7_75t_SL
*I *1343:A I *D OR3x1_ASAP7_75t_SL
*I *1803:Y O *D BUFx3_ASAP7_75t_SL
*CAP
1 *963:A 3.45041e-06
2 *1343:A 1.94456e-06
3 *1803:Y 0
4 *835:16 5.60824e-05
5 *835:14 5.41378e-05
6 *835:12 2.87381e-05
7 *835:6 2.52877e-05
8 *835:16 *963:B 0
9 *835:16 *991:B 4.90042e-07
10 *835:16 *843:91 1.02392e-06
11 *984:B *835:12 0
12 *294:34 *835:16 1.89747e-06
13 *469:25 *835:16 1.03717e-05
14 *596:10 *835:12 2.25787e-06
15 *604:6 *963:A 2.07157e-05
16 *604:6 *835:12 2.31575e-05
17 *604:12 *835:16 0
18 *618:12 *835:12 8.33296e-06
19 *618:14 *963:A 7.94045e-06
20 *618:14 *835:12 9.75735e-06
21 *655:37 *835:12 0
22 *712:33 *835:16 3.31686e-06
23 *724:27 *835:12 0
24 *745:12 *1343:A 3.89037e-06
25 *824:8 *835:12 4.89331e-06
26 *824:14 *835:12 1.908e-06
*RES
1 *1803:Y *835:6 34.4 
2 *835:6 *835:12 40.4845 
3 *835:12 *835:14 17.2 
4 *835:14 *835:16 42.8006 
5 *835:16 *1343:A 35.4697 
6 *835:12 *963:A 23.0831 
*END

*D_NET *836 0.00191057
*CONN
*I *1158:B I *D AOI21x1_ASAP7_75t_SL
*I *1186:B I *D AOI21x1_ASAP7_75t_SL
*I *1401:A I *D OR2x2_ASAP7_75t_SL
*I *1221:A I *D NOR2x1_ASAP7_75t_SL
*I *1222:A I *D OR4x1_ASAP7_75t_SL
*I *981:B I *D AOI21x1_ASAP7_75t_SL
*I *967:C I *D AOI211x1_ASAP7_75t_SL
*I *1003:C I *D AOI211x1_ASAP7_75t_SL
*I *1804:Y O *D BUFx3_ASAP7_75t_SL
*CAP
1 *1158:B 0
2 *1186:B 0
3 *1401:A 0
4 *1221:A 0
5 *1222:A 2.41496e-05
6 *981:B 4.90532e-06
7 *967:C 0
8 *1003:C 2.3928e-05
9 *1804:Y 0
10 *836:135 4.96385e-05
11 *836:129 7.23876e-05
12 *836:120 3.28587e-05
13 *836:97 2.41496e-05
14 *836:95 4.2884e-05
15 *836:93 5.1141e-05
16 *836:89 2.87078e-05
17 *836:83 0.000126331
18 *836:81 0.000108914
19 *836:77 3.58922e-05
20 *836:75 7.42285e-05
21 *836:73 7.42285e-05
22 *836:71 4.9947e-05
23 *836:60 6.0335e-05
24 *836:54 5.72132e-05
25 *836:48 3.02927e-05
26 *836:44 5.02654e-05
27 *836:33 2.17563e-05
28 *836:31 2.6749e-05
29 *836:25 4.57559e-05
30 *836:10 7.42412e-05
31 *836:6 5.85043e-05
32 *836:44 *846:202 2.13376e-07
33 *836:48 *889:46 8.00372e-05
34 *836:48 *896:47 1.07377e-06
35 *836:54 *896:53 1.16088e-06
36 *836:71 *868:8 0
37 *836:120 *861:108 1.00241e-05
38 *836:129 *868:8 0
39 *836:135 *861:108 3.0709e-05
40 *965:A *836:31 3.65131e-06
41 *966:A *836:31 3.68287e-06
42 *966:C *836:31 0
43 *966:C *836:44 1.63048e-05
44 *967:B *836:44 1.14221e-05
45 *988:D *836:60 1.49407e-08
46 *1179:B *836:75 4.80344e-05
47 *1179:C *836:75 2.90209e-08
48 *1182:B *836:120 0
49 *1186:A2 *836:120 1.73158e-06
50 *1222:B *1222:A 1.95948e-05
51 *1401:B *836:93 1.26378e-06
52 *1459:B *836:135 0
53 *1741:A *1003:C 5.41446e-06
54 *51:18 *836:95 0
55 *70:14 *836:83 4.80588e-05
56 *86:27 *836:71 3.16603e-06
57 *117:10 *836:95 5.37569e-06
58 *118:8 *1222:A 1.96943e-05
59 *118:12 *836:95 0
60 *138:8 *836:89 5.52807e-07
61 *170:10 *1003:C 1.56713e-06
62 *179:10 *836:95 0
63 *209:28 *836:129 0
64 *294:20 *836:120 0
65 *295:8 *836:75 2.52755e-06
66 *529:99 *981:B 2.12481e-06
67 *585:10 *836:31 0
68 *585:10 *836:44 1.15587e-05
69 *585:18 *836:31 4.74248e-06
70 *589:8 *836:44 2.00962e-05
71 *598:22 *836:31 4.09005e-05
72 *598:38 *981:B 1.60115e-05
73 *598:38 *836:60 2.43869e-07
74 *601:8 *836:60 0
75 *607:16 *836:25 0
76 *607:16 *836:31 0
77 *607:33 *836:10 0
78 *655:14 *836:60 0
79 *663:74 *836:10 1.35739e-05
80 *663:74 *836:25 0
81 *663:74 *836:71 1.02642e-06
82 *663:83 *836:71 1.23709e-05
83 *663:83 *836:129 5.47831e-06
84 *667:8 *836:95 7.97945e-06
85 *680:18 *836:129 1.692e-05
86 *745:10 *836:135 0
87 *763:14 *836:129 7.15974e-07
88 *763:93 *836:129 0
89 *771:8 *836:71 1.12894e-06
90 *773:10 *1003:C 6.16795e-05
91 *773:27 *1003:C 2.74873e-05
92 *773:27 *836:25 1.62312e-05
93 *808:6 *836:83 1.60115e-05
94 *808:10 *836:75 1.91915e-05
95 *808:10 *836:83 4.56694e-05
96 *815:10 *836:44 0
97 *815:10 *836:48 4.71751e-06
*RES
1 *1804:Y *836:6 34.4 
2 *836:6 *836:10 41.9793 
3 *836:10 *1003:C 43.4064 
4 *836:10 *836:25 47.0977 
5 *836:25 *836:31 39.638 
6 *836:31 *836:33 17.2 
7 *836:33 *967:C 17.2 
8 *836:33 *836:44 36.4857 
9 *836:44 *836:48 39.1278 
10 *836:48 *836:54 35.4325 
11 *836:54 *836:60 36.3845 
12 *836:60 *981:B 39.2134 
13 *836:6 *836:71 23.0898 
14 *836:71 *836:73 17.2 
15 *836:73 *836:75 36.9029 
16 *836:75 *836:77 17.2 
17 *836:77 *836:81 18.8895 
18 *836:81 *836:83 71.1317 
19 *836:83 *836:89 48.4791 
20 *836:89 *836:93 22.0134 
21 *836:93 *836:95 34.3531 
22 *836:95 *836:97 17.2 
23 *836:97 *1222:A 37.5233 
24 *836:97 *1221:A 17.2 
25 *836:89 *1401:A 17.2 
26 *836:77 *836:120 37.1055 
27 *836:120 *1186:B 17.2 
28 *836:71 *836:129 34.6581 
29 *836:129 *836:135 44.7595 
30 *836:135 *1158:B 34.4 
*END

*D_NET *837 0.000574159
*CONN
*I *1270:C I *D OR4x1_ASAP7_75t_SL
*I *1262:C I *D OR5x1_ASAP7_75t_SL
*I *1252:A I *D INVx1_ASAP7_75t_SL
*I *916:D I *D OR5x1_ASAP7_75t_SL
*I *906:A I *D AND2x2_ASAP7_75t_SL
*I *1805:Y O *D BUFx3_ASAP7_75t_SL
*CAP
1 *1270:C 4.18226e-06
2 *1262:C 0
3 *1252:A 0
4 *916:D 2.91361e-06
5 *906:A 0
6 *1805:Y 1.9498e-05
7 *837:65 1.67433e-05
8 *837:40 4.03097e-05
9 *837:34 5.58888e-05
10 *837:28 3.98746e-05
11 *837:24 4.39525e-05
12 *837:22 1.38686e-05
13 *837:14 3.4437e-05
14 *837:6 4.42487e-05
15 *837:14 *1270:A 1.82541e-05
16 *837:14 *839:62 2.55346e-06
17 *837:28 *842:8 0
18 *837:34 *839:123 1.62312e-05
19 *837:34 *840:46 3.6269e-06
20 *837:40 *840:46 3.92018e-06
21 *837:40 *850:93 1.58301e-06
22 *837:40 *850:99 0
23 *837:65 *1270:A 2.71368e-06
24 *837:65 *840:116 1.35684e-06
25 *906:B *837:40 5.00816e-06
26 *919:C *837:22 5.96787e-07
27 *1271:A *837:14 1.849e-06
28 *353:14 *837:28 1.80102e-05
29 *353:14 *837:40 0
30 *353:21 *837:28 5.7728e-05
31 *353:21 *837:65 3.88054e-05
32 *362:8 *837:65 2.02277e-05
33 *369:14 *837:14 4.71862e-06
34 *538:8 *837:40 4.2449e-06
35 *547:8 *837:40 2.83874e-07
36 *550:8 *837:40 0
37 *550:16 *837:40 1.62854e-06
38 *816:26 *837:14 1.40419e-08
39 *833:12 *837:22 1.93021e-05
40 *833:12 *837:65 1.02842e-06
41 *834:12 *1270:C 1.16955e-05
42 *834:12 *837:6 2.28613e-05
43 *834:23 *837:40 0
*RES
1 *1805:Y *837:6 29.501 
2 *837:6 *837:14 48.3905 
3 *837:14 *837:22 47.2111 
4 *837:22 *837:24 17.2 
5 *837:24 *837:28 43.1056 
6 *837:28 *837:34 25.3924 
7 *837:34 *837:40 47.664 
8 *837:40 *906:A 17.2 
9 *837:34 *916:D 35.4697 
10 *837:28 *1252:A 17.2 
11 *837:24 *837:65 36.0642 
12 *837:65 *1262:C 17.2 
13 *837:6 *1270:C 22.0134 
*END

*D_NET *838 0.000350136
*CONN
*I *1370:B I *D OR4x1_ASAP7_75t_SL
*I *1371:A2 I *D OAI21x1_ASAP7_75t_SL
*I *1389:B I *D OR5x1_ASAP7_75t_SL
*I *1240:B I *D OR2x2_ASAP7_75t_SL
*I *1806:Y O *D BUFx6f_ASAP7_75t_SL
*CAP
1 *1370:B 1.51896e-05
2 *1371:A2 4.017e-06
3 *1389:B 0
4 *1240:B 0
5 *1806:Y 0
6 *838:32 3.11545e-05
7 *838:20 1.87374e-05
8 *838:12 5.89833e-05
9 *838:6 5.21938e-05
10 *1370:B *842:55 3.28629e-06
11 *1370:B *843:150 6.33206e-07
12 *838:12 *842:41 2.99852e-06
13 *838:12 *842:49 2.61441e-05
14 *838:12 *843:37 2.66797e-07
15 *838:12 *843:122 3.05118e-08
16 *838:32 *842:49 8.35336e-06
17 *838:32 *843:122 3.05118e-08
18 *1351:A *1370:B 1.64764e-06
19 *1371:A1 *1371:A2 5.85387e-06
20 *83:29 *838:20 0
21 *334:27 *838:20 3.00603e-06
22 *746:10 *838:12 9.49598e-06
23 *746:10 *838:32 2.735e-05
24 *746:29 *1370:B 8.00015e-06
25 *746:29 *1371:A2 2.03526e-06
26 *746:29 *838:32 4.71862e-06
27 *812:19 *838:12 4.30715e-05
28 *812:19 *838:20 2.29378e-05
*RES
1 *1806:Y *838:6 34.4 
2 *838:6 *838:12 43.4668 
3 *838:12 *838:20 45.8581 
4 *838:20 *1240:B 17.2 
5 *838:12 *1389:B 17.2 
6 *838:6 *838:32 11.2633 
7 *838:32 *1371:A2 37.0741 
8 *838:32 *1370:B 45.6066 
*END

*D_NET *839 0.00108757
*CONN
*I *1270:B I *D OR4x1_ASAP7_75t_SL
*I *907:B I *D NOR2x1_ASAP7_75t_SL
*I *916:B I *D OR5x1_ASAP7_75t_SL
*I *905:C I *D OR4x1_ASAP7_75t_SL
*I *902:A I *D XNOR2x2_ASAP7_75t_SL
*I *1262:B I *D OR5x1_ASAP7_75t_SL
*I *1242:A I *D XOR2x2_ASAP7_75t_SL
*I *1253:B I *D OR4x1_ASAP7_75t_SL
*I *1807:Y O *D BUFx3_ASAP7_75t_SL
*CAP
1 *1270:B 8.03501e-07
2 *907:B 0
3 *916:B 2.75048e-06
4 *905:C 2.58526e-06
5 *902:A 1.12624e-05
6 *1262:B 0
7 *1242:A 0
8 *1253:B 0
9 *1807:Y 2.21746e-05
10 *839:123 2.62443e-05
11 *839:117 2.34938e-05
12 *839:97 2.11442e-05
13 *839:87 3.41894e-05
14 *839:85 6.02895e-05
15 *839:74 1.13067e-05
16 *839:68 9.27414e-05
17 *839:62 4.54961e-05
18 *839:54 1.58159e-05
19 *839:41 3.47482e-05
20 *839:30 4.45329e-05
21 *839:26 4.62927e-05
22 *839:24 3.6508e-05
23 *839:22 1.47544e-05
24 *839:18 1.55826e-05
25 *839:10 3.53866e-05
26 *839:41 *1253:A 8.87763e-06
27 *839:74 *840:34 1.58252e-05
28 *839:74 *840:36 7.959e-06
29 *839:85 *840:36 2.11248e-05
30 *839:85 *840:40 3.47607e-06
31 *839:85 *850:64 0
32 *839:85 *850:70 0
33 *839:123 *840:46 3.00572e-05
34 *839:123 *840:55 2.96818e-06
35 *905:D *905:C 1.36155e-06
36 *906:B *902:A 2.52755e-07
37 *906:B *839:97 3.81627e-06
38 *1253:C *839:30 2.12481e-06
39 *353:21 *839:74 3.82021e-06
40 *354:8 *839:30 7.58265e-07
41 *354:8 *839:41 1.02506e-06
42 *363:10 *839:41 8.33296e-06
43 *369:20 *839:68 3.44487e-06
44 *370:10 *839:54 1.2903e-05
45 *383:6 *839:22 1.62312e-05
46 *383:6 *839:54 1.32074e-05
47 *413:18 *839:54 1.13819e-05
48 *413:18 *839:62 1.1274e-06
49 *413:18 *839:68 1.77481e-05
50 *514:97 *839:87 2.35485e-05
51 *533:51 *839:87 5.52807e-07
52 *538:8 *839:97 6.7842e-07
53 *539:8 *839:87 0
54 *548:10 *839:87 6.20423e-06
55 *548:10 *839:97 8.52859e-06
56 *550:8 *839:74 9.49598e-06
57 *550:8 *839:87 0
58 *648:21 *839:10 3.81627e-06
59 *656:27 *839:68 1.82028e-05
60 *656:27 *839:85 6.73256e-06
61 *728:79 *839:87 2.19685e-06
62 *728:79 *839:97 9.46189e-06
63 *810:66 *839:41 2.20966e-06
64 *816:18 *839:54 3.14574e-06
65 *816:18 *839:62 4.82798e-06
66 *816:18 *839:68 6.52764e-06
67 *816:26 *1270:B 3.89037e-06
68 *816:26 *839:62 6.7842e-07
69 *816:128 *839:26 1.04198e-05
70 *816:128 *839:54 3.78019e-05
71 *816:134 *839:26 7.30789e-05
72 *833:8 *839:22 1.60115e-05
73 *833:8 *839:54 1.10486e-05
74 *833:12 *839:68 4.67803e-07
75 *834:23 *839:68 2.2507e-06
76 *834:23 *839:123 1.62854e-06
77 *834:38 *839:10 1.03682e-05
78 *834:38 *839:18 9.08513e-06
79 *834:44 *839:10 0
80 *837:14 *839:62 2.55346e-06
81 *837:34 *839:123 1.62312e-05
*RES
1 *1807:Y *839:10 49.5735 
2 *839:10 *839:18 41.5795 
3 *839:18 *839:22 22.0134 
4 *839:22 *839:24 17.2 
5 *839:24 *839:26 33.2268 
6 *839:26 *839:30 21.4786 
7 *839:30 *1253:B 17.2 
8 *839:30 *839:41 34.9909 
9 *839:41 *1242:A 34.4 
10 *839:22 *839:54 35.0229 
11 *839:54 *839:62 37.694 
12 *839:62 *839:68 43.6368 
13 *839:68 *839:74 46.2265 
14 *839:74 *1262:B 17.2 
15 *839:68 *839:85 43.9769 
16 *839:85 *839:87 18.5845 
17 *839:87 *839:97 46.6479 
18 *839:97 *902:A 40.2831 
19 *839:87 *905:C 35.4697 
20 *839:85 *839:117 17.2 
21 *839:117 *839:123 37.2153 
22 *839:123 *916:B 35.4697 
23 *839:117 *907:B 17.2 
24 *839:54 *1270:B 35.4697 
*END

*D_NET *840 0.00124106
*CONN
*I *1253:A I *D OR4x1_ASAP7_75t_SL
*I *1233:B I *D OA21x2_ASAP7_75t_SL
*I *1236:A I *D NOR3x1_ASAP7_75t_SL
*I *1241:A I *D OR3x1_ASAP7_75t_SL
*I *1262:A I *D OR5x1_ASAP7_75t_SL
*I *1270:A I *D OR4x1_ASAP7_75t_SL
*I *907:A I *D NOR2x1_ASAP7_75t_SL
*I *1444:A I *D INVx1_ASAP7_75t_SL
*I *905:A I *D OR4x1_ASAP7_75t_SL
*I *1443:B I *D OA21x2_ASAP7_75t_SL
*I *901:B I *D OR3x1_ASAP7_75t_SL
*I *916:C I *D OR5x1_ASAP7_75t_SL
*I *1808:Y O *D BUFx3_ASAP7_75t_SL
*CAP
1 *1253:A 9.67068e-06
2 *1233:B 0
3 *1236:A 0
4 *1241:A 9.92174e-06
5 *1262:A 0
6 *1270:A 1.30884e-05
7 *907:A 0
8 *1444:A 3.55544e-06
9 *905:A 9.41449e-06
10 *1443:B 2.59453e-06
11 *901:B 0
12 *916:C 0
13 *1808:Y 5.17428e-05
14 *840:160 1.95533e-05
15 *840:147 1.10661e-05
16 *840:141 6.74363e-05
17 *840:137 6.53096e-05
18 *840:116 1.45255e-05
19 *840:78 3.34083e-05
20 *840:68 4.21795e-05
21 *840:66 1.57979e-05
22 *840:55 3.29699e-05
23 *840:46 2.37432e-05
24 *840:40 5.02187e-05
25 *840:36 2.72961e-05
26 *840:34 3.57845e-05
27 *840:26 3.66422e-05
28 *840:22 4.1265e-05
29 *840:18 2.53383e-05
30 *840:8 3.5737e-05
31 *840:6 5.17428e-05
32 *1443:B *872:73 2.03526e-06
33 *840:36 *843:8 1.34402e-05
34 *840:66 *850:70 4.37858e-05
35 *840:68 *850:70 3.22574e-06
36 *840:78 *850:70 5.10743e-06
37 *919:C *840:34 1.3988e-05
38 *1262:D *840:26 0
39 *1318:C *840:6 3.15957e-05
40 *1789:A *840:6 6.53466e-06
41 *343:14 *840:147 6.6421e-06
42 *344:12 *840:147 5.67735e-06
43 *353:8 *840:46 3.48165e-06
44 *353:21 *840:18 1.12894e-06
45 *353:21 *840:26 7.11817e-05
46 *353:21 *840:34 2.25701e-05
47 *353:21 *840:137 0
48 *354:8 *1253:A 2.0895e-06
49 *362:8 *1270:A 1.23489e-06
50 *363:10 *840:26 5.00394e-06
51 *371:8 *840:26 5.52652e-06
52 *413:10 *840:6 2.52755e-07
53 *413:10 *840:137 1.09067e-06
54 *413:18 *840:18 1.73882e-06
55 *514:89 *905:A 2.25244e-05
56 *514:89 *1444:A 1.44639e-06
57 *519:56 *840:78 4.40246e-06
58 *519:58 *1443:B 6.7842e-07
59 *521:8 *840:66 3.90551e-06
60 *533:37 *840:66 2.83449e-06
61 *533:45 *840:66 1.34329e-05
62 *534:10 *840:66 2.68933e-07
63 *534:10 *840:68 1.49407e-08
64 *534:10 *840:78 1.49407e-08
65 *550:8 *840:36 4.37021e-06
66 *651:14 *840:6 1.06856e-05
67 *653:10 *840:137 3.47607e-06
68 *653:14 *840:141 2.41882e-05
69 *653:14 *840:160 9.15905e-06
70 *810:56 *840:160 0
71 *810:66 *840:147 8.2174e-07
72 *810:100 *840:26 0
73 *810:108 *840:26 0
74 *813:21 *840:147 1.692e-05
75 *814:6 *1241:A 7.29792e-06
76 *816:26 *1270:A 1.88951e-06
77 *816:134 *840:137 0
78 *821:8 *840:18 6.33206e-07
79 *821:8 *840:137 3.47607e-06
80 *829:6 *840:18 3.73144e-06
81 *829:6 *840:22 3.65131e-06
82 *829:14 *1241:A 1.40419e-08
83 *829:14 *840:18 3.47607e-06
84 *829:14 *840:22 2.52755e-07
85 *834:23 *840:46 0
86 *837:14 *1270:A 1.82541e-05
87 *837:34 *840:46 3.6269e-06
88 *837:40 *840:46 3.92018e-06
89 *837:65 *1270:A 2.71368e-06
90 *837:65 *840:116 1.35684e-06
91 *839:41 *1253:A 8.87763e-06
92 *839:74 *840:34 1.58252e-05
93 *839:74 *840:36 7.959e-06
94 *839:85 *840:36 2.11248e-05
95 *839:85 *840:40 3.47607e-06
96 *839:123 *840:46 3.00572e-05
97 *839:123 *840:55 2.96818e-06
*RES
1 *1808:Y *840:6 44.4761 
2 *840:6 *840:8 17.2 
3 *840:8 *840:18 45.5216 
4 *840:18 *840:22 22.0134 
5 *840:22 *840:26 41.9793 
6 *840:26 *840:34 46.0281 
7 *840:34 *840:36 23.653 
8 *840:36 *840:40 20.0158 
9 *840:40 *840:46 38.5116 
10 *840:46 *916:C 34.4 
11 *840:40 *840:55 12.8358 
12 *840:55 *901:B 17.2 
13 *840:55 *840:66 32.4055 
14 *840:66 *840:68 1.6895 
15 *840:68 *840:78 45.3543 
16 *840:78 *1443:B 36.0045 
17 *840:68 *905:A 40.8179 
18 *840:66 *1444:A 36.0045 
19 *840:36 *907:A 34.4 
20 *840:26 *840:116 18.2696 
21 *840:116 *1270:A 25.7572 
22 *840:116 *1262:A 17.2 
23 *840:22 *1241:A 23.6179 
24 *840:8 *840:137 14.6423 
25 *840:137 *840:141 34.8492 
26 *840:141 *840:147 47.3528 
27 *840:147 *1236:A 17.2 
28 *840:141 *840:160 48.1107 
29 *840:160 *1233:B 17.2 
30 *840:137 *1253:A 41.5795 
*END

*D_NET *841 0.000580863
*CONN
*I *1007:B I *D OA21x2_ASAP7_75t_SL
*I *1390:A I *D XNOR2x2_ASAP7_75t_SL
*I *1809:Y O *D BUFx3_ASAP7_75t_SL
*CAP
1 *1007:B 3.7909e-06
2 *1390:A 0
3 *1809:Y 0
4 *841:35 1.81283e-05
5 *841:22 5.44863e-05
6 *841:20 7.59461e-05
7 *841:12 4.27145e-05
8 *841:6 0.000103981
9 *841:4 9.70641e-05
10 *841:6 *842:12 1.57583e-05
11 *841:6 *850:60 6.90453e-05
12 *841:12 *872:56 0
13 *841:20 *843:24 5.03675e-06
14 *841:20 *872:92 6.44347e-06
15 *841:22 *842:20 4.74205e-05
16 *841:35 *842:20 6.6195e-06
17 *841:35 *844:24 1.2768e-05
18 *931:A2 *841:12 2.73322e-06
19 *1007:A2 *1007:B 2.97289e-06
20 *1007:A2 *841:35 8.51183e-06
21 *83:10 *841:35 0
22 *384:22 *841:12 4.7341e-06
23 *560:8 *841:22 2.03526e-06
24 *579:10 *841:20 6.41585e-07
25 *832:37 *841:20 3.05118e-08
*RES
1 *1809:Y *841:4 17.2 
2 *841:4 *841:6 48.6691 
3 *841:6 *841:12 40.501 
4 *841:12 *841:20 46.4421 
5 *841:20 *841:22 33.694 
6 *841:22 *1390:A 17.2 
7 *841:22 *841:35 48.2241 
8 *841:35 *1007:B 19.8741 
*END

*D_NET *842 0.00112255
*CONN
*I *999:D I *D OR5x1_ASAP7_75t_SL
*I *997:A I *D INVx1_ASAP7_75t_SL
*I *1381:A I *D XNOR2x2_ASAP7_75t_SL
*I *1389:E I *D OR5x1_ASAP7_75t_SL
*I *1810:Y O *D BUFx3_ASAP7_75t_SL
*CAP
1 *999:D 9.93726e-06
2 *997:A 0
3 *1381:A 2.75748e-06
4 *1389:E 0
5 *1810:Y 7.32416e-06
6 *842:83 7.97213e-05
7 *842:79 7.77249e-05
8 *842:66 1.87676e-05
9 *842:55 2.99654e-05
10 *842:49 3.51277e-05
11 *842:43 2.86098e-05
12 *842:41 2.11364e-05
13 *842:28 2.37454e-05
14 *842:20 6.05787e-05
15 *842:18 5.80254e-05
16 *842:12 6.00856e-05
17 *842:10 5.01666e-05
18 *842:8 7.32416e-06
19 *999:D *999:A 1.36155e-06
20 *999:D *850:19 4.79902e-06
21 *842:12 *936:A 1.2768e-05
22 *842:12 *843:12 9.32753e-05
23 *842:12 *850:50 4.92332e-06
24 *842:12 *850:60 1.89164e-05
25 *842:28 *843:37 1.36155e-06
26 *842:28 *844:24 2.25787e-06
27 *842:41 *843:37 9.75735e-06
28 *842:49 *843:122 1.3387e-05
29 *842:55 *843:126 1.11233e-05
30 *842:55 *843:139 9.73915e-06
31 *842:55 *843:150 2.0153e-05
32 *842:55 *844:114 0
33 *842:55 *850:34 1.78906e-05
34 *842:79 *843:122 9.41947e-07
35 *842:83 *844:43 0
36 *931:B *842:20 5.62196e-06
37 *936:B *842:12 4.41457e-06
38 *936:D *842:12 1.52651e-06
39 *998:B *842:83 9.89902e-06
40 *1000:A1 *842:83 2.76948e-05
41 *1370:B *842:55 3.28629e-06
42 *1381:B *1381:A 5.85387e-06
43 *83:10 *842:28 0
44 *83:10 *842:41 5.00549e-06
45 *458:10 *842:55 1.34329e-05
46 *459:12 *842:55 8.06799e-07
47 *475:10 *842:28 5.22486e-06
48 *519:48 *842:12 5.85387e-06
49 *519:52 *842:12 3.78768e-05
50 *522:8 *842:18 0
51 *522:14 *842:20 2.29378e-05
52 *565:10 *842:18 9.48743e-06
53 *579:10 *842:18 0
54 *615:8 *842:79 2.99852e-06
55 *746:10 *842:43 0
56 *746:10 *842:55 8.92962e-06
57 *746:29 *842:55 4.58425e-06
58 *746:55 *842:66 0
59 *746:55 *842:79 0
60 *812:19 *842:28 3.89037e-06
61 *812:19 *842:41 2.50966e-05
62 *812:25 *842:41 4.79599e-06
63 *812:62 *999:D 3.30856e-06
64 *828:8 *999:D 1.94229e-07
65 *832:31 *842:20 8.87763e-06
66 *834:23 *842:8 0
67 *837:28 *842:8 0
68 *838:12 *842:41 2.99852e-06
69 *838:12 *842:49 2.61441e-05
70 *838:32 *842:49 8.35336e-06
71 *841:6 *842:12 1.57583e-05
72 *841:22 *842:20 4.74205e-05
73 *841:35 *842:20 6.6195e-06
*RES
1 *1810:Y *842:8 40.0317 
2 *842:8 *842:10 17.2 
3 *842:10 *842:12 54.0173 
4 *842:12 *842:18 42.2843 
5 *842:18 *842:20 43.3208 
6 *842:20 *842:28 43.354 
7 *842:28 *1389:E 17.2 
8 *842:28 *842:41 47.5192 
9 *842:41 *842:43 3.74377 
10 *842:43 *842:49 45.6633 
11 *842:49 *842:55 46.7927 
12 *842:55 *1381:A 36.0045 
13 *842:43 *842:66 4.81343 
14 *842:66 *997:A 17.2 
15 *842:66 *842:79 39.3835 
16 *842:79 *842:83 46.6154 
17 *842:83 *999:D 41.1013 
*END

*D_NET *843 0.00169605
*CONN
*I *1369:A1 I *D AO32x1_ASAP7_75t_SL
*I *1380:B I *D OR3x1_ASAP7_75t_SL
*I *1370:D I *D OR4x1_ASAP7_75t_SL
*I *1371:B I *D OAI21x1_ASAP7_75t_SL
*I *999:B I *D OR5x1_ASAP7_75t_SL
*I *992:A I *D NOR3x1_ASAP7_75t_SL
*I *991:B I *D OA21x2_ASAP7_75t_SL
*I *1383:A I *D XNOR2x2_ASAP7_75t_SL
*I *995:B I *D NOR2x1_ASAP7_75t_SL
*I *1389:D I *D OR5x1_ASAP7_75t_SL
*I *1811:Y O *D BUFx3_ASAP7_75t_SL
*CAP
1 *1369:A1 3.84912e-05
2 *1380:B 1.20366e-05
3 *1370:D 0
4 *1371:B 0
5 *999:B 7.40353e-07
6 *992:A 7.71852e-06
7 *991:B 9.32701e-06
8 *1383:A 0
9 *995:B 2.84496e-06
10 *1389:D 0
11 *1811:Y 2.44847e-06
12 *843:163 5.65596e-05
13 *843:150 4.13499e-05
14 *843:139 2.15082e-05
15 *843:126 1.78358e-05
16 *843:122 4.07732e-05
17 *843:91 2.65882e-05
18 *843:87 9.60163e-05
19 *843:80 8.64736e-05
20 *843:78 2.61366e-05
21 *843:72 3.20932e-05
22 *843:66 3.24029e-05
23 *843:60 5.59371e-05
24 *843:49 3.30761e-05
25 *843:47 3.31653e-05
26 *843:37 8.57146e-05
27 *843:28 6.91566e-05
28 *843:26 4.98079e-05
29 *843:24 4.37272e-05
30 *843:18 4.9568e-05
31 *843:12 3.77737e-05
32 *843:8 3.43814e-05
33 *992:A *992:B 6.5975e-06
34 *999:B *999:A 3.90258e-06
35 *999:B *999:C 5.22376e-07
36 *843:24 *844:14 7.28084e-06
37 *843:28 *1389:C 1.36155e-06
38 *843:47 *844:37 6.10236e-08
39 *843:66 *999:A 5.85387e-06
40 *843:66 *999:C 5.51397e-07
41 *843:66 *844:43 1.182e-05
42 *843:66 *844:54 1.57525e-05
43 *843:66 *844:71 4.40246e-06
44 *843:66 *850:19 2.00039e-05
45 *843:72 *850:19 1.57875e-05
46 *843:72 *850:32 6.63436e-06
47 *843:78 *1817:A 7.95905e-06
48 *843:78 *850:34 5.85387e-06
49 *843:91 *992:B 0
50 *843:122 *850:34 3.48981e-05
51 *843:126 *844:114 0
52 *843:139 *1370:C 4.24961e-06
53 *843:150 *1370:C 7.63254e-07
54 *998:A3 *843:37 5.41446e-06
55 *1351:A *843:150 0
56 *1370:B *843:150 6.33206e-07
57 *1380:C *1380:B 6.92634e-06
58 *1381:B *1380:B 2.01215e-05
59 *1383:B *843:78 3.75158e-06
60 *1445:B *843:28 1.41622e-05
61 *1780:A *843:28 5.34278e-06
62 *1806:A *843:122 3.13777e-05
63 *83:10 *843:47 0
64 *83:29 *843:28 1.52651e-06
65 *200:30 *1369:A1 3.71728e-05
66 *334:12 *843:47 0
67 *384:22 *843:18 0
68 *447:12 *1380:B 5.09299e-06
69 *447:16 *843:163 6.10236e-06
70 *457:8 *1369:A1 1.07377e-06
71 *458:10 *843:139 2.12481e-06
72 *458:10 *843:150 2.53282e-06
73 *458:10 *843:163 7.42614e-06
74 *459:12 *843:126 3.82021e-06
75 *459:12 *843:139 9.12594e-06
76 *460:10 *843:163 1.57573e-05
77 *469:8 *843:78 0
78 *469:25 *991:B 7.49203e-06
79 *469:25 *843:91 2.87968e-06
80 *469:38 *843:78 2.47522e-06
81 *475:10 *843:37 5.62196e-06
82 *476:6 *843:60 1.52651e-06
83 *476:10 *843:66 0
84 *533:8 *843:24 1.18898e-06
85 *550:8 *843:8 5.97901e-06
86 *579:10 *843:24 4.25954e-06
87 *613:8 *843:122 0
88 *615:8 *843:122 0
89 *655:47 *843:72 1.6372e-05
90 *700:8 *843:47 0
91 *719:16 *1369:A1 5.62196e-06
92 *746:63 *843:122 0
93 *746:79 *843:60 5.25794e-06
94 *763:45 *1369:A1 5.2818e-06
95 *769:89 *1369:A1 7.58545e-06
96 *812:19 *843:28 8.90942e-06
97 *812:19 *843:37 1.56713e-06
98 *812:25 *843:47 5.52807e-07
99 *812:25 *843:122 1.10561e-06
100 *812:39 *995:B 6.17507e-06
101 *812:39 *843:60 4.42883e-05
102 *812:43 *843:60 2.27479e-06
103 *828:8 *843:78 2.18285e-06
104 *835:16 *991:B 4.90042e-07
105 *835:16 *843:91 1.02392e-06
106 *838:12 *843:37 2.66797e-07
107 *838:12 *843:122 3.05118e-08
108 *838:32 *843:122 3.05118e-08
109 *840:36 *843:8 1.34402e-05
110 *841:20 *843:24 5.03675e-06
111 *842:12 *843:12 9.32753e-05
112 *842:28 *843:37 1.36155e-06
113 *842:41 *843:37 9.75735e-06
114 *842:49 *843:122 1.3387e-05
115 *842:55 *843:126 1.11233e-05
116 *842:55 *843:139 9.73915e-06
117 *842:55 *843:150 2.0153e-05
118 *842:79 *843:122 9.41947e-07
*RES
1 *1811:Y *843:8 38.9053 
2 *843:8 *843:12 45.5457 
3 *843:12 *843:18 37.4974 
4 *843:18 *843:24 33.975 
5 *843:24 *843:26 17.2 
6 *843:26 *843:28 33.694 
7 *843:28 *1389:D 17.2 
8 *843:28 *843:37 31.6403 
9 *843:37 *843:47 48.3026 
10 *843:47 *843:49 17.2 
11 *843:49 *995:B 18.8045 
12 *843:49 *843:60 39.1278 
13 *843:60 *843:66 38.5153 
14 *843:66 *843:72 42.2843 
15 *843:72 *843:78 35.1893 
16 *843:78 *843:80 17.2 
17 *843:80 *1383:A 17.2 
18 *843:80 *843:87 35.8333 
19 *843:87 *843:91 25.0843 
20 *843:91 *991:B 42.2843 
21 *843:91 *992:A 39.2134 
22 *843:66 *999:B 18.2696 
23 *843:37 *843:122 47.1292 
24 *843:122 *843:126 26.2107 
25 *843:126 *1371:B 34.4 
26 *843:126 *843:139 28.2933 
27 *843:139 *1370:D 17.2 
28 *843:139 *843:150 27.2803 
29 *843:150 *1380:B 45.0965 
30 *843:150 *843:163 34.6581 
31 *843:163 *1369:A1 46.0806 
*END

*D_NET *844 0.00153996
*CONN
*I *1370:C I *D OR4x1_ASAP7_75t_SL
*I *1380:A I *D OR3x1_ASAP7_75t_SL
*I *1374:A1 I *D AO211x2_ASAP7_75t_SL
*I *1361:A I *D NOR2x1_ASAP7_75t_SL
*I *1360:A I *D AND2x2_ASAP7_75t_SL
*I *1389:C I *D OR5x1_ASAP7_75t_SL
*I *982:B I *D OAI21x1_ASAP7_75t_SL
*I *1382:C I *D OR3x1_ASAP7_75t_SL
*I *999:C I *D OR5x1_ASAP7_75t_SL
*I *983:B I *D OR3x1_ASAP7_75t_SL
*I *995:A I *D NOR2x1_ASAP7_75t_SL
*I *1812:Y O *D BUFx3_ASAP7_75t_SL
*CAP
1 *1370:C 1.77363e-05
2 *1380:A 0
3 *1374:A1 1.85917e-05
4 *1361:A 0
5 *1360:A 5.87377e-06
6 *1389:C 1.32641e-06
7 *982:B 4.60248e-06
8 *1382:C 0
9 *999:C 1.23401e-05
10 *983:B 5.53502e-06
11 *995:A 0
12 *1812:Y 2.06184e-05
13 *844:178 2.49516e-05
14 *844:156 4.88956e-05
15 *844:150 5.34464e-05
16 *844:139 2.4985e-05
17 *844:128 3.66901e-05
18 *844:126 3.89247e-05
19 *844:122 2.18155e-05
20 *844:114 5.73685e-05
21 *844:85 5.13226e-06
22 *844:77 3.24638e-05
23 *844:71 5.35459e-05
24 *844:54 3.94521e-05
25 *844:43 7.25167e-05
26 *844:37 7.74922e-05
27 *844:24 6.28511e-05
28 *844:18 5.8771e-05
29 *844:16 4.88927e-05
30 *844:14 9.47401e-05
31 *844:12 9.47401e-05
32 *844:10 2.06184e-05
33 *982:B *999:A 2.30405e-06
34 *982:B *849:25 3.05118e-08
35 *983:B *872:128 2.12009e-06
36 *999:C *999:A 2.66797e-07
37 *844:10 *872:56 1.70708e-06
38 *998:B *844:43 8.31044e-07
39 *999:B *999:C 5.22376e-07
40 *1000:A1 *983:B 1.68781e-05
41 *1000:A1 *844:43 5.19552e-07
42 *1363:A2 *844:156 8.82188e-06
43 *1380:C *844:126 1.96943e-05
44 *1382:A *844:77 5.19552e-07
45 *83:10 *844:18 0
46 *83:29 *844:18 4.8028e-06
47 *83:29 *844:24 6.33206e-07
48 *84:35 *844:85 1.35684e-06
49 *200:36 *844:128 0
50 *200:36 *844:150 0
51 *200:47 *844:150 0
52 *270:75 *844:156 0
53 *270:79 *844:156 1.89747e-06
54 *292:43 *1374:A1 5.31101e-05
55 *334:12 *844:14 1.14009e-05
56 *334:12 *844:71 7.13985e-06
57 *334:27 *844:114 0
58 *334:42 *844:114 0
59 *403:8 *844:156 1.5236e-05
60 *403:14 *844:150 3.29527e-06
61 *413:22 *844:14 0
62 *415:18 *844:150 0
63 *423:8 *844:156 0
64 *449:10 *1360:A 3.73144e-06
65 *449:10 *844:150 1.12894e-06
66 *450:8 *844:150 0
67 *452:8 *1374:A1 1.2768e-05
68 *452:10 *844:156 4.777e-06
69 *459:12 *844:114 0
70 *459:12 *844:122 0
71 *459:12 *844:178 2.22736e-06
72 *476:6 *844:24 9.75735e-06
73 *476:6 *844:37 2.20493e-06
74 *481:8 *844:156 4.76072e-05
75 *481:14 *844:156 0
76 *617:10 *982:B 2.03526e-06
77 *617:10 *844:77 1.59697e-05
78 *653:50 *844:128 0
79 *655:22 *844:77 0
80 *655:22 *844:85 1.12901e-05
81 *724:12 *844:77 1.33022e-05
82 *724:12 *844:85 1.09067e-06
83 *746:73 *844:43 5.19498e-06
84 *746:73 *844:54 4.52311e-06
85 *746:73 *844:71 1.16088e-06
86 *746:79 *844:77 6.7842e-07
87 *793:14 *844:150 2.83874e-07
88 *810:8 *844:122 0
89 *810:8 *844:128 4.84588e-06
90 *810:21 *844:128 7.225e-05
91 *810:27 *1360:A 9.83747e-06
92 *810:27 *844:128 0
93 *810:27 *844:139 0
94 *810:27 *844:150 0
95 *810:151 *844:128 0
96 *810:151 *844:139 0
97 *810:151 *844:150 0
98 *812:8 *844:24 0
99 *812:19 *1389:C 3.89037e-06
100 *812:33 *844:37 2.57638e-06
101 *812:51 *983:B 1.95129e-06
102 *812:79 *844:71 2.18028e-05
103 *824:14 *844:77 2.20493e-06
104 *824:14 *844:85 3.90258e-06
105 *828:8 *982:B 9.89069e-07
106 *828:8 *844:77 6.70084e-06
107 *841:35 *844:24 1.2768e-05
108 *842:28 *844:24 2.25787e-06
109 *842:55 *844:114 0
110 *842:83 *844:43 0
111 *843:24 *844:14 7.28084e-06
112 *843:28 *1389:C 1.36155e-06
113 *843:47 *844:37 6.10236e-08
114 *843:66 *999:C 5.51397e-07
115 *843:66 *844:43 1.182e-05
116 *843:66 *844:54 1.57525e-05
117 *843:66 *844:71 4.40246e-06
118 *843:126 *844:114 0
119 *843:139 *1370:C 4.24961e-06
120 *843:150 *1370:C 7.63254e-07
*RES
1 *1812:Y *844:10 47.358 
2 *844:10 *844:12 17.2 
3 *844:12 *844:14 36.7945 
4 *844:14 *844:16 17.2 
5 *844:16 *844:18 6.66413 
6 *844:18 *844:24 47.1822 
7 *844:24 *995:A 17.2 
8 *844:24 *844:37 43.8888 
9 *844:37 *844:43 45.2093 
10 *844:43 *983:B 39.2134 
11 *844:43 *844:54 5.63166 
12 *844:54 *999:C 39.2134 
13 *844:54 *844:71 44.2203 
14 *844:71 *844:77 35.942 
15 *844:77 *844:85 39.4118 
16 *844:85 *1382:C 17.2 
17 *844:71 *982:B 37.7878 
18 *844:18 *1389:C 35.4697 
19 *844:16 *844:114 46.5785 
20 *844:114 *844:122 41.6361 
21 *844:122 *844:126 24.1527 
22 *844:126 *844:128 28.1583 
23 *844:128 *1360:A 41.3527 
24 *844:128 *844:139 1.6895 
25 *844:139 *1361:A 34.4 
26 *844:139 *844:150 33.5318 
27 *844:150 *844:156 47.0121 
28 *844:156 *1374:A1 48.8403 
29 *844:122 *1380:A 17.2 
30 *844:114 *844:178 41.0163 
31 *844:178 *1370:C 27.3617 
*END

*D_NET *845 3.47262e-05
*CONN
*I *1351:B I *D XNOR2x2_ASAP7_75t_SL
*I *1813:Y O *D BUFx3_ASAP7_75t_SL
*CAP
1 *1351:B 0
2 *1813:Y 1.23304e-05
3 *845:10 1.23304e-05
4 *476:10 *845:10 1.00654e-05
*RES
1 *1813:Y *845:10 43.8888 
2 *845:10 *1351:B 34.4 
*END

*D_NET *846 0.00248042
*CONN
*I *1786:A I *D BUFx4_ASAP7_75t_SL
*I *1783:A I *D BUFx4_ASAP7_75t_SL
*I *1795:A I *D BUFx4_ASAP7_75t_SL
*I *1791:A I *D BUFx4_ASAP7_75t_SL
*I *1830:A I *D BUFx4_ASAP7_75t_SL
*I *1829:A I *D BUFx4_ASAP7_75t_SL
*I *1828:A I *D BUFx4_ASAP7_75t_SL
*I *1827:A I *D BUFx4_ASAP7_75t_SL
*I *1814:Y O *D BUFx4_ASAP7_75t_SL
*CAP
1 *1786:A 0
2 *1783:A 0
3 *1795:A 0
4 *1791:A 0
5 *1830:A 0
6 *1829:A 7.17332e-06
7 *1828:A 0
8 *1827:A 0
9 *1814:Y 0
10 *846:202 9.60133e-07
11 *846:198 7.82395e-05
12 *846:192 8.97269e-05
13 *846:181 1.24475e-05
14 *846:179 6.08916e-06
15 *846:175 1.78599e-05
16 *846:167 0.000134546
17 *846:165 0.000132735
18 *846:147 9.72997e-06
19 *846:143 0.000128083
20 *846:141 0.000118353
21 *846:129 2.36334e-06
22 *846:127 1.16858e-05
23 *846:123 3.57265e-05
24 *846:111 0.000187167
25 *846:109 0.000177093
26 *846:95 1.17715e-05
27 *846:83 4.02757e-05
28 *846:77 4.86084e-05
29 *846:69 2.72776e-05
30 *846:67 0.000153597
31 *846:55 3.87925e-06
32 *846:51 7.57696e-05
33 *846:35 7.35195e-07
34 *846:31 6.39259e-05
35 *846:27 0.000183177
36 *846:21 0.000201693
37 *846:19 0.000112988
38 *846:17 0.000112988
39 *846:15 9.81936e-06
40 *846:6 3.44955e-06
41 *846:27 *885:12 1.63598e-05
42 *846:27 *885:29 1.04046e-07
43 *846:67 *885:29 2.98725e-05
44 *846:95 *862:10 5.79724e-07
45 *846:95 *862:140 1.09842e-06
46 *846:109 *863:102 3.02352e-06
47 *846:175 *874:8 4.12964e-06
48 *846:179 *874:8 5.72903e-06
49 *1062:B *846:83 8.78514e-07
50 *11:14 *846:192 3.05118e-08
51 *185:36 *846:51 0
52 *191:18 *846:83 6.6657e-06
53 *193:45 *846:31 3.83476e-05
54 *193:53 *846:27 2.13171e-05
55 *193:53 *846:67 2.155e-05
56 *195:33 *846:67 0
57 *198:10 *846:77 2.84274e-06
58 *216:14 *846:167 1.9257e-06
59 *216:14 *846:192 1.3592e-06
60 *216:20 *846:175 2.92601e-06
61 *216:28 *846:129 3.76506e-07
62 *217:34 *846:127 3.18516e-08
63 *217:34 *846:129 3.18516e-08
64 *217:44 *846:147 0
65 *219:14 *846:143 5.88452e-06
66 *219:14 *846:167 0
67 *219:45 *846:143 8.62313e-06
68 *219:45 *846:147 2.00889e-06
69 *220:30 *846:123 3.74016e-08
70 *220:30 *846:143 4.10292e-06
71 *220:30 *846:165 7.85434e-07
72 *220:30 *846:167 4.44596e-06
73 *272:14 *846:109 3.04745e-06
74 *282:87 *846:15 2.0915e-06
75 *286:12 *846:31 1.04046e-07
76 *287:12 *846:67 7.0179e-06
77 *287:28 *846:27 1.84643e-06
78 *294:68 *846:83 7.95909e-07
79 *294:76 *846:67 2.11942e-06
80 *303:8 *846:77 0
81 *303:8 *846:95 0
82 *377:25 *846:31 0
83 *418:18 *846:31 3.21442e-06
84 *420:22 *846:35 9.1471e-07
85 *430:10 *846:15 0
86 *462:10 *846:55 4.23627e-06
87 *514:14 *846:143 0
88 *583:10 *846:175 1.21036e-06
89 *589:8 *846:202 7.09787e-07
90 *636:10 *846:19 0
91 *636:10 *846:111 0
92 *655:14 *846:198 0
93 *663:54 *846:143 5.14087e-06
94 *663:54 *846:167 1.5506e-05
95 *663:70 *846:175 0
96 *686:10 *846:83 2.61761e-06
97 *689:45 *846:27 1.66025e-05
98 *739:14 *846:27 1.72524e-05
99 *739:20 *846:31 2.94031e-06
100 *756:10 *846:55 7.42904e-06
101 *762:10 *846:127 0
102 *815:10 *846:202 8.96443e-08
103 *823:34 *846:127 1.79289e-08
104 *827:8 *846:147 2.83874e-07
105 *827:12 *846:147 1.49407e-08
106 *836:44 *846:202 2.13376e-07
*RES
1 *1814:Y *846:6 34.4 
2 *846:6 *846:15 20.2212 
3 *846:15 *846:17 11.8 
4 *846:17 *846:19 53.3335 
5 *846:19 *846:21 11.8 
6 *846:21 *846:27 36.3396 
7 *846:27 *846:31 35.013 
8 *846:31 *846:35 17.857 
9 *846:35 *1827:A 34.4 
10 *846:27 *846:51 36.076 
11 *846:51 *846:55 22.3624 
12 *846:55 *1828:A 34.4 
13 *846:21 *846:67 54.2718 
14 *846:67 *846:69 17.2 
15 *846:69 *846:77 44.4891 
16 *846:77 *846:83 38.2588 
17 *846:83 *1829:A 20.9735 
18 *846:69 *846:95 9.47996 
19 *846:95 *1830:A 34.4 
20 *846:15 *846:109 14.8301 
21 *846:109 *846:111 72.4788 
22 *846:111 *846:123 43.1279 
23 *846:123 *846:127 22.2685 
24 *846:127 *846:129 1.22019 
25 *846:129 *1791:A 34.4 
26 *846:127 *846:141 17.2 
27 *846:141 *846:143 35.4958 
28 *846:143 *846:147 23.301 
29 *846:147 *1795:A 34.4 
30 *846:123 *846:165 27.8813 
31 *846:165 *846:167 41.7184 
32 *846:167 *846:175 42.0488 
33 *846:175 *846:179 4.81343 
34 *846:179 *846:181 17.2 
35 *846:181 *846:192 34.4749 
36 *846:192 *846:198 46.1372 
37 *846:198 *846:202 18.0447 
38 *846:202 *1783:A 34.4 
39 *846:179 *1786:A 17.2 
*END

*D_NET *847 9.94511e-05
*CONN
*I *1312:A I *D AND3x1_ASAP7_75t_SL
*I *1322:A I *D AND3x1_ASAP7_75t_SL
*I *1815:Y O *D BUFx6f_ASAP7_75t_SL
*CAP
1 *1312:A 8.04329e-06
2 *1322:A 0
3 *1815:Y 6.79946e-06
4 *847:14 2.68675e-05
5 *847:8 4.17103e-05
6 *847:8 *859:113 0
7 *847:14 *859:113 0
8 *847:14 *863:18 3.6269e-06
9 *847:14 *863:31 1.03816e-05
10 *392:10 *847:8 0
11 *392:10 *847:14 0
12 *407:10 *847:14 0
13 *709:18 *847:14 2.02204e-06
*RES
1 *1815:Y *847:8 38.9053 
2 *847:8 *847:14 38.9367 
3 *847:14 *1322:A 17.2 
4 *847:8 *1312:A 38.6786 
*END

*D_NET *848 0.000658936
*CONN
*I *1079:A2 I *D OAI21x1_ASAP7_75t_SL
*I *1067:A2 I *D OAI21x1_ASAP7_75t_SL
*I *1075:A2 I *D OAI21x1_ASAP7_75t_SL
*I *1077:A2 I *D OAI21x1_ASAP7_75t_SL
*I *1073:A2 I *D OAI21x1_ASAP7_75t_SL
*I *1071:A2 I *D OAI21x1_ASAP7_75t_SL
*I *1069:A2 I *D OAI21x1_ASAP7_75t_SL
*I *1816:Y O *D BUFx6f_ASAP7_75t_SL
*CAP
1 *1079:A2 0
2 *1067:A2 0
3 *1075:A2 0
4 *1077:A2 0
5 *1073:A2 0
6 *1071:A2 0
7 *1069:A2 1.07803e-05
8 *1816:Y 0
9 *848:96 1.68604e-05
10 *848:83 2.12624e-05
11 *848:77 8.98685e-05
12 *848:64 1.95701e-05
13 *848:53 2.63079e-05
14 *848:49 3.75846e-05
15 *848:38 3.10085e-06
16 *848:32 7.2662e-05
17 *848:19 6.12196e-05
18 *848:8 5.285e-05
19 *848:4 7.13101e-05
20 *848:8 *861:36 8.2174e-07
21 *848:8 *862:50 5.24059e-07
22 *848:77 *1066:B 0
23 *848:77 *869:57 6.71283e-06
24 *848:83 *861:62 2.05045e-06
25 *848:83 *861:64 5.62196e-06
26 *848:83 *869:33 0
27 *848:83 *869:44 0
28 *848:83 *869:57 1.11691e-05
29 *848:96 *862:75 1.2131e-06
30 *1066:D *848:77 0
31 *1070:D *848:19 0
32 *1072:C *848:49 3.47607e-06
33 *1073:B *848:49 1.51653e-06
34 *1077:A1 *848:64 2.12481e-06
35 *1077:B *848:53 1.25483e-05
36 *1079:A1 *848:77 2.99852e-06
37 *1079:A1 *848:83 8.79166e-06
38 *1079:A1 *848:96 4.98405e-06
39 *1205:A *848:53 4.57952e-06
40 *1205:A *848:64 1.31589e-05
41 *1207:B *848:64 0
42 *1208:A *848:64 5.22376e-07
43 *61:10 *848:83 7.90851e-06
44 *62:8 *848:96 3.56648e-06
45 *63:12 *848:49 0
46 *64:18 *848:64 1.00364e-05
47 *65:16 *848:38 3.47607e-06
48 *66:10 *848:19 2.29213e-06
49 *66:10 *848:32 7.0998e-06
50 *106:10 *848:96 9.94583e-06
51 *207:10 *848:49 2.95616e-05
52 *315:8 *848:64 5.51814e-06
53 *686:37 *848:8 0
54 *686:37 *848:19 0
55 *819:12 *1069:A2 1.334e-05
*RES
1 *1816:Y *848:4 17.2 
2 *848:4 *848:8 32.4055 
3 *848:8 *1069:A2 42.4224 
4 *848:8 *848:19 17.4581 
5 *848:19 *1071:A2 34.4 
6 *848:19 *848:32 41.4408 
7 *848:32 *848:38 37.2158 
8 *848:38 *1073:A2 17.2 
9 *848:32 *848:49 36.4857 
10 *848:49 *848:53 24.1527 
11 *848:53 *1077:A2 17.2 
12 *848:53 *848:64 35.246 
13 *848:64 *1075:A2 34.4 
14 *848:4 *848:77 38.7347 
15 *848:77 *848:83 36.2626 
16 *848:83 *1067:A2 17.2 
17 *848:77 *848:96 48.2241 
18 *848:96 *1079:A2 34.4 
*END

*D_NET *849 0.000418294
*CONN
*I *992:B I *D NOR3x1_ASAP7_75t_SL
*I *963:B I *D XNOR2x2_ASAP7_75t_SL
*I *991:A1 I *D OA21x2_ASAP7_75t_SL
*I *982:A1 I *D OAI21x1_ASAP7_75t_SL
*I *999:A I *D OR5x1_ASAP7_75t_SL
*I *1817:Y O *D BUFx6f_ASAP7_75t_SL
*CAP
1 *992:B 1.96296e-05
2 *963:B 1.22586e-05
3 *991:A1 0
4 *982:A1 0
5 *999:A 1.71766e-05
6 *1817:Y 5.3822e-06
7 *849:41 5.62167e-05
8 *849:32 6.33663e-05
9 *849:25 5.70643e-06
10 *849:12 2.8291e-05
11 *849:10 4.44457e-05
12 *849:8 5.3822e-06
13 *982:B *999:A 2.30405e-06
14 *982:B *849:25 3.05118e-08
15 *992:A *992:B 6.5975e-06
16 *993:A2 *849:41 2.0895e-06
17 *999:B *999:A 3.90258e-06
18 *999:C *999:A 2.66797e-07
19 *999:D *999:A 1.36155e-06
20 *469:8 *849:8 1.26417e-05
21 *501:57 *963:B 0
22 *604:12 *963:B 0
23 *611:8 *963:B 1.849e-06
24 *611:8 *992:B 4.67864e-06
25 *617:10 *999:A 1.01102e-06
26 *655:41 *999:A 6.04945e-05
27 *655:41 *849:12 1.86176e-05
28 *655:41 *849:32 3.49549e-05
29 *728:39 *963:B 1.46419e-06
30 *812:79 *849:25 2.32101e-06
31 *835:16 *963:B 0
32 *843:66 *999:A 5.85387e-06
33 *843:91 *992:B 0
*RES
1 *1817:Y *849:8 38.9053 
2 *849:8 *849:10 17.2 
3 *849:10 *849:12 4.81343 
4 *849:12 *999:A 32.7099 
5 *849:12 *849:25 38.3422 
6 *849:25 *982:A1 17.2 
7 *849:10 *849:32 22.9975 
8 *849:32 *991:A1 17.2 
9 *849:32 *849:41 29.501 
10 *849:41 *963:B 43.4107 
11 *849:41 *992:B 48.1674 
*END

*D_NET *850 0.0015258
*CONN
*I *1848:A I *D BUFx6f_ASAP7_75t_SL
*I *936:A I *D OR4x1_ASAP7_75t_SL
*I *901:A I *D OR3x1_ASAP7_75t_SL
*I *916:A I *D OR5x1_ASAP7_75t_SL
*I *905:B I *D OR4x1_ASAP7_75t_SL
*I *1817:A I *D BUFx6f_ASAP7_75t_SL
*I *1847:A I *D BUFx12f_ASAP7_75t_SL
*I *1818:Y O *D BUFx6f_ASAP7_75t_SL
*CAP
1 *1848:A 1.72302e-05
2 *936:A 1.5215e-06
3 *901:A 0
4 *916:A 0
5 *905:B 3.84395e-06
6 *1817:A 9.75409e-06
7 *1847:A 1.50389e-05
8 *1818:Y 1.63432e-05
9 *850:99 5.33884e-06
10 *850:93 2.53847e-05
11 *850:85 5.31842e-05
12 *850:70 6.08986e-05
13 *850:64 3.25308e-05
14 *850:60 3.14432e-05
15 *850:54 2.79652e-05
16 *850:50 3.95041e-05
17 *850:44 5.31195e-05
18 *850:42 2.06357e-05
19 *850:34 0.000150949
20 *850:32 0.000134329
21 *850:19 6.09937e-05
22 *850:8 7.86061e-05
23 *1847:A *872:8 0
24 *1848:A *873:12 1.95613e-05
25 *850:8 *872:10 8.47357e-06
26 *850:19 *872:10 6.94376e-06
27 *850:19 *872:18 1.12901e-05
28 *850:19 *872:128 7.75768e-06
29 *850:50 *873:12 2.94432e-05
30 *905:D *905:B 9.31704e-06
31 *905:D *850:70 1.66706e-05
32 *917:B *850:93 6.70433e-06
33 *999:D *850:19 4.79902e-06
34 *1796:A *850:19 2.53836e-05
35 *1806:A *850:34 1.55142e-05
36 *81:10 *850:19 1.34329e-05
37 *342:16 *1848:A 1.35684e-06
38 *342:16 *850:50 1.51529e-06
39 *383:71 *1848:A 4.97876e-07
40 *514:61 *850:8 7.78051e-06
41 *514:61 *850:19 3.32579e-06
42 *516:12 *850:8 8.06799e-07
43 *519:48 *850:60 3.67067e-06
44 *519:52 *850:60 3.74496e-05
45 *533:37 *850:64 1.12894e-06
46 *533:37 *850:70 3.05118e-08
47 *539:8 *850:70 4.42421e-06
48 *540:12 *850:70 2.27181e-05
49 *540:12 *850:85 3.05118e-08
50 *547:8 *850:93 4.35576e-08
51 *550:14 *850:85 5.10152e-07
52 *565:10 *850:50 3.79923e-06
53 *565:10 *850:54 1.1275e-05
54 *565:10 *850:60 4.59644e-06
55 *575:8 *850:42 7.23818e-06
56 *575:14 *850:34 2.28613e-05
57 *579:10 *850:50 0
58 *653:26 *1848:A 3.08125e-06
59 *653:26 *850:50 3.07925e-06
60 *655:47 *850:32 1.3516e-06
61 *655:47 *850:34 3.28736e-05
62 *724:8 *1847:A 3.05302e-06
63 *728:79 *850:70 0
64 *728:79 *850:85 1.19455e-05
65 *741:40 *850:8 0
66 *746:87 *850:8 0
67 *812:51 *850:19 1.65352e-05
68 *812:62 *850:19 2.83874e-07
69 *816:89 *1848:A 6.90789e-06
70 *816:91 *1848:A 3.56648e-06
71 *816:95 *1848:A 0
72 *816:95 *850:42 9.55807e-06
73 *816:107 *850:50 5.52885e-06
74 *828:8 *850:32 0
75 *832:25 *850:50 0
76 *832:25 *850:54 6.33206e-07
77 *832:31 *850:54 3.51963e-06
78 *832:31 *850:60 8.52654e-07
79 *834:23 *850:99 5.67735e-06
80 *837:40 *850:93 1.58301e-06
81 *837:40 *850:99 0
82 *839:85 *850:64 0
83 *839:85 *850:70 0
84 *840:66 *850:70 4.37858e-05
85 *840:68 *850:70 3.22574e-06
86 *840:78 *850:70 5.10743e-06
87 *841:6 *850:60 6.90453e-05
88 *842:12 *936:A 1.2768e-05
89 *842:12 *850:50 4.92332e-06
90 *842:12 *850:60 1.89164e-05
91 *842:55 *850:34 1.78906e-05
92 *843:66 *850:19 2.00039e-05
93 *843:72 *850:19 1.57875e-05
94 *843:72 *850:32 6.63436e-06
95 *843:78 *1817:A 7.95905e-06
96 *843:78 *850:34 5.85387e-06
97 *843:122 *850:34 3.48981e-05
*RES
1 *1818:Y *850:8 49.0423 
2 *850:8 *1847:A 40.8179 
3 *850:8 *850:19 45.6164 
4 *850:19 *1817:A 39.2134 
5 *850:19 *850:32 21.1422 
6 *850:32 *850:34 79.6889 
7 *850:34 *850:42 49.237 
8 *850:42 *850:44 17.2 
9 *850:44 *850:50 43.4704 
10 *850:50 *850:54 21.1422 
11 *850:54 *850:60 48.3049 
12 *850:60 *850:64 22.8317 
13 *850:64 *850:70 42.8506 
14 *850:70 *905:B 19.8741 
15 *850:70 *850:85 47.4977 
16 *850:85 *850:93 43.8303 
17 *850:93 *850:99 38.9053 
18 *850:99 *916:A 17.2 
19 *850:64 *901:A 34.4 
20 *850:54 *936:A 38.1438 
21 *850:44 *1848:A 48.7589 
*END

*D_NET *851 4.33743e-05
*CONN
*I *1432:A2 I *D OA211x2_ASAP7_75t_SL
*I *1819:Y O *D BUFx3_ASAP7_75t_SL
*CAP
1 *1432:A2 0
2 *1819:Y 2.05735e-05
3 *851:10 2.05735e-05
4 *851:10 *883:35 2.22736e-06
*RES
1 *1819:Y *851:10 45.9147 
2 *851:10 *1432:A2 34.4 
*END

*D_NET *852 0.000166764
*CONN
*I *1819:A I *D BUFx3_ASAP7_75t_SL
*I *1411:C I *D OR3x1_ASAP7_75t_SL
*I *1820:Y O *D BUFx3_ASAP7_75t_SL
*CAP
1 *1819:A 1.66294e-05
2 *1411:C 0
3 *1820:Y 7.68827e-06
4 *852:12 3.72186e-05
5 *852:8 2.82775e-05
6 *1819:A *894:6 3.15957e-05
7 *852:12 *894:6 5.40225e-06
8 *852:12 *894:16 1.31952e-05
9 *1869:A *1819:A 1.60115e-05
10 *262:58 *852:12 1.04765e-05
11 *499:47 *852:8 0
12 *499:53 *852:8 2.68933e-07
13 *722:28 *852:8 0
*RES
1 *1820:Y *852:8 38.9053 
2 *852:8 *852:12 32.1751 
3 *852:12 *1411:C 17.2 
4 *852:12 *1819:A 32.1751 
*END

*D_NET *853 0.000444783
*CONN
*I *1864:A I *D BUFx6f_ASAP7_75t_SL
*I *1871:A I *D BUFx6f_ASAP7_75t_SL
*I *1434:B I *D AND2x2_ASAP7_75t_SL
*I *960:B I *D AO21x1_ASAP7_75t_SL
*I *1821:Y O *D BUFx6f_ASAP7_75t_SL
*CAP
1 *1864:A 1.45383e-05
2 *1871:A 0
3 *1434:B 0
4 *960:B 0
5 *1821:Y 9.2198e-06
6 *853:42 2.32464e-05
7 *853:27 6.74712e-05
8 *853:23 6.4312e-05
9 *853:12 4.49691e-05
10 *853:8 4.864e-05
11 *853:12 *883:12 4.06808e-05
12 *853:12 *883:23 5.62196e-06
13 *853:23 *871:10 0
14 *853:23 *883:23 4.37879e-05
15 *959:B *853:27 1.37386e-05
16 *1093:B *1864:A 0
17 *1434:A *853:42 2.20128e-06
18 *11:14 *853:27 1.5804e-05
19 *79:18 *853:27 7.72307e-07
20 *79:18 *853:42 9.54913e-06
21 *220:20 *1864:A 1.36155e-06
22 *233:6 *853:12 3.16328e-06
23 *499:53 *1864:A 0
24 *499:53 *853:8 0
25 *512:8 *853:42 4.32473e-06
26 *514:22 *853:12 3.03791e-05
27 *583:10 *853:23 0
28 *722:18 *853:42 5.37866e-07
29 *815:88 *853:42 4.64191e-07
*RES
1 *1821:Y *853:8 40.0317 
2 *853:8 *853:12 43.9412 
3 *853:12 *960:B 17.2 
4 *853:12 *853:23 33.978 
5 *853:23 *853:27 39.1278 
6 *853:27 *1434:B 17.2 
7 *853:27 *853:42 47.9123 
8 *853:42 *1871:A 17.2 
9 *853:8 *1864:A 42.2276 
*END

*D_NET *854 0.00137208
*CONN
*I *930:A1 I *D AO21x1_ASAP7_75t_SL
*I *904:A2 I *D AO32x2_ASAP7_75t_SL
*I *913:A2 I *D OA211x2_ASAP7_75t_SL
*I *918:A2 I *D AO32x2_ASAP7_75t_SL
*I *927:A1 I *D OA211x2_ASAP7_75t_SL
*I *1450:A2 I *D AO21x1_ASAP7_75t_SL
*I *944:B I *D AND2x2_ASAP7_75t_SL
*I *1822:Y O *D BUFx3_ASAP7_75t_SL
*CAP
1 *930:A1 0
2 *904:A2 0
3 *913:A2 2.56617e-06
4 *918:A2 3.88513e-06
5 *927:A1 0
6 *1450:A2 1.61371e-05
7 *944:B 0
8 *1822:Y 2.31091e-05
9 *854:128 1.16131e-05
10 *854:76 1.72211e-05
11 *854:68 7.09094e-05
12 *854:64 7.4341e-05
13 *854:62 7.156e-06
14 *854:58 3.91829e-05
15 *854:52 5.21347e-05
16 *854:46 4.80046e-05
17 *854:40 4.56344e-05
18 *854:36 2.22463e-05
19 *854:34 4.16782e-05
20 *854:28 6.28979e-05
21 *854:22 3.15629e-05
22 *854:20 4.39573e-05
23 *854:14 0.000126048
24 *854:12 8.56854e-05
25 *854:8 3.83172e-05
26 *854:8 *1822:A 6.78445e-06
27 *854:8 *882:12 2.05012e-06
28 *918:A3 *918:A2 2.88806e-06
29 *918:A3 *854:40 3.6269e-06
30 *918:A3 *854:46 5.52807e-07
31 *924:A *854:52 4.83849e-06
32 *930:A2 *854:14 2.66797e-07
33 *930:B *854:14 6.70433e-06
34 *1526:CLK *854:58 2.12481e-06
35 *15:12 *854:12 0
36 *17:10 *854:46 0
37 *17:27 *854:58 3.59323e-06
38 *155:8 *854:20 0
39 *156:8 *913:A2 1.40419e-08
40 *156:14 *854:36 5.97063e-06
41 *156:14 *854:40 1.908e-06
42 *499:114 *854:12 0
43 *524:28 *854:76 2.48762e-06
44 *525:8 *854:76 2.20028e-06
45 *525:8 *854:128 1.49407e-08
46 *530:12 *854:12 2.67206e-05
47 *532:20 *854:20 2.66797e-07
48 *532:20 *854:28 2.96818e-06
49 *544:18 *854:40 3.875e-06
50 *548:10 *854:28 3.84449e-06
51 *550:16 *854:58 2.46166e-05
52 *554:27 *854:58 8.33296e-06
53 *557:12 *854:12 2.17578e-05
54 *557:23 *854:14 1.26378e-06
55 *565:16 *854:128 3.48165e-06
56 *565:18 *854:128 1.12901e-05
57 *697:26 *854:62 1.50385e-05
58 *697:26 *854:64 3.20014e-05
59 *742:6 *854:14 4.19852e-05
60 *742:14 *854:14 2.29378e-05
61 *784:8 *854:46 6.47083e-05
62 *786:18 *854:58 6.7203e-06
63 *786:28 *854:52 0
64 *786:28 *854:58 6.90042e-06
65 *817:48 *854:76 1.52743e-05
66 *817:107 *854:14 9.52454e-06
67 *817:107 *854:20 6.29856e-05
68 *817:107 *854:128 3.3921e-06
69 *817:118 *854:34 8.65947e-06
70 *817:124 *854:34 4.92332e-06
71 *817:124 *854:36 1.09067e-06
72 *817:134 *854:46 6.27229e-06
73 *817:134 *854:58 3.05118e-08
74 *827:37 *854:58 2.79851e-06
75 *827:39 *854:62 1.67821e-05
76 *827:39 *854:64 3.13216e-05
*RES
1 *1822:Y *854:8 45.6313 
2 *854:8 *854:12 34.6581 
3 *854:12 *854:14 37.9726 
4 *854:14 *854:20 40.874 
5 *854:20 *854:22 17.2 
6 *854:22 *854:28 38.3983 
7 *854:28 *854:34 48.8403 
8 *854:34 *854:36 7.88432 
9 *854:36 *854:40 26.2107 
10 *854:40 *854:46 49.7219 
11 *854:46 *854:52 40.2831 
12 *854:52 *854:58 46.1729 
13 *854:58 *854:62 22.8317 
14 *854:62 *854:64 10.4186 
15 *854:64 *854:68 38.4109 
16 *854:68 *854:76 46.4761 
17 *854:76 *944:B 17.2 
18 *854:64 *1450:A2 42.9572 
19 *854:62 *927:A1 34.4 
20 *854:40 *918:A2 19.8741 
21 *854:36 *913:A2 35.4697 
22 *854:22 *904:A2 17.2 
23 *854:14 *854:128 44.2252 
24 *854:128 *930:A1 17.2 
*END

*D_NET *855 0.000114887
*CONN
*I *928:B I *D AND4x2_ASAP7_75t_SL
*I *1454:A I *D AND3x1_ASAP7_75t_SL
*I *1823:Y O *D BUFx3_ASAP7_75t_SL
*CAP
1 *928:B 0
2 *1454:A 0
3 *1823:Y 1.67548e-05
4 *855:20 8.24801e-06
5 *855:14 1.68565e-05
6 *855:10 2.53633e-05
7 *928:A *855:14 1.35684e-06
8 *928:C *855:14 3.56648e-06
9 *1454:B *855:20 2.83449e-06
10 *1823:A *855:10 6.86929e-06
11 *529:44 *855:20 5.49212e-07
12 *529:55 *855:10 8.33296e-06
13 *557:12 *855:20 0
14 *557:23 *855:20 0
15 *753:30 *855:20 2.41555e-05
*RES
1 *1823:Y *855:10 44.1686 
2 *855:10 *855:14 22.0134 
3 *855:14 *855:20 44.537 
4 *855:20 *1454:A 17.2 
5 *855:14 *928:B 17.2 
*END

*D_NET *856 0.000264847
*CONN
*I *1171:C I *D AND5x2_ASAP7_75t_SL
*I *1769:A I *D BUFx3_ASAP7_75t_SL
*I *1824:Y O *D BUFx3_ASAP7_75t_SL
*CAP
1 *1171:C 0
2 *1769:A 0
3 *1824:Y 0
4 *856:27 6.71466e-06
5 *856:21 7.92967e-05
6 *856:14 1.63789e-05
7 *856:4 8.8961e-05
8 *856:14 *859:18 0
9 *856:21 *859:26 1.78333e-06
10 *1496:D *856:21 3.94687e-06
11 *41:6 *856:21 5.77516e-06
12 *41:12 *856:27 7.1053e-06
13 *43:8 *856:14 1.07377e-06
14 *43:10 *856:14 5.04414e-06
15 *401:10 *856:27 5.97901e-06
16 *423:8 *856:14 2.66663e-05
17 *423:16 *856:14 2.03526e-06
18 *471:14 *856:21 5.0551e-07
19 *723:44 *856:27 0
20 *782:10 *856:27 1.35807e-05
*RES
1 *1824:Y *856:4 17.2 
2 *856:4 *856:14 47.6893 
3 *856:14 *1769:A 17.2 
4 *856:4 *856:21 41.1815 
5 *856:21 *856:27 43.4107 
6 *856:27 *1171:C 17.2 
*END

*D_NET *857 0.000179144
*CONN
*I *1171:D I *D AND5x2_ASAP7_75t_SL
*I *1770:A I *D BUFx3_ASAP7_75t_SL
*I *1825:Y O *D BUFx3_ASAP7_75t_SL
*CAP
1 *1171:D 0
2 *1770:A 6.95348e-06
3 *1825:Y 1.74271e-05
4 *857:25 2.58618e-05
5 *857:10 4.82175e-05
6 *857:8 3.28293e-05
7 *1770:A *865:20 1.63292e-06
8 *857:25 *865:20 1.74085e-05
9 *128:8 *857:10 0
10 *287:38 *857:25 7.35354e-06
11 *477:10 *857:10 1.55629e-05
12 *477:10 *857:25 4.35576e-08
13 *802:8 *857:25 5.85387e-06
*RES
1 *1825:Y *857:8 40.2831 
2 *857:8 *857:10 12.9528 
3 *857:10 *1770:A 38.1438 
4 *857:10 *857:25 34.4561 
5 *857:25 *1171:D 17.2 
*END

*D_NET *858 0.000169839
*CONN
*I *1777:A I *D BUFx6f_ASAP7_75t_SL
*I *1080:B I *D NAND2x2_ASAP7_75t_SL
*I *1826:Y O *D BUFx3_ASAP7_75t_SL
*CAP
1 *1777:A 0
2 *1080:B 5.9814e-06
3 *1826:Y 2.58284e-05
4 *858:14 4.77869e-05
5 *858:8 6.76339e-05
6 *858:14 *861:90 7.47036e-07
7 *70:48 *858:14 0
8 *71:6 *858:8 1.26378e-06
9 *71:21 *858:8 1.51653e-06
10 *809:6 *1080:B 9.9223e-06
11 *809:6 *858:14 9.15905e-06
12 *815:75 *858:8 0
*RES
1 *1826:Y *858:8 46.701 
2 *858:8 *858:14 47.0725 
3 *858:14 *1080:B 24.1527 
4 *858:14 *1777:A 17.2 
*END

*D_NET *859 0.00103592
*CONN
*I *1835:A I *D INVx6_ASAP7_75t_SL
*I *1496:CLK I *D DFFHQNx1_ASAP7_75t_SL
*I *1495:CLK I *D DFFHQNx1_ASAP7_75t_SL
*I *1493:CLK I *D DFFHQNx1_ASAP7_75t_SL
*I *1488:CLK I *D DFFHQNx1_ASAP7_75t_SL
*I *1490:CLK I *D DFFHQNx1_ASAP7_75t_SL
*I *1489:CLK I *D DFFHQNx1_ASAP7_75t_SL
*I *1494:CLK I *D DFFHQNx1_ASAP7_75t_SL
*I *1827:Y O *D BUFx4_ASAP7_75t_SL
*CAP
1 *1835:A 0
2 *1496:CLK 0
3 *1495:CLK 0
4 *1493:CLK 0
5 *1488:CLK 0
6 *1490:CLK 1.19478e-05
7 *1489:CLK 0
8 *1494:CLK 0
9 *1827:Y 6.33195e-06
10 *859:113 1.64783e-05
11 *859:102 7.2125e-06
12 *859:73 4.13388e-05
13 *859:71 4.78801e-05
14 *859:67 4.46782e-05
15 *859:65 5.44909e-05
16 *859:57 4.52782e-05
17 *859:49 3.95056e-05
18 *859:36 2.37593e-05
19 *859:30 4.973e-05
20 *859:26 8.96986e-05
21 *859:20 6.48897e-05
22 *859:18 4.3644e-05
23 *859:12 5.52498e-05
24 *859:8 1.79378e-05
25 *859:49 *865:43 4.00461e-05
26 *859:65 *867:22 4.81639e-06
27 *859:102 *867:41 6.79293e-06
28 *1300:C *859:49 4.04733e-05
29 *1316:A *859:18 4.83862e-06
30 *1324:A *859:18 4.35576e-08
31 *1488:D *859:67 1.02506e-06
32 *43:8 *859:26 4.00478e-05
33 *121:10 *1490:CLK 1.3988e-05
34 *126:10 *859:113 4.10928e-06
35 *193:18 *859:18 0
36 *193:41 *859:8 6.85823e-06
37 *364:8 *1490:CLK 1.60716e-05
38 *364:8 *859:73 0.000103995
39 *386:10 *859:26 0
40 *389:18 *859:57 1.12894e-06
41 *392:10 *859:36 0
42 *407:10 *859:113 1.36943e-05
43 *408:18 *859:18 1.56258e-06
44 *409:16 *859:12 2.93585e-06
45 *409:16 *859:18 7.72307e-07
46 *418:18 *859:8 1.83764e-06
47 *420:22 *859:8 0
48 *423:16 *859:18 7.31605e-06
49 *452:10 *859:18 1.41061e-05
50 *689:10 *859:18 0
51 *689:21 *859:18 0
52 *689:31 *859:18 5.8241e-06
53 *739:20 *859:18 4.35576e-08
54 *800:40 *859:18 3.19543e-05
55 *801:8 *859:18 9.8079e-06
56 *847:8 *859:113 0
57 *847:14 *859:113 0
58 *856:14 *859:18 0
59 *856:21 *859:26 1.78333e-06
*RES
1 *1827:Y *859:8 38.9053 
2 *859:8 *859:12 24.1527 
3 *859:12 *859:18 47.8624 
4 *859:18 *859:20 17.2 
5 *859:20 *859:26 48.4182 
6 *859:26 *859:30 32.7099 
7 *859:30 *859:36 22.69 
8 *859:36 *1494:CLK 34.4 
9 *859:36 *859:49 36.259 
10 *859:49 *859:57 43.6725 
11 *859:57 *859:65 48.8031 
12 *859:65 *859:67 13.3706 
13 *859:67 *859:71 27.3617 
14 *859:71 *859:73 34.3531 
15 *859:73 *1489:CLK 34.4 
16 *859:73 *1490:CLK 43.7754 
17 *859:67 *1488:CLK 17.2 
18 *859:65 *859:102 40.0317 
19 *859:102 *1493:CLK 17.2 
20 *859:30 *859:113 48.4791 
21 *859:113 *1495:CLK 17.2 
22 *859:20 *1496:CLK 17.2 
23 *859:12 *1835:A 17.2 
*END

*D_NET *860 0.00188111
*CONN
*I *1487:CLK I *D DFFHQNx2_ASAP7_75t_SL
*I *1498:CLK I *D DFFHQNx1_ASAP7_75t_SL
*I *1499:CLK I *D DFFHQNx1_ASAP7_75t_SL
*I *1836:A I *D INVx3_ASAP7_75t_SL
*I *1504:CLK I *D DFFHQNx1_ASAP7_75t_SL
*I *1502:CLK I *D DFFHQNx1_ASAP7_75t_SL
*I *1500:CLK I *D DFFHQNx2_ASAP7_75t_SL
*I *1503:CLK I *D DFFHQNx2_ASAP7_75t_SL
*I *1501:CLK I *D DFFHQNx1_ASAP7_75t_SL
*I *1492:CLK I *D DFFHQNx1_ASAP7_75t_SL
*I *1491:CLK I *D DFFHQNx1_ASAP7_75t_SL
*I *1828:Y O *D BUFx4_ASAP7_75t_SL
*CAP
1 *1487:CLK 0
2 *1498:CLK 0
3 *1499:CLK 0
4 *1836:A 0
5 *1504:CLK 0
6 *1502:CLK 0
7 *1500:CLK 6.46808e-06
8 *1503:CLK 0
9 *1501:CLK 1.59638e-05
10 *1492:CLK 0
11 *1491:CLK 0
12 *1828:Y 1.05523e-05
13 *860:134 1.21156e-05
14 *860:126 1.51286e-05
15 *860:122 4.57543e-05
16 *860:120 4.27413e-05
17 *860:118 4.69989e-05
18 *860:92 2.14463e-05
19 *860:86 4.02763e-05
20 *860:73 2.87107e-05
21 *860:55 6.52819e-05
22 *860:53 6.52819e-05
23 *860:46 6.56924e-05
24 *860:44 0.000111398
25 *860:42 4.87683e-05
26 *860:38 1.90269e-05
27 *860:36 5.61484e-05
28 *860:32 9.96022e-05
29 *860:30 4.26077e-05
30 *860:26 3.73429e-05
31 *860:24 4.67805e-05
32 *860:16 4.03213e-05
33 *860:10 8.58684e-05
34 *860:122 *864:23 5.79724e-07
35 *860:122 *865:65 1.13762e-05
36 *860:122 *865:75 0
37 *860:122 *867:98 0
38 *860:134 *864:23 2.71344e-05
39 *860:134 *865:75 2.73885e-05
40 *1047:D *860:92 7.25669e-06
41 *1049:B *860:10 6.27229e-06
42 *1049:B *860:16 1.36103e-05
43 *1353:B2 *860:16 5.38096e-06
44 *1353:B2 *860:24 4.17909e-06
45 *1355:A2 *860:44 5.01287e-06
46 *1364:A1 *860:44 1.06092e-05
47 *1364:A2 *860:44 5.22376e-07
48 *1365:C *860:36 2.7883e-05
49 *1375:A2 *860:36 9.30483e-06
50 *1498:D *860:122 1.12894e-06
51 *1504:D *860:26 7.55242e-06
52 *1504:D *860:30 2.20493e-06
53 *1762:A *860:10 1.34057e-05
54 *36:14 *860:86 9.75645e-06
55 *36:16 *860:86 2.54159e-06
56 *36:37 *860:36 5.62196e-06
57 *38:6 *1500:CLK 0
58 *40:18 *860:122 0
59 *45:18 *860:55 5.04414e-06
60 *46:8 *860:46 5.04356e-05
61 *46:10 *860:55 0
62 *46:12 *860:55 0
63 *131:8 *860:122 9.8079e-06
64 *132:10 *860:92 0
65 *133:14 *1501:CLK 5.58366e-06
66 *183:10 *860:92 1.96231e-05
67 *183:20 *860:10 3.32579e-06
68 *183:20 *860:16 1.15945e-06
69 *194:8 *860:122 2.36401e-05
70 *347:10 *860:55 3.09718e-06
71 *378:33 *860:55 0
72 *379:20 *860:55 2.19685e-06
73 *381:14 *860:55 0
74 *388:62 *860:32 2.31101e-05
75 *428:14 *860:122 5.52807e-07
76 *430:24 *860:118 1.11189e-05
77 *436:10 *860:122 0
78 *439:17 *860:42 4.65695e-07
79 *444:10 *860:44 9.08513e-06
80 *446:8 *1501:CLK 2.73415e-06
81 *454:10 *860:32 1.73211e-06
82 *454:10 *860:73 3.16603e-06
83 *462:10 *860:24 1.33702e-06
84 *466:18 *860:32 5.37866e-07
85 *471:16 *860:32 4.70422e-06
86 *692:73 *860:126 2.03526e-06
87 *692:73 *860:134 4.92332e-06
88 *705:58 *860:32 0
89 *708:37 *1501:CLK 0
90 *708:51 *860:44 8.87763e-06
91 *708:55 *860:44 4.89116e-05
92 *708:55 *860:46 7.89954e-05
93 *748:20 *860:55 2.31174e-05
94 *752:48 *860:44 1.53057e-06
95 *756:10 *860:24 1.66193e-05
96 *765:16 *860:55 1.29144e-05
97 *765:27 *860:55 9.17492e-06
98 *765:42 *860:55 4.12013e-06
99 *766:20 *860:55 0
100 *794:27 *860:32 2.22736e-06
101 *796:14 *860:32 2.4397e-06
102 *796:14 *860:73 5.79724e-07
103 *796:14 *860:86 7.20078e-06
104 *796:30 *860:44 1.26378e-06
105 *797:10 *860:32 6.26751e-06
106 *797:10 *860:73 1.33022e-05
107 *797:10 *860:86 3.70657e-05
108 *797:12 *860:32 2.46543e-05
109 *797:14 *860:32 0.000105582
110 *797:40 *860:32 0
111 *797:48 *860:36 0
112 *819:30 *860:118 7.91461e-06
113 *819:36 *860:10 9.93857e-06
*RES
1 *1828:Y *860:10 44.9585 
2 *860:10 *860:16 30.7974 
3 *860:16 *860:24 42.7058 
4 *860:24 *860:26 20.8582 
5 *860:26 *860:30 18.8045 
6 *860:30 *860:32 46.1796 
7 *860:32 *860:36 40.1975 
8 *860:36 *860:38 17.2 
9 *860:38 *860:42 18.8895 
10 *860:42 *860:44 36.9029 
11 *860:44 *860:46 54.0173 
12 *860:46 *1491:CLK 17.2 
13 *860:44 *860:53 17.2 
14 *860:53 *860:55 50.1218 
15 *860:55 *1492:CLK 34.4 
16 *860:38 *1501:CLK 47.3528 
17 *860:32 *860:73 4.50533 
18 *860:73 *1503:CLK 34.4 
19 *860:73 *860:86 39.7513 
20 *860:86 *860:92 47.3528 
21 *860:92 *1500:CLK 19.8741 
22 *860:86 *1502:CLK 17.2 
23 *860:26 *1504:CLK 17.2 
24 *860:16 *1836:A 17.2 
25 *860:10 *860:118 46.6154 
26 *860:118 *860:120 17.2 
27 *860:120 *860:122 33.2268 
28 *860:122 *860:126 18.8045 
29 *860:126 *860:134 47.1544 
30 *860:134 *1499:CLK 17.2 
31 *860:126 *1498:CLK 17.2 
32 *860:118 *1487:CLK 17.2 
*END

*D_NET *861 0.00153493
*CONN
*I *1483:CLK I *D DFFHQNx1_ASAP7_75t_SL
*I *1484:CLK I *D DFFHQNx1_ASAP7_75t_SL
*I *1477:CLK I *D DFFHQNx1_ASAP7_75t_SL
*I *1485:CLK I *D DFFHQNx1_ASAP7_75t_SL
*I *1486:CLK I *D DFFHQNx1_ASAP7_75t_SL
*I *1466:CLK I *D DFFHQNx1_ASAP7_75t_SL
*I *1464:CLK I *D DFFHQNx2_ASAP7_75t_SL
*I *1468:CLK I *D DFFHQNx1_ASAP7_75t_SL
*I *1469:CLK I *D DFFHQNx1_ASAP7_75t_SL
*I *1837:A I *D INVx3_ASAP7_75t_SL
*I *1475:CLK I *D DFFHQNx1_ASAP7_75t_SL
*I *1829:Y O *D BUFx4_ASAP7_75t_SL
*CAP
1 *1483:CLK 1.16305e-05
2 *1484:CLK 4.75499e-06
3 *1477:CLK 0
4 *1485:CLK 6.7171e-06
5 *1486:CLK 0
6 *1466:CLK 0
7 *1464:CLK 0
8 *1468:CLK 5.41668e-06
9 *1469:CLK 0
10 *1837:A 2.13626e-05
11 *1475:CLK 1.4418e-05
12 *1829:Y 0
13 *861:108 0.000115662
14 *861:106 0.000115662
15 *861:104 3.26214e-05
16 *861:98 3.26214e-05
17 *861:96 3.94073e-05
18 *861:90 6.40586e-05
19 *861:82 4.73681e-05
20 *861:78 6.52715e-05
21 *861:76 7.64257e-05
22 *861:72 7.01188e-05
23 *861:68 5.89177e-05
24 *861:66 3.62625e-05
25 *861:64 6.74597e-05
26 *861:62 7.80701e-05
27 *861:47 4.62896e-05
28 *861:36 3.51817e-05
29 *861:32 7.14619e-05
30 *861:8 4.8673e-05
31 *861:4 1.89102e-05
32 *1837:A *869:29 7.03452e-06
33 *861:36 *862:50 0
34 *861:62 *869:33 1.49407e-08
35 *1067:A1 *861:64 3.42616e-05
36 *1182:A *861:108 1.32074e-05
37 *1182:B *861:108 1.02586e-05
38 *1186:A2 *861:104 3.3921e-06
39 *1186:A2 *861:108 9.30483e-06
40 *1216:A2 *861:64 7.79295e-06
41 *1460:A *861:108 1.59615e-06
42 *1464:D *861:108 8.146e-06
43 *1466:D *861:96 6.6195e-06
44 *1466:D *861:104 0
45 *1484:D *1484:CLK 7.72307e-07
46 *61:10 *861:62 1.89747e-06
47 *70:8 *861:96 1.9386e-05
48 *70:33 *861:104 1.12901e-05
49 *86:8 *861:108 7.86466e-06
50 *89:10 *861:108 6.28016e-06
51 *97:24 *861:96 5.52807e-07
52 *109:8 *861:72 5.52807e-07
53 *118:12 *861:78 2.1664e-06
54 *118:12 *861:82 3.79494e-06
55 *179:10 *861:82 0
56 *202:14 *861:36 4.51374e-05
57 *294:20 *861:104 4.73164e-07
58 *294:60 *1475:CLK 2.62902e-05
59 *294:60 *1837:A 9.30798e-06
60 *294:60 *861:36 0
61 *297:10 *861:96 0
62 *298:8 *861:108 1.48593e-05
63 *301:16 *861:104 1.89962e-06
64 *301:16 *861:108 9.33624e-06
65 *306:17 *861:78 0
66 *309:8 *861:72 0
67 *322:14 *861:64 5.41446e-06
68 *686:26 *861:36 3.32579e-06
69 *686:37 *861:36 4.68418e-06
70 *690:10 *861:72 0
71 *690:21 *861:72 0
72 *690:40 *861:68 0
73 *690:40 *861:72 0
74 *690:52 *861:64 2.90209e-08
75 *690:97 *1483:CLK 1.12894e-06
76 *711:64 *1468:CLK 0
77 *711:64 *861:62 0
78 *808:49 *861:96 0
79 *819:8 *861:36 0
80 *819:155 *861:72 1.22925e-05
81 *819:164 *861:68 0
82 *819:172 *861:64 1.51653e-06
83 *819:172 *861:68 8.33296e-06
84 *819:183 *1483:CLK 0
85 *819:183 *861:68 0
86 *836:120 *861:108 1.00241e-05
87 *836:135 *861:108 3.0709e-05
88 *848:8 *861:36 8.2174e-07
89 *848:83 *861:62 2.05045e-06
90 *848:83 *861:64 5.62196e-06
91 *858:14 *861:90 7.47036e-07
*RES
1 *1829:Y *861:4 17.2 
2 *861:4 *861:8 22.0134 
3 *861:8 *1475:CLK 45.0151 
4 *861:8 *1837:A 44.7317 
5 *861:4 *861:32 2.67412 
6 *861:32 *861:36 47.0478 
7 *861:36 *1469:CLK 34.4 
8 *861:32 *861:47 29.501 
9 *861:47 *1468:CLK 37.694 
10 *861:47 *861:62 25.0843 
11 *861:62 *861:64 48.6691 
12 *861:64 *861:66 17.2 
13 *861:66 *861:68 17.4581 
14 *861:68 *861:72 39.1635 
15 *861:72 *861:76 35.9189 
16 *861:76 *861:78 24.7793 
17 *861:78 *861:82 34.6581 
18 *861:82 *861:90 49.1804 
19 *861:90 *861:96 47.3486 
20 *861:96 *861:98 17.2 
21 *861:98 *861:104 33.4431 
22 *861:104 *861:106 17.2 
23 *861:106 *861:108 79.6889 
24 *861:108 *1464:CLK 17.2 
25 *861:98 *1466:CLK 17.2 
26 *861:82 *1486:CLK 17.2 
27 *861:78 *1485:CLK 38.1438 
28 *861:72 *1477:CLK 17.2 
29 *861:68 *1484:CLK 37.0741 
30 *861:66 *1483:CLK 41.6361 
*END

*D_NET *862 0.00187517
*CONN
*I *1473:CLK I *D DFFHQNx1_ASAP7_75t_SL
*I *1472:CLK I *D DFFHQNx1_ASAP7_75t_SL
*I *1467:CLK I *D DFFHQNx1_ASAP7_75t_SL
*I *1476:CLK I *D DFFHQNx1_ASAP7_75t_SL
*I *1471:CLK I *D DFFHQNx1_ASAP7_75t_SL
*I *1470:CLK I *D DFFHQNx1_ASAP7_75t_SL
*I *1478:CLK I *D DFFHQNx1_ASAP7_75t_SL
*I *1480:CLK I *D DFFHQNx1_ASAP7_75t_SL
*I *1482:CLK I *D DFFHQNx1_ASAP7_75t_SL
*I *1481:CLK I *D DFFHQNx1_ASAP7_75t_SL
*I *1479:CLK I *D DFFHQNx1_ASAP7_75t_SL
*I *1474:CLK I *D DFFHQNx1_ASAP7_75t_SL
*I *1497:CLK I *D DFFHQNx2_ASAP7_75t_SL
*I *1505:CLK I *D DFFHQNx1_ASAP7_75t_SL
*I *1830:Y O *D BUFx4_ASAP7_75t_SL
*CAP
1 *1473:CLK 1.16899e-05
2 *1472:CLK 2.28614e-05
3 *1467:CLK 0
4 *1476:CLK 1.93684e-05
5 *1471:CLK 7.55883e-06
6 *1470:CLK 6.72925e-06
7 *1478:CLK 4.67553e-06
8 *1480:CLK 0
9 *1482:CLK 2.91246e-06
10 *1481:CLK 0
11 *1479:CLK 0
12 *1474:CLK 0
13 *1497:CLK 0
14 *1505:CLK 0
15 *1830:Y 0
16 *862:192 3.93467e-05
17 *862:186 4.93541e-05
18 *862:170 4.82321e-05
19 *862:166 7.53472e-05
20 *862:164 7.79126e-05
21 *862:151 4.07006e-05
22 *862:140 7.22632e-05
23 *862:126 2.82124e-05
24 *862:108 7.83025e-06
25 *862:102 3.05175e-05
26 *862:96 4.56495e-05
27 *862:90 7.30135e-05
28 *862:81 5.80849e-05
29 *862:77 6.4986e-05
30 *862:75 4.58996e-05
31 *862:62 4.16043e-06
32 *862:54 6.06424e-05
33 *862:50 7.88383e-05
34 *862:37 2.87922e-05
35 *862:28 1.16707e-05
36 *862:22 6.60039e-05
37 *862:20 0.000112629
38 *862:16 7.2845e-05
39 *862:10 9.6126e-05
40 *862:6 4.83233e-05
41 *862:20 *870:12 1.06092e-05
42 *862:20 *870:27 7.35354e-06
43 *862:20 *879:10 4.91861e-06
44 *862:22 *1225:A 2.61935e-05
45 *862:22 *870:12 9.08513e-06
46 *862:22 *870:27 9.30483e-06
47 *862:28 *885:8 7.84772e-07
48 *862:37 *870:8 3.32579e-06
49 *862:37 *870:27 1.89962e-06
50 *862:62 *869:57 9.81692e-06
51 *1046:A *862:170 0
52 *1201:A1 *862:81 0
53 *1206:B *862:126 1.2768e-05
54 *1207:B *862:126 3.33246e-05
55 *1225:B *862:22 2.03526e-06
56 *1225:E *862:22 4.41457e-06
57 *1331:B *862:37 1.53963e-06
58 *1467:D *862:166 0
59 *62:8 *1478:CLK 1.95129e-06
60 *62:8 *862:77 6.81787e-05
61 *62:34 *1478:CLK 1.40602e-05
62 *69:10 *862:166 0
63 *69:10 *862:186 0
64 *99:8 *862:164 0
65 *102:8 *862:140 0
66 *108:10 *862:170 0
67 *110:10 *862:81 0
68 *112:10 *862:108 0
69 *113:10 *862:108 6.33206e-07
70 *206:18 *862:90 0
71 *206:18 *862:126 0
72 *264:12 *862:22 6.64365e-05
73 *285:24 *862:28 7.76918e-07
74 *302:8 *862:16 5.49212e-07
75 *303:8 *862:140 0
76 *303:8 *862:151 0
77 *303:8 *862:164 0
78 *316:8 *862:126 0
79 *319:6 *862:96 4.56363e-06
80 *328:8 *862:22 1.81531e-05
81 *351:23 *862:22 7.14604e-06
82 *436:10 *862:28 7.12702e-06
83 *664:12 *862:170 0
84 *690:166 *862:102 1.61287e-05
85 *690:168 *862:102 2.03526e-06
86 *690:179 *862:126 5.00394e-06
87 *690:190 *862:126 3.84449e-06
88 *692:81 *862:170 0
89 *699:31 *862:37 1.54585e-06
90 *707:27 *862:20 1.56713e-06
91 *707:44 *862:16 0
92 *707:44 *862:20 1.31174e-05
93 *733:10 *862:22 6.36971e-06
94 *733:25 *862:22 8.82914e-06
95 *733:33 *862:22 3.0511e-05
96 *799:14 *862:37 4.16544e-05
97 *819:8 *862:62 0
98 *819:114 *862:151 0
99 *819:114 *862:164 0
100 *819:231 *862:102 1.02506e-06
101 *819:231 *862:126 0
102 *846:95 *862:10 5.79724e-07
103 *846:95 *862:140 1.09842e-06
104 *848:8 *862:50 5.24059e-07
105 *848:96 *862:75 1.2131e-06
106 *861:36 *862:50 0
*RES
1 *1830:Y *862:6 34.4 
2 *862:6 *862:10 20.579 
3 *862:10 *862:16 35.5258 
4 *862:16 *862:20 40.1975 
5 *862:20 *862:22 52.9477 
6 *862:22 *862:28 42.2843 
7 *862:28 *1505:CLK 17.2 
8 *862:20 *862:37 40.853 
9 *862:37 *1497:CLK 34.4 
10 *862:10 *862:50 34.6066 
11 *862:50 *862:54 28.6712 
12 *862:54 *862:62 37.6001 
13 *862:62 *1474:CLK 17.2 
14 *862:54 *862:75 42.9371 
15 *862:75 *862:77 20.8582 
16 *862:77 *862:81 47.0478 
17 *862:81 *1479:CLK 34.4 
18 *862:81 *862:90 14.6423 
19 *862:90 *862:96 46.701 
20 *862:96 *862:102 29.8977 
21 *862:102 *862:108 38.9053 
22 *862:108 *1481:CLK 17.2 
23 *862:102 *1482:CLK 18.8045 
24 *862:90 *862:126 41.2178 
25 *862:126 *1480:CLK 17.2 
26 *862:77 *1478:CLK 22.0134 
27 *862:6 *862:140 34.3531 
28 *862:140 *1470:CLK 37.0741 
29 *862:140 *862:151 18.5845 
30 *862:151 *1471:CLK 38.1438 
31 *862:151 *862:164 25.0843 
32 *862:164 *862:166 20.8582 
33 *862:166 *862:170 38.0371 
34 *862:170 *1476:CLK 45.6313 
35 *862:166 *1467:CLK 17.2 
36 *862:164 *862:186 8.02238 
37 *862:186 *862:192 44.537 
38 *862:192 *1472:CLK 29.501 
39 *862:186 *1473:CLK 22.0134 
*END

*D_NET *863 0.00173896
*CONN
*I *1227:C I *D OR3x1_ASAP7_75t_SL
*I *1156:C I *D OR3x1_ASAP7_75t_SL
*I *1292:A I *D NOR2x1_ASAP7_75t_SL
*I *1273:A1 I *D OAI22x1_ASAP7_75t_SL
*I *1243:A1 I *D OAI22x1_ASAP7_75t_SL
*I *1264:A1 I *D OAI22x1_ASAP7_75t_SL
*I *1255:A1 I *D OAI22x1_ASAP7_75t_SL
*I *1288:A1 I *D OAI22x1_ASAP7_75t_SL
*I *1838:Y O *D BUFx6f_ASAP7_75t_SL
*CAP
1 *1227:C 1.13709e-05
2 *1156:C 2.04254e-06
3 *1292:A 0
4 *1273:A1 7.63386e-07
5 *1243:A1 5.42972e-06
6 *1264:A1 0
7 *1255:A1 9.85448e-06
8 *1288:A1 0
9 *1838:Y 3.07659e-06
10 *863:123 2.21731e-05
11 *863:117 6.40442e-05
12 *863:106 6.64214e-05
13 *863:102 9.02888e-05
14 *863:100 7.9152e-05
15 *863:98 3.08978e-05
16 *863:66 1.43027e-05
17 *863:58 3.00124e-05
18 *863:50 2.11394e-05
19 *863:37 1.38944e-05
20 *863:35 4.8033e-06
21 *863:33 2.95803e-05
22 *863:31 4.61405e-05
23 *863:18 1.82639e-05
24 *863:14 0.000172323
25 *863:12 0.000170619
26 *863:10 6.13722e-05
27 *863:8 6.13722e-05
28 *863:6 3.39744e-05
29 *1227:C *869:14 5.85387e-06
30 *1163:C *863:106 4.75333e-06
31 *1251:A2 *1273:A1 4.81156e-06
32 *1251:A2 *863:37 1.30433e-05
33 *1255:B2 *1255:A1 1.86022e-05
34 *1264:A2 *863:58 3.6269e-06
35 *1264:A2 *863:66 3.6269e-06
36 *1264:B1 *863:58 0
37 *1264:B1 *863:66 6.33206e-07
38 *1264:B2 *863:58 2.74873e-05
39 *1264:B2 *863:66 1.0391e-06
40 *1292:B *863:31 3.48165e-06
41 *1384:B1 *863:10 0
42 *1384:B2 *863:10 6.48289e-06
43 *1391:A1 *863:10 1.56249e-06
44 *1391:B2 *863:10 3.2819e-06
45 *1713:A *863:117 2.40546e-06
46 *1853:A *863:117 0
47 *42:10 *863:14 0
48 *88:14 *863:102 1.18157e-05
49 *96:8 *863:106 2.76402e-07
50 *186:46 *863:117 5.96995e-05
51 *200:26 *863:6 2.20493e-06
52 *200:26 *863:98 1.72202e-05
53 *265:10 *863:117 3.90551e-06
54 *266:37 *863:106 1.43982e-06
55 *266:37 *863:117 4.87797e-06
56 *268:56 *863:123 6.28016e-06
57 *270:20 *863:98 7.58265e-07
58 *272:14 *863:102 0
59 *272:18 *863:102 0
60 *272:20 *863:98 2.95693e-06
61 *275:8 *863:106 6.57603e-06
62 *275:8 *863:117 6.33206e-07
63 *282:22 *863:117 4.43533e-05
64 *282:28 *863:117 0
65 *284:16 *1227:C 3.31794e-05
66 *291:6 *1156:C 5.22376e-07
67 *292:39 *863:10 1.56953e-05
68 *344:20 *1243:A1 1.35684e-06
69 *344:20 *1255:A1 1.96231e-05
70 *344:20 *863:58 3.56177e-06
71 *345:8 *1243:A1 3.65131e-06
72 *356:8 *1255:A1 2.84286e-06
73 *356:8 *863:37 2.84286e-06
74 *371:8 *863:58 1.09067e-06
75 *371:20 *863:31 2.23047e-05
76 *371:20 *863:33 9.91275e-05
77 *371:26 *863:31 5.66897e-06
78 *372:8 *863:33 1.56713e-06
79 *386:6 *863:14 3.5543e-05
80 *389:10 *863:31 5.0551e-07
81 *392:10 *863:18 2.74606e-06
82 *392:10 *863:31 1.64764e-06
83 *402:14 *863:14 0
84 *456:14 *863:10 1.15587e-05
85 *468:29 *863:10 4.22975e-06
86 *470:8 *863:98 3.05118e-08
87 *471:8 *863:10 0
88 *481:20 *863:10 1.32767e-06
89 *636:18 *863:102 7.68442e-06
90 *692:103 *863:117 1.07183e-05
91 *693:26 *863:10 1.12894e-06
92 *709:22 *1243:A1 5.51397e-07
93 *709:37 *1255:A1 1.15587e-05
94 *709:37 *863:37 3.22574e-06
95 *709:57 *1273:A1 3.48708e-06
96 *709:57 *863:37 1.6705e-05
97 *711:31 *863:102 6.99016e-06
98 *719:16 *863:10 2.19685e-06
99 *723:72 *863:117 1.49407e-06
100 *731:47 *1227:C 1.29592e-05
101 *744:43 *863:117 1.49407e-08
102 *763:16 *863:102 0
103 *763:18 *863:102 0
104 *769:18 *863:117 2.95693e-06
105 *769:28 *863:117 2.79583e-06
106 *769:60 *863:10 8.19503e-06
107 *769:66 *863:10 2.04071e-05
108 *820:123 *863:106 0
109 *820:146 *863:106 4.03236e-06
110 *820:146 *863:117 7.19886e-06
111 *846:109 *863:102 3.02352e-06
112 *847:14 *863:18 3.6269e-06
113 *847:14 *863:31 1.03816e-05
*RES
1 *1838:Y *863:6 18.8045 
2 *863:6 *863:8 17.2 
3 *863:8 *863:10 51.2481 
4 *863:10 *863:12 17.2 
5 *863:12 *863:14 79.6889 
6 *863:14 *863:18 20.0158 
7 *863:18 *1288:A1 34.4 
8 *863:18 *863:31 34.1763 
9 *863:31 *863:33 33.694 
10 *863:33 *863:35 17.2 
11 *863:35 *863:37 6.75799 
12 *863:37 *1255:A1 46.0848 
13 *863:37 *863:50 17.2 
14 *863:50 *863:58 47.4342 
15 *863:58 *863:66 42.0293 
16 *863:66 *1264:A1 17.2 
17 *863:50 *1243:A1 20.9438 
18 *863:35 *1273:A1 36.0895 
19 *863:31 *1292:A 17.2 
20 *863:6 *863:98 33.7424 
21 *863:98 *863:100 17.2 
22 *863:100 *863:102 34.8465 
23 *863:102 *863:106 26.8677 
24 *863:106 *1156:C 35.4697 
25 *863:106 *863:117 50.1218 
26 *863:117 *863:123 39.2134 
27 *863:123 *1227:C 47.2678 
*END

*D_NET *864 0.000558081
*CONN
*I *1364:B I *D OA21x2_ASAP7_75t_SL
*I *1346:B I *D OA21x2_ASAP7_75t_SL
*I *1839:Y O *D BUFx6f_ASAP7_75t_SL
*CAP
1 *1364:B 0
2 *1346:B 1.33194e-06
3 *1839:Y 8.03053e-06
4 *864:33 2.19439e-06
5 *864:27 0.000140376
6 *864:25 0.000138182
7 *864:23 1.49443e-05
8 *864:12 2.21115e-05
9 *864:8 1.38658e-05
10 *864:23 *865:75 1.18781e-05
11 *1244:A *1346:B 5.41446e-06
12 *1244:A *864:12 3.09382e-05
13 *1498:D *864:8 6.33206e-06
14 *40:18 *864:8 0
15 *131:8 *864:23 1.49816e-05
16 *357:35 *864:27 0.000104655
17 *428:6 *1346:B 2.12481e-06
18 *428:6 *864:12 1.17973e-05
19 *439:17 *864:33 1.20913e-06
20 *860:122 *864:23 5.79724e-07
21 *860:134 *864:23 2.71344e-05
*RES
1 *1839:Y *864:8 40.0317 
2 *864:8 *864:12 26.292 
3 *864:12 *1346:B 18.8045 
4 *864:12 *864:23 35.6906 
5 *864:23 *864:25 17.2 
6 *864:25 *864:27 49.7807 
7 *864:27 *864:33 35.9956 
8 *864:33 *1364:B 17.2 
*END

*D_NET *865 0.00176732
*CONN
*I *1839:A I *D BUFx6f_ASAP7_75t_SL
*I *1375:B I *D OA211x2_ASAP7_75t_SL
*I *1300:B I *D OA211x2_ASAP7_75t_SL
*I *1815:A I *D BUFx6f_ASAP7_75t_SL
*I *1330:D I *D AND4x1_ASAP7_75t_SL
*I *1840:Y O *D BUFx6f_ASAP7_75t_SL
*CAP
1 *1839:A 0
2 *1375:B 0
3 *1300:B 0
4 *1815:A 0
5 *1330:D 1.14522e-05
6 *1840:Y 0
7 *865:87 1.43249e-05
8 *865:79 5.26506e-05
9 *865:77 3.83257e-05
10 *865:75 3.10892e-05
11 *865:69 3.65509e-05
12 *865:65 5.87393e-05
13 *865:53 1.46207e-05
14 *865:43 3.42921e-05
15 *865:41 1.96714e-05
16 *865:39 4.68098e-05
17 *865:33 5.08588e-05
18 *865:20 0.000164039
19 *865:18 0.000150301
20 *865:12 4.887e-05
21 *865:6 0.000100384
22 *865:12 *867:14 2.41113e-06
23 *865:12 *885:29 0
24 *865:18 *867:96 5.8241e-06
25 *865:18 *885:8 6.18268e-06
26 *865:39 *867:14 1.99045e-05
27 *865:39 *867:20 1.34406e-06
28 *865:39 *880:25 3.62796e-06
29 *865:39 *885:12 0
30 *865:43 *867:22 0.000109517
31 *865:53 *867:22 1.12561e-05
32 *1058:B *865:65 0
33 *1059:C *865:65 2.15499e-05
34 *1145:D *865:65 1.98993e-05
35 *1171:B *865:20 4.92332e-06
36 *1279:A *865:20 2.90209e-08
37 *1300:A2 *865:53 8.21855e-06
38 *1300:C *865:43 2.97289e-06
39 *1375:C *865:87 9.6678e-06
40 *1377:B *865:79 1.48621e-05
41 *1378:B *865:87 0
42 *1770:A *865:20 1.63292e-06
43 *92:10 *865:65 3.03124e-06
44 *92:33 *865:65 2.06433e-06
45 *119:8 *865:65 0
46 *130:8 *865:69 2.28884e-06
47 *130:8 *865:75 5.19552e-07
48 *132:10 *865:87 6.10236e-08
49 *189:29 *865:39 7.95681e-05
50 *193:57 *865:12 7.16068e-06
51 *193:57 *865:65 1.30566e-05
52 *194:8 *865:65 9.1212e-05
53 *195:8 *865:65 3.47058e-06
54 *195:12 *865:12 1.50408e-05
55 *195:12 *865:65 2.98532e-06
56 *264:8 *865:12 1.11752e-05
57 *264:8 *865:65 7.82603e-06
58 *282:59 *865:53 8.65792e-06
59 *284:16 *865:12 0
60 *285:24 *865:12 1.35938e-05
61 *286:20 *865:20 2.12481e-06
62 *287:8 *865:65 0
63 *288:10 *865:20 0
64 *350:21 *865:20 5.75079e-05
65 *357:6 *865:69 1.96943e-05
66 *357:6 *865:75 6.92634e-06
67 *386:10 *865:39 3.73317e-06
68 *389:10 *865:53 1.10561e-06
69 *389:18 *865:53 1.31643e-05
70 *392:16 *865:53 3.73144e-06
71 *420:22 *865:33 0
72 *428:14 *865:75 1.75837e-05
73 *436:10 *865:75 1.16588e-05
74 *462:10 *865:87 2.33013e-06
75 *463:6 *865:79 3.28582e-06
76 *463:6 *865:87 3.57058e-05
77 *463:21 *865:87 0
78 *477:10 *865:33 0
79 *692:64 *865:75 0
80 *708:19 *865:75 0
81 *708:23 *865:79 9.04784e-05
82 *708:23 *865:87 5.19552e-07
83 *756:16 *865:20 3.1923e-06
84 *800:34 *865:39 2.10815e-06
85 *802:8 *865:20 5.85387e-06
86 *857:25 *865:20 1.74085e-05
87 *859:49 *865:43 4.00461e-05
88 *860:122 *865:65 1.13762e-05
89 *860:122 *865:75 0
90 *860:134 *865:75 2.73885e-05
91 *864:23 *865:75 1.18781e-05
*RES
1 *1840:Y *865:6 34.4 
2 *865:6 *865:12 44.4784 
3 *865:12 *865:18 36.5588 
4 *865:18 *865:20 62.5745 
5 *865:20 *1330:D 20.9438 
6 *865:20 *865:33 36.5588 
7 *865:33 *865:39 42.5331 
8 *865:39 *865:41 17.2 
9 *865:41 *865:43 34.2288 
10 *865:43 *865:53 49.2937 
11 *865:53 *1815:A 17.2 
12 *865:43 *1300:B 17.2 
13 *865:6 *865:65 55.1903 
14 *865:65 *865:69 23.6179 
15 *865:69 *865:75 48.6239 
16 *865:75 *865:77 17.2 
17 *865:77 *865:79 36.9029 
18 *865:79 *865:87 49.0387 
19 *865:87 *1375:B 17.2 
20 *865:69 *1839:A 17.2 
*END

*D_NET *866 0.000179198
*CONN
*I *1081:A I *D OR3x2_ASAP7_75t_SL
*I *1841:Y O *D BUFx3_ASAP7_75t_SL
*CAP
1 *1081:A 1.59354e-05
2 *1841:Y 0
3 *866:10 5.77529e-05
4 *866:6 4.18175e-05
5 *1081:C *1081:A 9.83747e-06
6 *85:40 *866:10 2.67279e-05
7 *89:23 *866:10 2.74606e-06
8 *176:10 *866:10 1.10561e-06
9 *179:20 *1081:A 5.09299e-06
10 *179:20 *866:10 1.12894e-06
11 *179:26 *866:10 1.12894e-06
12 *199:12 *1081:A 6.92634e-06
13 *209:28 *866:10 0
14 *769:12 *1081:A 8.146e-06
15 *808:12 *866:10 0
16 *808:25 *866:10 0
17 *809:49 *866:10 8.3668e-07
18 *809:64 *866:10 1.49407e-08
*RES
1 *1841:Y *866:6 34.4 
2 *866:6 *866:10 46.4846 
3 *866:10 *1081:A 32.7099 
*END

*D_NET *867 0.00202796
*CONN
*I *1339:B I *D OA211x2_ASAP7_75t_SL
*I *1277:B I *D OA211x2_ASAP7_75t_SL
*I *1261:B I *D OA211x2_ASAP7_75t_SL
*I *1269:B I *D OA211x2_ASAP7_75t_SL
*I *1251:B I *D OA211x2_ASAP7_75t_SL
*I *1842:Y O *D BUFx6f_ASAP7_75t_SL
*CAP
1 *1339:B 1.14929e-05
2 *1277:B 2.67124e-06
3 *1261:B 0
4 *1269:B 3.0174e-06
5 *1251:B 9.89839e-06
6 *1842:Y 3.38272e-05
7 *867:104 2.19911e-05
8 *867:98 7.16125e-05
9 *867:96 8.0298e-05
10 *867:79 4.7066e-05
11 *867:77 4.43947e-05
12 *867:70 1.12894e-05
13 *867:62 3.24859e-05
14 *867:47 4.14233e-05
15 *867:45 2.90574e-05
16 *867:41 7.36744e-05
17 *867:39 6.18265e-05
18 *867:30 2.13746e-05
19 *867:22 0.000113633
20 *867:20 0.000104082
21 *867:14 0.00012207
22 *867:12 0.000120144
23 *867:10 2.03371e-05
24 *867:8 3.49805e-05
25 *867:10 *885:8 2.0915e-06
26 *867:96 *885:8 7.39184e-06
27 *1051:A *867:41 0
28 *1145:D *867:98 0
29 *1251:A1 *1251:B 1.95129e-06
30 *1269:C *1269:B 6.7842e-07
31 *1269:C *867:47 1.36155e-06
32 *1277:A1 *1277:B 2.28976e-06
33 *1339:A1 *1339:B 8.11704e-06
34 *33:16 *867:14 1.49606e-07
35 *120:8 *867:41 4.1009e-06
36 *121:10 *867:70 5.84952e-07
37 *122:8 *867:62 0
38 *189:29 *867:14 0.000286482
39 *189:37 *867:8 7.92271e-06
40 *194:8 *867:98 0
41 *195:8 *867:98 0
42 *195:12 *867:98 0
43 *282:59 *1251:B 4.73041e-06
44 *282:59 *867:30 4.17901e-06
45 *285:24 *867:14 2.08041e-06
46 *348:12 *867:45 5.80001e-06
47 *348:16 *867:41 3.00678e-05
48 *348:16 *867:79 1.02642e-06
49 *349:12 *1251:B 3.89037e-06
50 *349:12 *867:41 0
51 *350:21 *867:10 4.40246e-06
52 *350:21 *867:96 1.11635e-05
53 *351:23 *867:98 9.86088e-07
54 *361:20 *867:70 1.02664e-05
55 *364:8 *867:62 4.9137e-07
56 *364:8 *867:70 1.13944e-06
57 *366:20 *867:79 1.26127e-05
58 *372:10 *867:79 0.000116356
59 *372:18 *867:79 0
60 *375:14 *1277:B 1.95129e-06
61 *386:10 *867:20 4.40246e-06
62 *430:30 *1339:B 5.22486e-06
63 *432:6 *867:104 2.52755e-07
64 *432:14 *867:104 5.01287e-06
65 *433:8 *1339:B 2.34105e-05
66 *436:10 *867:96 5.21903e-06
67 *436:10 *867:98 0.000171202
68 *708:10 *1339:B 1.64764e-06
69 *708:19 *1339:B 2.80709e-06
70 *708:73 *867:79 0
71 *859:65 *867:22 4.81639e-06
72 *859:102 *867:41 6.79293e-06
73 *860:122 *867:98 0
74 *865:12 *867:14 2.41113e-06
75 *865:18 *867:96 5.8241e-06
76 *865:39 *867:14 1.99045e-05
77 *865:39 *867:20 1.34406e-06
78 *865:43 *867:22 0.000109517
79 *865:53 *867:22 1.12561e-05
*RES
1 *1842:Y *867:8 48.8403 
2 *867:8 *867:10 1.59564 
3 *867:10 *867:12 17.2 
4 *867:12 *867:14 59.5205 
5 *867:14 *867:20 35.9956 
6 *867:20 *867:22 55.087 
7 *867:22 *867:30 44.8451 
8 *867:30 *1251:B 24.1527 
9 *867:30 *867:39 17.2 
10 *867:39 *867:41 57.4429 
11 *867:41 *867:45 24.1527 
12 *867:45 *867:47 9.09202 
13 *867:47 *1269:B 18.8045 
14 *867:47 *867:62 43.5157 
15 *867:62 *867:70 42.2258 
16 *867:70 *1261:B 17.2 
17 *867:45 *867:77 17.2 
18 *867:77 *867:79 46.1796 
19 *867:79 *1277:B 36.5393 
20 *867:10 *867:96 48.3746 
21 *867:96 *867:98 58.5693 
22 *867:98 *867:104 40.2831 
23 *867:104 *1339:B 46.7897 
*END

*D_NET *868 5.10418e-05
*CONN
*I *1739:A I *D BUFx3_ASAP7_75t_SL
*I *1843:Y O *D BUFx3_ASAP7_75t_SL
*CAP
1 *1739:A 9.84374e-06
2 *1843:Y 1.35731e-05
3 *868:8 2.34169e-05
4 *1179:B *1739:A 4.20803e-06
5 *809:49 *868:8 0
6 *836:71 *868:8 0
7 *836:129 *868:8 0
*RES
1 *1843:Y *868:8 42.2843 
2 *868:8 *1739:A 40.2831 
*END

*D_NET *869 0.000997878
*CONN
*I *1062:A I *D NOR2x1_ASAP7_75t_SL
*I *1072:B I *D OR4x1_ASAP7_75t_SL
*I *1074:B I *D OR4x1_ASAP7_75t_SL
*I *1070:B I *D OR4x1_ASAP7_75t_SL
*I *1068:B I *D OR4x1_ASAP7_75t_SL
*I *1076:B I *D OR4x1_ASAP7_75t_SL
*I *1066:B I *D OR4x1_ASAP7_75t_SL
*I *1078:B I *D OR4x1_ASAP7_75t_SL
*I *1227:B I *D OR3x1_ASAP7_75t_SL
*I *1844:Y O *D BUFx4f_ASAP7_75t_SL
*CAP
1 *1062:A 5.21685e-06
2 *1072:B 1.02117e-05
3 *1074:B 2.5525e-06
4 *1070:B 1.97093e-05
5 *1068:B 6.91378e-06
6 *1076:B 0
7 *1066:B 5.33065e-06
8 *1078:B 0
9 *1227:B 0
10 *1844:Y 0
11 *869:100 3.03892e-05
12 *869:87 4.40552e-05
13 *869:74 2.62695e-05
14 *869:65 2.3795e-05
15 *869:57 3.64461e-05
16 *869:44 3.63083e-05
17 *869:33 1.39495e-05
18 *869:29 5.7611e-05
19 *869:27 4.93531e-05
20 *869:25 5.23105e-05
21 *869:14 5.04913e-05
22 *869:12 6.26581e-05
23 *869:4 5.92605e-05
24 *1062:B *1062:A 5.79724e-07
25 *1066:A *869:57 0
26 *1068:A *1068:B 1.61096e-06
27 *1069:A1 *869:57 0
28 *1070:C *1070:B 6.7378e-06
29 *1227:C *869:14 5.85387e-06
30 *1667:A *869:14 1.84022e-05
31 *1675:A *869:14 1.44167e-06
32 *1837:A *869:29 7.03452e-06
33 *62:23 *869:65 2.39014e-05
34 *62:23 *869:74 9.66125e-06
35 *63:12 *1072:B 5.66897e-06
36 *66:25 *1070:B 6.1473e-07
37 *66:29 *869:87 1.27174e-05
38 *66:29 *869:100 3.70913e-06
39 *66:35 *1068:B 2.03526e-06
40 *66:35 *869:74 7.98765e-06
41 *66:35 *869:87 6.70512e-06
42 *67:8 *869:65 1.64387e-05
43 *189:63 *869:14 2.89374e-05
44 *195:37 *869:12 3.56648e-06
45 *195:37 *869:25 1.88316e-05
46 *202:14 *869:29 3.11702e-05
47 *268:54 *869:12 0
48 *282:16 *869:14 1.08691e-05
49 *303:8 *1062:A 1.51765e-05
50 *303:8 *869:25 1.182e-05
51 *304:8 *869:12 5.60929e-06
52 *686:10 *1062:A 1.12894e-06
53 *686:10 *869:25 1.12894e-06
54 *686:14 *869:29 3.38293e-05
55 *686:49 *1068:B 6.7842e-07
56 *686:61 *869:74 8.20723e-06
57 *686:91 *1072:B 8.21855e-06
58 *699:8 *869:12 9.76728e-06
59 *707:8 *869:14 5.17782e-06
60 *711:64 *869:33 2.69965e-05
61 *711:64 *869:44 6.58216e-06
62 *711:87 *869:65 9.08513e-06
63 *711:99 *869:74 7.35063e-07
64 *711:125 *1070:B 2.98247e-06
65 *711:125 *1072:B 5.49212e-07
66 *711:125 *869:100 1.70866e-06
67 *819:8 *869:44 3.47607e-06
68 *819:8 *869:57 0
69 *848:77 *1066:B 0
70 *848:77 *869:57 6.71283e-06
71 *848:83 *869:33 0
72 *848:83 *869:44 0
73 *848:83 *869:57 1.11691e-05
74 *861:62 *869:33 1.49407e-08
75 *862:62 *869:57 9.81692e-06
*RES
1 *1844:Y *869:4 17.2 
2 *869:4 *869:12 42.7058 
3 *869:12 *869:14 39.577 
4 *869:14 *1227:B 17.2 
5 *869:4 *869:25 43.07 
6 *869:25 *869:27 17.2 
7 *869:27 *869:29 35.8333 
8 *869:29 *869:33 26.2107 
9 *869:33 *1078:B 34.4 
10 *869:33 *869:44 22.8317 
11 *869:44 *1066:B 19.3393 
12 *869:44 *869:57 33.2201 
13 *869:57 *869:65 47.0977 
14 *869:65 *1076:B 34.4 
15 *869:65 *869:74 11.2633 
16 *869:74 *1068:B 38.1438 
17 *869:74 *869:87 23.958 
18 *869:87 *1070:B 25.7572 
19 *869:87 *869:100 28.9415 
20 *869:100 *1074:B 35.4697 
21 *869:100 *1072:B 43.354 
22 *869:25 *1062:A 40.0317 
*END

*D_NET *870 0.000179257
*CONN
*I *1854:A I *D BUFx6f_ASAP7_75t_SL
*I *1225:A I *D AND5x2_ASAP7_75t_SL
*I *1845:Y O *D BUFx6f_ASAP7_75t_SL
*CAP
1 *1854:A 0
2 *1225:A 5.08537e-06
3 *1845:Y 1.55924e-05
4 *870:27 1.00262e-05
5 *870:12 1.76223e-05
6 *870:8 1.81031e-05
7 *870:8 *879:10 9.8079e-06
8 *304:8 *870:8 5.52807e-07
9 *328:8 *870:27 1.95129e-06
10 *699:23 *870:8 1.15055e-05
11 *707:27 *1225:A 8.23084e-06
12 *707:27 *870:12 7.63254e-06
13 *799:14 *870:8 5.37569e-06
14 *862:20 *870:12 1.06092e-05
15 *862:20 *870:27 7.35354e-06
16 *862:22 *1225:A 2.61935e-05
17 *862:22 *870:12 9.08513e-06
18 *862:22 *870:27 9.30483e-06
19 *862:37 *870:8 3.32579e-06
20 *862:37 *870:27 1.89962e-06
*RES
1 *1845:Y *870:8 49.6055 
2 *870:8 *870:12 23.0831 
3 *870:12 *1225:A 25.2224 
4 *870:12 *870:27 41.4944 
5 *870:27 *1854:A 17.2 
*END

*D_NET *871 0.00144442
*CONN
*I *1144:A2 I *D OA21x2_ASAP7_75t_SL
*I *1141:A1 I *D OA21x2_ASAP7_75t_SL
*I *1129:A2 I *D OA21x2_ASAP7_75t_SL
*I *1117:A1 I *D OA21x2_ASAP7_75t_SL
*I *1121:A1 I *D OA21x2_ASAP7_75t_SL
*I *1113:A1 I *D OA21x2_ASAP7_75t_SL
*I *1125:A1 I *D OA21x2_ASAP7_75t_SL
*I *1133:A1 I *D OA21x2_ASAP7_75t_SL
*I *1137:A1 I *D OA21x2_ASAP7_75t_SL
*I *1846:Y O *D BUFx6f_ASAP7_75t_SL
*CAP
1 *1144:A2 2.2622e-06
2 *1141:A1 0
3 *1129:A2 0
4 *1117:A1 0
5 *1121:A1 1.19896e-05
6 *1113:A1 0
7 *1125:A1 1.09928e-05
8 *1133:A1 0
9 *1137:A1 0
10 *1846:Y 6.85881e-06
11 *871:123 3.13706e-05
12 *871:110 3.2691e-05
13 *871:97 2.92577e-05
14 *871:93 9.53734e-05
15 *871:82 9.81926e-05
16 *871:78 5.0786e-05
17 *871:74 4.27936e-05
18 *871:63 4.94056e-05
19 *871:59 6.69133e-05
20 *871:48 7.87737e-05
21 *871:46 5.73155e-05
22 *871:40 5.09157e-05
23 *871:32 7.40484e-05
24 *871:30 6.38832e-05
25 *871:26 5.38758e-05
26 *871:20 7.4466e-05
27 *871:16 4.75187e-05
28 *871:10 5.34418e-05
29 *871:8 5.65744e-05
30 *871:10 *883:23 0
31 *871:32 *874:24 4.8233e-05
32 *871:40 *874:24 1.75952e-06
33 *871:82 *875:42 0
34 *871:93 *875:38 0
35 *871:93 *875:42 0
36 *1133:A2 *871:63 1.36155e-06
37 *1133:A2 *871:74 5.26266e-06
38 *1133:B *871:74 2.20493e-06
39 *1135:A1 *871:46 0
40 *1137:A2 *871:48 1.885e-06
41 *1137:A2 *871:59 6.58754e-06
42 *1141:A2 *871:40 3.51462e-05
43 *1518:D *871:63 1.96943e-05
44 *22:27 *871:59 8.20723e-06
45 *23:12 *871:74 0
46 *23:23 *871:74 0
47 *29:10 *871:93 3.90551e-06
48 *29:14 *871:93 2.25787e-06
49 *72:12 *871:20 9.67723e-06
50 *139:8 *871:20 4.97342e-06
51 *144:8 *871:110 6.33206e-07
52 *148:8 *871:82 0
53 *150:10 *871:59 0
54 *220:12 *871:8 5.25794e-06
55 *239:12 *871:110 2.68933e-07
56 *239:12 *871:123 0
57 *240:10 *871:93 0
58 *240:10 *871:110 3.47607e-06
59 *240:10 *871:123 0
60 *251:12 *871:74 0
61 *252:10 *871:82 3.47607e-06
62 *254:10 *871:74 0
63 *256:8 *871:59 9.81412e-07
64 *257:8 *871:59 7.21451e-07
65 *258:10 *871:59 8.78845e-06
66 *260:8 *871:40 1.98264e-06
67 *261:8 *871:46 3.02834e-06
68 *499:84 *871:20 1.68025e-06
69 *500:14 *871:26 1.64764e-06
70 *500:14 *871:30 3.93602e-06
71 *501:42 *871:20 4.30517e-07
72 *584:14 *871:10 1.19708e-05
73 *675:14 *871:40 7.35063e-07
74 *678:31 *1125:A1 1.20471e-05
75 *678:43 *871:110 1.12894e-06
76 *713:12 *871:48 6.45814e-06
77 *713:27 *871:59 0
78 *713:42 *871:59 0
79 *714:42 *871:32 5.26656e-05
80 *722:22 *871:16 9.30483e-06
81 *818:26 *871:20 0
82 *818:26 *871:26 3.23488e-06
83 *818:30 *871:26 2.25787e-06
84 *818:30 *871:30 5.45263e-06
85 *818:40 *871:30 1.09064e-05
86 *818:169 *871:93 0
87 *818:169 *871:123 0
88 *820:70 *871:20 0
89 *820:70 *871:26 1.09067e-06
90 *820:81 *871:10 0
91 *820:81 *871:20 0
92 *820:275 *871:20 0
93 *853:23 *871:10 0
*RES
1 *1846:Y *871:8 38.1438 
2 *871:8 *871:10 33.2268 
3 *871:10 *871:16 37.0741 
4 *871:16 *871:20 49.582 
5 *871:20 *871:26 35.6311 
6 *871:26 *871:30 35.7845 
7 *871:30 *871:32 35.8333 
8 *871:32 *871:40 48.4472 
9 *871:40 *871:46 47.916 
10 *871:46 *871:48 21.393 
11 *871:48 *1137:A1 17.2 
12 *871:48 *871:59 47.3842 
13 *871:59 *871:63 33.2448 
14 *871:63 *1133:A1 17.2 
15 *871:63 *871:74 34.8245 
16 *871:74 *871:78 28.4313 
17 *871:78 *871:82 41.9793 
18 *871:82 *1125:A1 42.9572 
19 *871:82 *871:93 41.6743 
20 *871:93 *871:97 20.9438 
21 *871:97 *1113:A1 17.2 
22 *871:97 *871:110 46.3645 
23 *871:110 *1121:A1 23.0831 
24 *871:93 *871:123 38.4019 
25 *871:123 *1117:A1 17.2 
26 *871:78 *1129:A2 17.2 
27 *871:40 *1141:A1 17.2 
28 *871:26 *1144:A2 35.4697 
*END

*D_NET *872 0.00115616
*CONN
*I *983:A I *D OR3x1_ASAP7_75t_SL
*I *1006:B I *D NOR2x1p5_ASAP7_75t_SL
*I *1007:A1 I *D OA21x2_ASAP7_75t_SL
*I *932:B I *D NOR3x1_ASAP7_75t_SL
*I *931:A1 I *D OA21x2_ASAP7_75t_SL
*I *1443:A2 I *D OA21x2_ASAP7_75t_SL
*I *947:A I *D OR3x1_ASAP7_75t_SL
*I *1847:Y O *D BUFx12f_ASAP7_75t_SL
*CAP
1 *983:A 0
2 *1006:B 0
3 *1007:A1 8.56808e-06
4 *932:B 0
5 *931:A1 0
6 *1443:A2 0
7 *947:A 4.79221e-06
8 *1847:Y 3.06665e-05
9 *872:128 3.04267e-05
10 *872:100 3.43151e-06
11 *872:92 2.06256e-05
12 *872:79 3.88229e-06
13 *872:73 1.73389e-05
14 *872:56 5.34984e-05
15 *872:54 5.23668e-05
16 *872:50 3.67239e-05
17 *872:48 4.29565e-05
18 *872:46 6.85804e-05
19 *872:44 8.03077e-05
20 *872:38 2.12245e-05
21 *872:30 2.18364e-05
22 *872:22 8.11479e-05
23 *872:20 7.12212e-05
24 *872:18 8.57477e-06
25 *872:10 5.03327e-05
26 *872:8 4.19978e-05
27 *872:22 *882:31 0
28 *872:22 *882:39 1.04475e-06
29 *931:A2 *872:56 0
30 *931:A2 *872:100 1.35684e-06
31 *932:C *872:48 5.51397e-07
32 *932:C *872:50 4.17901e-06
33 *983:B *872:128 2.12009e-06
34 *1008:A1 *872:38 1.26378e-06
35 *1443:B *872:73 2.03526e-06
36 *1796:A *872:128 2.71272e-05
37 *1847:A *872:8 0
38 *81:10 *872:128 1.33022e-05
39 *384:22 *872:56 0
40 *413:26 *872:56 7.7328e-06
41 *413:30 *872:56 2.62819e-05
42 *514:61 *872:18 4.58327e-06
43 *514:81 *872:38 3.70102e-05
44 *514:81 *872:73 1.711e-05
45 *514:89 *872:79 4.65695e-07
46 *519:10 *872:56 9.16986e-06
47 *519:16 *872:56 7.99625e-06
48 *519:56 *872:56 5.53227e-05
49 *519:56 *872:73 5.84138e-06
50 *519:58 *872:73 5.0551e-07
51 *522:20 *872:92 1.34406e-06
52 *523:8 *872:79 8.06676e-06
53 *533:23 *872:46 4.57767e-06
54 *533:23 *872:48 7.58265e-07
55 *533:23 *872:50 3.55261e-06
56 *534:10 *872:79 1.49407e-08
57 *564:8 *872:56 0
58 *565:10 *872:92 2.22736e-06
59 *565:10 *872:100 1.93482e-06
60 *624:10 *872:30 4.15076e-06
61 *624:10 *872:38 2.19448e-07
62 *625:6 *872:18 1.32074e-05
63 *625:6 *872:22 4.56456e-05
64 *704:8 *872:92 1.27817e-05
65 *724:8 *872:8 4.73041e-06
66 *746:79 *872:128 0
67 *746:87 *872:10 0
68 *746:87 *872:128 0
69 *812:51 *872:128 1.90254e-05
70 *812:62 *872:128 5.37569e-06
71 *830:25 *872:56 1.04345e-05
72 *841:12 *872:56 0
73 *841:20 *872:92 6.44347e-06
74 *844:10 *872:56 1.70708e-06
75 *850:8 *872:10 8.47357e-06
76 *850:19 *872:10 6.94376e-06
77 *850:19 *872:18 1.12901e-05
78 *850:19 *872:128 7.75768e-06
*RES
1 *1847:Y *872:8 47.7706 
2 *872:8 *872:10 11.2633 
3 *872:10 *872:18 42.0859 
4 *872:18 *872:20 17.2 
5 *872:20 *872:22 35.8333 
6 *872:22 *872:30 38.1887 
7 *872:30 *872:38 46.4761 
8 *872:38 *872:44 40.0317 
9 *872:44 *872:46 37.9726 
10 *872:46 *872:48 3.74377 
11 *872:48 *872:50 13.3706 
12 *872:50 *872:54 18.8045 
13 *872:54 *872:56 46.1796 
14 *872:56 *947:A 36.5393 
15 *872:50 *872:73 44.8451 
16 *872:73 *872:79 37.2158 
17 *872:79 *1443:A2 17.2 
18 *872:48 *872:92 45.2206 
19 *872:92 *872:100 36.1267 
20 *872:100 *931:A1 17.2 
21 *872:46 *932:B 17.2 
22 *872:44 *1007:A1 22.5483 
23 *872:38 *1006:B 17.2 
24 *872:10 *872:128 45.1883 
25 *872:128 *983:A 17.2 
*END

*D_NET *873 0.000297322
*CONN
*I *952:A I *D OR4x1_ASAP7_75t_SL
*I *919:A I *D OR3x1_ASAP7_75t_SL
*I *1848:Y O *D BUFx6f_ASAP7_75t_SL
*CAP
1 *952:A 0
2 *919:A 4.41316e-05
3 *1848:Y 0
4 *873:12 8.44674e-05
5 *873:6 4.03358e-05
6 *919:C *919:A 1.86049e-06
7 *952:C *919:A 1.45556e-05
8 *952:C *873:12 1.04611e-05
9 *952:D *919:A 1.35684e-06
10 *1848:A *873:12 1.95613e-05
11 *519:16 *919:A 3.5815e-05
12 *519:44 *873:12 3.23659e-06
13 *575:8 *873:12 5.23359e-06
14 *578:6 *919:A 6.1473e-07
15 *578:6 *873:12 6.24881e-06
16 *816:95 *873:12 0
17 *850:50 *873:12 2.94432e-05
*RES
1 *1848:Y *873:6 34.4 
2 *873:6 *873:12 47.9721 
3 *873:12 *919:A 46.6154 
4 *873:12 *952:A 17.2 
*END

*D_NET *874 0.0014056
*CONN
*I *1112:B I *D NAND2x1p5_ASAP7_75t_SL
*I *1143:B I *D NAND2x2_ASAP7_75t_SL
*I *1140:B I *D NAND2x2_ASAP7_75t_SL
*I *1128:B I *D NAND2x2_ASAP7_75t_SL
*I *1136:B I *D NAND2x2_ASAP7_75t_SL
*I *1849:Y O *D BUFx12f_ASAP7_75t_SL
*CAP
1 *1112:B 3.21741e-05
2 *1143:B 2.92056e-06
3 *1140:B 0
4 *1128:B 8.06149e-06
5 *1136:B 0
6 *1849:Y 1.38665e-05
7 *874:90 3.36391e-05
8 *874:84 9.81403e-05
9 *874:82 9.66753e-05
10 *874:57 4.18487e-05
11 *874:51 5.95238e-05
12 *874:40 3.10442e-05
13 *874:36 0.000101483
14 *874:30 9.75851e-05
15 *874:24 2.88537e-05
16 *874:22 4.91475e-05
17 *874:18 3.56945e-05
18 *874:12 8.61213e-05
19 *874:10 9.70805e-05
20 *874:8 3.58961e-05
21 *1112:B *875:22 1.73051e-05
22 *1128:B *875:42 2.41555e-05
23 *874:12 *883:31 0
24 *874:12 *883:35 0
25 *874:84 *875:14 0.000119623
26 *1133:B *874:57 6.84893e-06
27 *1138:A *874:18 3.56648e-06
28 *1140:A *874:24 1.06138e-05
29 *1141:A2 *874:24 3.41107e-06
30 *11:14 *874:10 1.35961e-06
31 *21:10 *1143:B 3.6269e-06
32 *21:10 *874:12 3.47607e-06
33 *21:10 *874:22 3.67481e-06
34 *24:25 *1128:B 8.46363e-06
35 *29:28 *874:84 4.61286e-07
36 *73:8 *874:12 1.70866e-06
37 *149:8 *874:51 6.10236e-07
38 *251:12 *874:51 1.69088e-05
39 *254:10 *874:36 7.0931e-07
40 *259:10 *874:12 0
41 *529:10 *874:8 1.2768e-05
42 *529:14 *874:8 3.8304e-05
43 *580:8 *874:90 0
44 *713:65 *874:40 1.45556e-05
45 *713:65 *874:51 1.68602e-05
46 *713:73 *874:36 0
47 *713:73 *874:51 1.43515e-05
48 *713:105 *1128:B 0
49 *714:61 *874:12 6.33206e-07
50 *714:61 *874:22 0
51 *818:8 *874:10 1.57656e-05
52 *818:10 *874:10 8.96212e-07
53 *818:10 *874:12 3.34944e-05
54 *818:14 *874:12 5.22486e-06
55 *818:60 *874:22 0
56 *818:124 *1112:B 2.03526e-06
57 *818:126 *874:90 3.32721e-06
58 *818:187 *874:10 4.1009e-06
59 *820:283 *874:12 8.2174e-07
60 *820:296 *874:12 6.33206e-06
61 *846:175 *874:8 4.12964e-06
62 *846:179 *874:8 5.72903e-06
63 *871:32 *874:24 4.8233e-05
64 *871:40 *874:24 1.75952e-06
*RES
1 *1849:Y *874:8 48.8403 
2 *874:8 *874:10 17.9275 
3 *874:10 *874:12 62.6053 
4 *874:12 *874:18 39.2134 
5 *874:18 *874:22 32.4055 
6 *874:22 *874:24 18.7189 
7 *874:24 *874:30 35.057 
8 *874:30 *874:36 47.149 
9 *874:36 *874:40 20.9438 
10 *874:40 *1136:B 17.2 
11 *874:40 *874:51 39.3015 
12 *874:51 *874:57 49.9099 
13 *874:57 *1128:B 44.537 
14 *874:24 *1140:B 17.2 
15 *874:18 *1143:B 37.2158 
16 *874:10 *874:82 17.2 
17 *874:82 *874:84 36.1451 
18 *874:84 *874:90 35.6202 
19 *874:90 *1112:B 41.2671 
*END

*D_NET *875 0.00114178
*CONN
*I *1124:B I *D NAND2x2_ASAP7_75t_SL
*I *1120:B I *D NAND2x2_ASAP7_75t_SL
*I *1116:B I *D NAND2x1_ASAP7_75t_SL
*I *1132:B I *D NAND2x2_ASAP7_75t_SL
*I *1850:Y O *D BUFx12f_ASAP7_75t_SL
*CAP
1 *1124:B 0
2 *1120:B 0
3 *1116:B 0
4 *1132:B 0
5 *1850:Y 7.69199e-06
6 *875:74 2.52958e-05
7 *875:68 2.98868e-05
8 *875:59 6.10411e-06
9 *875:55 4.26655e-05
10 *875:53 4.11525e-05
11 *875:51 1.64279e-05
12 *875:42 6.06402e-05
13 *875:40 6.06402e-05
14 *875:38 2.73284e-05
15 *875:30 3.96851e-05
16 *875:22 0.000104395
17 *875:20 7.87435e-05
18 *875:14 6.49451e-05
19 *875:10 6.95036e-05
20 *875:10 *883:29 1.62312e-05
21 *875:10 *883:31 2.19448e-07
22 *1110:B *875:74 1.12894e-06
23 *1111:A2 *875:55 3.47607e-06
24 *1111:B *875:59 5.62196e-06
25 *1111:B *875:68 1.73158e-06
26 *1112:B *875:22 1.73051e-05
27 *1114:A *875:74 5.37569e-06
28 *1116:A *875:68 6.86929e-06
29 *1121:A2 *875:55 3.88093e-05
30 *1121:A2 *875:74 0
31 *1122:A *875:42 0
32 *1124:A *875:51 5.09299e-06
33 *1124:A *875:55 3.47607e-06
34 *1128:A *875:42 0
35 *1128:B *875:42 2.41555e-05
36 *27:12 *875:74 1.44825e-05
37 *28:14 *875:68 3.81627e-06
38 *29:14 *875:38 3.47607e-06
39 *29:16 *875:30 1.27255e-05
40 *29:28 *875:14 1.11232e-05
41 *78:12 *875:20 0
42 *79:22 *875:10 9.49809e-07
43 *146:8 *875:55 0
44 *146:8 *875:74 3.79923e-06
45 *148:8 *875:42 3.79923e-06
46 *241:8 *875:74 8.19503e-06
47 *242:10 *875:55 8.06436e-06
48 *244:10 *875:55 0
49 *246:10 *875:55 2.74606e-06
50 *246:10 *875:74 0
51 *247:8 *875:42 0
52 *252:10 *875:42 0
53 *678:39 *875:42 6.68208e-06
54 *678:43 *875:38 0
55 *678:43 *875:42 0
56 *678:43 *875:55 5.52807e-07
57 *713:124 *875:42 0
58 *713:133 *875:42 0
59 *713:156 *875:55 8.85176e-06
60 *713:160 *875:55 0.000103387
61 *713:181 *875:59 2.12481e-06
62 *713:181 *875:68 1.21272e-05
63 *818:124 *875:22 1.06578e-05
64 *818:126 *875:30 0
65 *820:310 *875:20 0
66 *871:82 *875:42 0
67 *871:93 *875:38 0
68 *871:93 *875:42 0
69 *874:84 *875:14 0.000119623
*RES
1 *1850:Y *875:10 40.0582 
2 *875:10 *875:14 43.6054 
3 *875:14 *875:20 36.3711 
4 *875:20 *875:22 37.9726 
5 *875:22 *875:30 49.0103 
6 *875:30 *875:38 42.0859 
7 *875:38 *875:40 17.2 
8 *875:40 *875:42 51.2481 
9 *875:42 *1132:B 34.4 
10 *875:38 *875:51 10.1617 
11 *875:51 *875:53 17.2 
12 *875:53 *875:55 51.2481 
13 *875:55 *875:59 18.8045 
14 *875:59 *1116:B 17.2 
15 *875:59 *875:68 26.292 
16 *875:68 *875:74 45.8364 
17 *875:74 *1120:B 17.2 
18 *875:51 *1124:B 17.2 
*END

*D_NET *876 0.000312645
*CONN
*I *1420:A I *D AND2x4_ASAP7_75t_SL
*I *1670:A I *D BUFx3_ASAP7_75t_SL
*I *1851:Y O *D BUFx6f_ASAP7_75t_SL
*CAP
1 *1420:A 1.16888e-05
2 *1670:A 1.2345e-05
3 *1851:Y 4.00429e-05
4 *876:16 4.2392e-05
5 *876:12 1.97206e-05
6 *876:6 4.14053e-05
7 *1540:D *876:16 1.57738e-05
8 *74:12 *1670:A 1.94746e-05
9 *76:12 *1670:A 0
10 *172:8 *1420:A 1.84303e-05
11 *172:8 *1670:A 8.33296e-06
12 *227:18 *876:12 8.46363e-06
13 *501:8 *1420:A 0
14 *524:94 *1420:A 2.36025e-05
15 *629:8 *1420:A 2.57638e-06
16 *629:8 *1670:A 5.84968e-06
17 *663:25 *876:12 8.33296e-06
18 *722:34 *1420:A 3.48165e-06
19 *727:23 *876:6 1.67301e-05
20 *727:38 *1420:A 3.48165e-06
21 *728:99 *1670:A 8.39579e-06
22 *823:16 *876:6 2.12481e-06
*RES
1 *1851:Y *876:6 35.9189 
2 *876:6 *876:12 37.2158 
3 *876:12 *876:16 31.6403 
4 *876:16 *1670:A 48.1674 
5 *876:16 *1420:A 47.2111 
*END

*D_NET *877 0.000199778
*CONN
*I *975:A2 I *D AO31x2_ASAP7_75t_SL
*I *968:C I *D AND4x1_ASAP7_75t_SL
*I *1852:Y O *D BUFx3_ASAP7_75t_SL
*CAP
1 *975:A2 0
2 *968:C 0
3 *1852:Y 1.40547e-05
4 *877:28 1.51823e-05
5 *877:22 3.99664e-05
6 *877:14 3.40661e-05
7 *877:10 2.33366e-05
8 *877:28 *895:10 6.10236e-06
9 *84:10 *877:10 2.01457e-05
10 *591:8 *877:28 0
11 *596:10 *877:28 0
12 *647:16 *877:22 6.33206e-06
13 *654:28 *877:28 3.47607e-06
14 *741:27 *877:10 5.37569e-06
15 *741:40 *877:10 3.47607e-06
16 *741:46 *877:28 4.44082e-06
17 *751:21 *877:10 1.60115e-05
18 *823:46 *877:14 7.81138e-06
*RES
1 *1852:Y *877:10 45.9714 
2 *877:10 *877:14 23.0831 
3 *877:14 *877:22 46.9844 
4 *877:22 *877:28 47.916 
5 *877:28 *968:C 17.2 
6 *877:14 *975:A2 17.2 
*END

*D_NET *878 0.000714284
*CONN
*I *1172:B I *D AND5x2_ASAP7_75t_SL
*I *1146:A I *D AND3x1_ASAP7_75t_SL
*I *1151:A I *D NAND2x2_ASAP7_75t_SL
*I *1064:A I *D AND2x4_ASAP7_75t_SL
*I *1687:A I *D BUFx3_ASAP7_75t_SL
*I *1853:Y O *D BUFx3_ASAP7_75t_SL
*CAP
1 *1172:B 8.50871e-06
2 *1146:A 0
3 *1151:A 0
4 *1064:A 1.69383e-05
5 *1687:A 0
6 *1853:Y 0
7 *878:46 2.67385e-05
8 *878:40 5.39545e-05
9 *878:32 6.11989e-05
10 *878:26 2.3471e-05
11 *878:20 3.55293e-05
12 *878:18 2.9103e-05
13 *878:16 3.65799e-05
14 *878:10 5.03204e-05
15 *878:6 2.22492e-05
16 *1064:B *1064:A 6.70433e-06
17 *199:12 *878:16 5.08828e-06
18 *200:16 *878:46 2.74751e-05
19 *212:22 *878:16 1.16084e-05
20 *212:22 *878:32 5.65352e-05
21 *266:37 *878:16 8.98591e-06
22 *270:12 *878:40 1.56984e-05
23 *270:18 *878:46 1.52942e-06
24 *282:87 *878:26 1.63973e-05
25 *430:10 *878:26 0
26 *430:10 *878:32 0
27 *442:10 *878:46 2.98814e-08
28 *693:66 *878:16 4.26773e-06
29 *706:14 *1172:B 2.12481e-06
30 *707:10 *1172:B 1.21832e-05
31 *707:10 *878:10 1.53596e-05
32 *717:22 *878:20 2.75712e-05
33 *719:6 *878:46 4.17901e-06
34 *769:32 *878:20 5.22376e-07
35 *769:42 *878:32 2.52452e-06
36 *769:48 *878:32 2.02379e-06
37 *769:48 *878:40 6.33206e-07
38 *809:79 *1172:B 2.91638e-05
39 *809:79 *878:10 4.38229e-05
40 *820:146 *878:16 5.08828e-06
41 *820:167 *878:32 2.80835e-06
42 *820:173 *1064:A 2.24322e-06
43 *820:173 *878:32 4.51243e-05
*RES
1 *1853:Y *878:6 34.4 
2 *878:6 *878:10 32.4055 
3 *878:10 *878:16 44.8728 
4 *878:16 *878:18 17.2 
5 *878:18 *878:20 20.8582 
6 *878:20 *878:26 40.0317 
7 *878:26 *878:32 38.8481 
8 *878:32 *878:40 49.0103 
9 *878:40 *878:46 34.5695 
10 *878:46 *1687:A 17.2 
11 *878:32 *1064:A 42.4224 
12 *878:20 *1151:A 17.2 
13 *878:18 *1146:A 17.2 
14 *878:6 *1172:B 46.1415 
*END

*D_NET *879 9.28718e-05
*CONN
*I *1332:A2 I *D AOI211x1_ASAP7_75t_SL
*I *1854:Y O *D BUFx6f_ASAP7_75t_SL
*CAP
1 *1332:A2 2.23438e-05
2 *1854:Y 1.17568e-05
3 *879:10 3.41007e-05
4 *699:23 *879:10 9.67723e-06
5 *699:29 *1332:A2 0
6 *799:14 *1332:A2 2.66797e-07
7 *862:20 *879:10 4.91861e-06
8 *870:8 *879:10 9.8079e-06
*RES
1 *1854:Y *879:10 41.5228 
2 *879:10 *1332:A2 44.0269 
*END

*D_NET *880 0.0006017
*CONN
*I *1315:A1 I *D AOI211x1_ASAP7_75t_SL
*I *1399:A2 I *D OA21x2_ASAP7_75t_SL
*I *1855:Y O *D BUFx3_ASAP7_75t_SL
*CAP
1 *1315:A1 0
2 *1399:A2 1.81807e-05
3 *1855:Y 7.93785e-06
4 *880:33 9.38811e-06
5 *880:25 6.201e-05
6 *880:23 7.32475e-05
7 *880:8 4.67442e-05
8 *880:25 *885:12 0.0001956
9 *1315:A2 *880:33 2.20493e-06
10 *189:10 *880:33 0
11 *189:29 *880:25 0
12 *193:18 *880:33 2.04581e-05
13 *286:20 *880:23 9.78222e-06
14 *462:10 *880:23 3.97423e-06
15 *689:53 *1399:A2 5.19475e-06
16 *692:10 *1399:A2 3.16603e-06
17 *692:10 *880:23 1.7518e-05
18 *723:30 *1399:A2 1.22165e-05
19 *723:38 *1399:A2 3.61852e-06
20 *756:16 *880:23 2.91239e-05
21 *800:34 *880:25 7.77071e-05
22 *865:39 *880:25 3.62796e-06
*RES
1 *1855:Y *880:8 38.1438 
2 *880:8 *1399:A2 49.5168 
3 *880:8 *880:23 40.5714 
4 *880:23 *880:25 33.5479 
5 *880:25 *880:33 43.044 
6 *880:33 *1315:A1 17.2 
*END

*D_NET *881 0.00041703
*CONN
*I *941:A I *D AND4x1_ASAP7_75t_SL
*I *1856:Y O *D BUFx6f_ASAP7_75t_SL
*CAP
1 *941:A 1.83154e-06
2 *1856:Y 5.74724e-06
3 *881:16 5.05707e-05
4 *881:10 0.000102227
5 *881:8 5.92356e-05
6 *949:B1 *881:10 3.40048e-06
7 *1101:C *881:10 2.23229e-05
8 *1416:B *881:8 2.20493e-06
9 *14:23 *881:10 2.68324e-05
10 *14:29 *881:10 7.3054e-05
11 *15:20 *881:10 9.15342e-06
12 *160:14 *941:A 3.28023e-07
13 *162:8 *881:10 1.02072e-05
14 *228:6 *881:8 1.66584e-05
15 *229:8 *881:10 2.01457e-05
16 *490:31 *881:10 1.12901e-05
17 *498:8 *881:10 0
18 *499:114 *881:10 0
19 *567:29 *881:16 1.2101e-06
20 *827:106 *881:10 6.10236e-07
*RES
1 *1856:Y *881:8 39.2134 
2 *881:8 *881:10 57.7245 
3 *881:10 *881:16 49.1178 
4 *881:16 *941:A 35.8079 
*END

*D_NET *882 0.000502771
*CONN
*I *1008:B I *D OA21x2_ASAP7_75t_SL
*I *903:B I *D AND3x1_ASAP7_75t_SL
*I *1857:Y O *D BUFx3_ASAP7_75t_SL
*CAP
1 *1008:B 0
2 *903:B 0
3 *1857:Y 0
4 *882:39 7.34229e-06
5 *882:31 5.28091e-05
6 *882:20 1.30263e-05
7 *882:12 5.99343e-05
8 *882:10 7.77149e-05
9 *882:6 7.62737e-05
10 *882:12 *1822:A 1.69751e-05
11 *1406:E *882:10 5.06565e-06
12 *217:59 *882:10 0
13 *217:59 *882:31 0
14 *220:48 *882:10 0
15 *496:10 *882:10 0
16 *499:118 *882:20 3.73144e-06
17 *529:55 *882:10 0
18 *529:55 *882:31 0
19 *536:6 *882:20 1.40724e-05
20 *579:18 *882:20 9.48496e-06
21 *625:6 *882:31 1.04475e-06
22 *728:58 *882:31 2.71921e-06
23 *817:86 *882:20 0
24 *817:97 *882:20 0
25 *827:14 *882:12 3.24501e-05
26 *827:16 *882:12 0.000127031
27 *854:8 *882:12 2.05012e-06
28 *872:22 *882:31 0
29 *872:22 *882:39 1.04475e-06
*RES
1 *1857:Y *882:6 34.4 
2 *882:6 *882:10 38.6003 
3 *882:10 *882:12 47.5994 
4 *882:12 *882:20 46.5629 
5 *882:20 *903:B 17.2 
6 *882:6 *882:31 47.9191 
7 *882:31 *882:39 38.8203 
8 *882:39 *1008:B 17.2 
*END

*D_NET *883 0.00063971
*CONN
*I *957:A1 I *D OA211x2_ASAP7_75t_SL
*I *1437:A1 I *D OA211x2_ASAP7_75t_SL
*I *1432:A1 I *D OA211x2_ASAP7_75t_SL
*I *960:A2 I *D AO21x1_ASAP7_75t_SL
*I *1858:Y O *D BUFx6f_ASAP7_75t_SL
*CAP
1 *957:A1 4.77279e-06
2 *1437:A1 8.47914e-06
3 *1432:A1 0
4 *960:A2 0
5 *1858:Y 0
6 *883:46 1.32519e-05
7 *883:44 5.65117e-05
8 *883:35 3.14789e-05
9 *883:31 9.31062e-05
10 *883:29 1.68196e-05
11 *883:23 3.76154e-05
12 *883:12 3.90816e-05
13 *883:10 4.03641e-05
14 *883:6 2.71939e-05
15 *957:B *957:A1 4.05232e-06
16 *957:B *883:44 2.67046e-05
17 *1850:A *883:10 1.67815e-06
18 *79:18 *883:23 0
19 *79:22 *883:23 0
20 *79:22 *883:35 1.10561e-06
21 *219:10 *883:10 1.93842e-05
22 *499:47 *883:10 9.67723e-06
23 *499:53 *883:10 2.28839e-06
24 *499:92 *1437:A1 3.05118e-08
25 *513:14 *957:A1 7.53234e-06
26 *513:14 *1437:A1 1.65096e-05
27 *514:28 *883:10 0
28 *514:30 *883:29 4.43637e-05
29 *514:30 *883:44 1.41783e-05
30 *514:40 *1437:A1 4.24552e-06
31 *584:8 *883:23 6.70433e-06
32 *749:10 *883:23 2.22736e-06
33 *815:88 *957:A1 0
34 *815:88 *1437:A1 0
35 *818:115 *957:A1 1.58373e-06
36 *851:10 *883:35 2.22736e-06
37 *853:12 *883:12 4.06808e-05
38 *853:12 *883:23 5.62196e-06
39 *853:23 *883:23 4.37879e-05
40 *871:10 *883:23 0
41 *874:12 *883:31 0
42 *874:12 *883:35 0
43 *875:10 *883:29 1.62312e-05
44 *875:10 *883:31 2.19448e-07
*RES
1 *1858:Y *883:6 34.4 
2 *883:6 *883:10 40.853 
3 *883:10 *883:12 12.301 
4 *883:12 *960:A2 17.2 
5 *883:12 *883:23 40.7076 
6 *883:23 *883:29 47.7706 
7 *883:29 *883:31 2.81583 
8 *883:31 *883:35 39.7266 
9 *883:35 *1432:A1 17.2 
10 *883:31 *883:44 42.3368 
11 *883:44 *883:46 17.2 
12 *883:46 *1437:A1 41.1013 
13 *883:46 *957:A1 38.2855 
*END

*D_NET *884 0.00010947
*CONN
*I *1700:A I *D BUFx3_ASAP7_75t_SL
*I *1859:Y O *D BUFx3_ASAP7_75t_SL
*CAP
1 *1700:A 1.75131e-05
2 *1859:Y 3.67867e-06
3 *884:8 2.11917e-05
4 *1859:A *884:8 3.66013e-06
5 *286:20 *884:8 2.05956e-06
6 *692:14 *1700:A 4.82734e-05
7 *756:10 *884:8 1.30936e-05
*RES
1 *1859:Y *884:8 38.9053 
2 *884:8 *1700:A 48.8403 
*END

*D_NET *885 0.000909784
*CONN
*I *1225:D I *D AND5x2_ASAP7_75t_SL
*I *1297:A1 I *D OA21x2_ASAP7_75t_SL
*I *1860:Y O *D BUFx6f_ASAP7_75t_SL
*CAP
1 *1225:D 2.75748e-06
2 *1297:A1 0
3 *1860:Y 1.6376e-05
4 *885:29 5.32901e-05
5 *885:18 4.54316e-06
6 *885:12 0.000161439
7 *885:10 0.000207428
8 *885:8 1.6376e-05
9 *33:16 *885:12 1.38196e-05
10 *33:16 *885:29 7.39639e-06
11 *44:8 *885:18 5.84834e-06
12 *186:35 *885:29 2.83874e-07
13 *189:29 *885:12 0
14 *189:35 *885:8 2.20179e-07
15 *193:26 *885:12 0
16 *264:12 *1225:D 5.85387e-06
17 *264:18 *885:29 1.57363e-05
18 *285:24 *885:8 6.76625e-06
19 *285:24 *885:29 1.89282e-07
20 *395:8 *885:18 0
21 *436:10 *885:8 8.06799e-07
22 *479:12 *885:8 0
23 *689:35 *885:12 1.83477e-05
24 *689:45 *885:12 0.000113092
25 *731:57 *885:29 7.89181e-07
26 *739:20 *885:12 3.74016e-08
27 *846:27 *885:12 1.63598e-05
28 *846:27 *885:29 1.04046e-07
29 *846:67 *885:29 2.98725e-05
30 *862:28 *885:8 7.84772e-07
31 *865:12 *885:29 0
32 *865:18 *885:8 6.18268e-06
33 *865:39 *885:12 0
34 *867:10 *885:8 2.0915e-06
35 *867:96 *885:8 7.39184e-06
36 *880:25 *885:12 0.0001956
*RES
1 *1860:Y *885:8 48.0098 
2 *885:8 *885:10 17.2 
3 *885:10 *885:12 74.4547 
4 *885:12 *885:18 38.8115 
5 *885:18 *1297:A1 17.2 
6 *885:10 *885:29 42.0008 
7 *885:29 *1225:D 36.0045 
*END

*D_NET *886 0.000145881
*CONN
*I *1423:C I *D AND4x1_ASAP7_75t_SL
*I *1421:A1 I *D AOI21x1_ASAP7_75t_SL
*I *1861:Y O *D BUFx3_ASAP7_75t_SL
*CAP
1 *1423:C 5.70684e-06
2 *1421:A1 3.02099e-06
3 *1861:Y 1.79969e-05
4 *886:27 4.12144e-05
5 *886:10 5.65254e-05
6 *1402:A *886:10 5.0551e-07
7 *1423:B *886:27 1.40419e-08
8 *1423:D *1423:C 6.33206e-07
9 *485:8 *886:10 6.33206e-07
10 *502:12 *1421:A1 2.35211e-06
11 *503:18 *1423:C 3.91924e-06
12 *629:8 *886:10 1.34466e-06
13 *663:25 *886:10 0
14 *791:31 *886:27 2.52755e-06
15 *791:39 *1421:A1 1.89962e-06
16 *791:39 *886:10 6.80131e-06
17 *791:39 *886:27 7.86349e-07
*RES
1 *1861:Y *886:10 47.1544 
2 *886:10 *1421:A1 37.694 
3 *886:10 *886:27 48.8403 
4 *886:27 *1423:C 38.8203 
*END

*D_NET *887 9.76678e-05
*CONN
*I *1421:A2 I *D AOI21x1_ASAP7_75t_SL
*I *1862:Y O *D BUFx3_ASAP7_75t_SL
*CAP
1 *1421:A2 2.95563e-06
2 *1862:Y 2.35257e-05
3 *887:8 2.64813e-05
4 *1402:A *887:8 9.75645e-06
5 *1862:A *887:8 1.76928e-06
6 *629:8 *1421:A2 1.65207e-05
7 *791:39 *1421:A2 1.66587e-05
*RES
1 *1862:Y *887:8 45.6313 
2 *887:8 *1421:A2 40.0317 
*END

*D_NET *888 0.000219345
*CONN
*I *980:B I *D OAI21x1_ASAP7_75t_SL
*I *1863:Y O *D BUFx3_ASAP7_75t_SL
*CAP
1 *980:B 1.30907e-05
2 *1863:Y 1.13528e-05
3 *888:20 3.70732e-05
4 *888:16 3.67881e-05
5 *888:10 2.41584e-05
6 *974:A2 *888:16 5.19552e-07
7 *986:B *888:20 0
8 *9:23 *980:B 1.98538e-05
9 *166:10 *888:20 1.09067e-06
10 *216:10 *888:10 0
11 *216:10 *888:20 0
12 *529:93 *980:B 2.70479e-05
13 *595:8 *888:20 1.53071e-05
14 *775:43 *888:20 0
15 *775:52 *980:B 2.31575e-05
16 *776:16 *888:10 2.28976e-06
17 *776:16 *888:20 0
18 *776:22 *888:10 3.81627e-06
19 *820:378 *888:10 3.79923e-06
*RES
1 *1863:Y *888:10 41.5228 
2 *888:10 *888:16 39.2134 
3 *888:16 *888:20 35.7845 
4 *888:20 *980:B 33.7796 
*END

*D_NET *889 0.000989385
*CONN
*I *977:A I *D OR3x1_ASAP7_75t_SL
*I *964:A1 I *D AOI22x1_ASAP7_75t_SL
*I *987:A1 I *D OA211x2_ASAP7_75t_SL
*I *966:B I *D AND3x1_ASAP7_75t_SL
*I *1010:A2 I *D AO32x2_ASAP7_75t_SL
*I *1864:Y O *D BUFx6f_ASAP7_75t_SL
*CAP
1 *977:A 0
2 *964:A1 0
3 *987:A1 1.12758e-05
4 *966:B 0
5 *1010:A2 1.09222e-05
6 *1864:Y 0
7 *889:76 4.05278e-06
8 *889:68 5.63891e-05
9 *889:46 3.13999e-05
10 *889:37 4.1765e-05
11 *889:35 3.32844e-05
12 *889:29 1.88887e-05
13 *889:25 6.94399e-05
14 *889:14 3.07664e-05
15 *889:8 7.15572e-05
16 *889:6 4.18545e-05
17 *987:A1 *896:53 5.52807e-07
18 *966:A *889:37 5.22376e-07
19 *966:C *889:46 5.22376e-07
20 *977:B *889:76 7.14604e-06
21 *977:C *889:76 7.14604e-06
22 *1009:A *1010:A2 2.68933e-07
23 *1009:A *889:8 0
24 *1089:A *889:8 0
25 *1535:CLK *987:A1 1.04475e-06
26 *1740:A *889:25 0
27 *1846:A *889:8 2.98814e-07
28 *5:16 *889:8 0
29 *5:16 *889:25 0
30 *5:16 *889:35 0
31 *219:60 *889:8 3.8194e-05
32 *529:20 *889:8 0
33 *598:14 *889:68 2.61465e-05
34 *598:22 *889:37 0.000122262
35 *598:30 *889:37 9.08513e-06
36 *598:30 *889:46 9.69259e-05
37 *604:26 *889:68 3.39848e-06
38 *604:30 *889:37 0.000104727
39 *619:10 *1010:A2 6.62106e-06
40 *625:28 *889:8 2.71921e-06
41 *655:14 *889:68 0
42 *728:39 *889:76 3.05118e-08
43 *736:12 *889:8 1.00883e-05
44 *820:89 *889:8 4.45472e-06
45 *820:115 *1010:A2 2.9732e-06
46 *820:115 *889:25 0
47 *820:115 *889:35 0
48 *820:115 *889:68 0
49 *820:327 *987:A1 8.21017e-06
50 *823:82 *889:14 3.44136e-05
51 *836:48 *889:46 8.00372e-05
*RES
1 *1864:Y *889:6 34.4 
2 *889:6 *889:8 34.3531 
3 *889:8 *889:14 44.5617 
4 *889:14 *1010:A2 44.537 
5 *889:8 *889:25 6.75799 
6 *889:25 *889:29 20.9438 
7 *889:29 *889:35 44.537 
8 *889:35 *889:37 39.0422 
9 *889:37 *966:B 17.2 
10 *889:37 *889:46 44.4761 
11 *889:46 *987:A1 42.7625 
12 *889:29 *964:A1 17.2 
13 *889:25 *889:68 42.2039 
14 *889:68 *889:76 37.9472 
15 *889:76 *977:A 17.2 
*END

*D_NET *890 0.000300085
*CONN
*I *1017:A I *D OR3x1_ASAP7_75t_SL
*I *1865:Y O *D BUFx3_ASAP7_75t_SL
*CAP
1 *1017:A 1.87635e-06
2 *1865:Y 4.92347e-06
3 *890:16 2.21121e-05
4 *890:12 9.22878e-05
5 *890:8 7.69755e-05
6 *1851:A *890:12 9.33789e-06
7 *76:22 *890:12 4.17794e-05
8 *262:10 *890:16 2.04644e-05
9 *493:10 *890:8 0
10 *524:88 *890:12 0
11 *552:21 *890:8 0
12 *632:8 *1017:A 5.0551e-07
13 *647:8 *890:16 0
14 *727:23 *890:12 3.22132e-06
15 *728:97 *890:16 2.98814e-07
16 *755:8 *890:16 2.63025e-05
*RES
1 *1865:Y *890:8 37.779 
2 *890:8 *890:12 49.8243 
3 *890:12 *890:16 35.7845 
4 *890:16 *1017:A 35.4697 
*END

*D_NET *891 0.000271047
*CONN
*I *1822:A I *D BUFx3_ASAP7_75t_SL
*I *1865:A I *D BUFx3_ASAP7_75t_SL
*I *1866:Y O *D BUFx3_ASAP7_75t_SL
*CAP
1 *1822:A 1.33654e-05
2 *1865:A 1.05841e-05
3 *1866:Y 1.32942e-05
4 *891:31 2.96586e-05
5 *891:25 3.77981e-05
6 *891:10 4.53832e-05
7 *1406:E *891:31 3.875e-06
8 *230:12 *1865:A 3.85895e-06
9 *230:12 *891:25 5.81943e-05
10 *488:10 *891:31 5.79724e-07
11 *493:10 *1865:A 4.43244e-06
12 *493:10 *891:10 4.59165e-06
13 *496:10 *891:31 1.92417e-05
14 *496:16 *891:31 6.41585e-07
15 *754:13 *891:10 1.78854e-06
16 *854:8 *1822:A 6.78445e-06
17 *882:12 *1822:A 1.69751e-05
*RES
1 *1866:Y *891:10 41.5795 
2 *891:10 *1865:A 41.0163 
3 *891:10 *891:25 33.7796 
4 *891:25 *891:31 49.6055 
5 *891:31 *1822:A 29.501 
*END

*D_NET *892 0.000137752
*CONN
*I *1230:A I *D BUFx2_ASAP7_75t_SL
*I *1867:Y O *D BUFx2_ASAP7_75t_SL
*CAP
1 *1230:A 0
2 *1867:Y 0
3 *892:6 6.88761e-05
4 *892:4 6.88761e-05
*RES
1 *1867:Y *892:4 17.2 
2 *892:4 *892:6 40.1119 
3 *892:6 *1230:A 17.2 
*END

*D_NET *893 5.86161e-05
*CONN
*I *1441:A I *D BUFx2_ASAP7_75t_SL
*I *1868:Y O *D BUFx2_ASAP7_75t_SL
*CAP
1 *1441:A 1.67183e-05
2 *1868:Y 6.35496e-06
3 *893:8 2.30732e-05
4 *1048:A *1441:A 1.1364e-05
5 *1868:A *893:8 1.10561e-06
*RES
1 *1868:Y *893:8 38.9053 
2 *893:8 *1441:A 46.701 
*END

*D_NET *894 0.000380098
*CONN
*I *1425:C I *D AND3x1_ASAP7_75t_SL
*I *1411:A I *D OR3x1_ASAP7_75t_SL
*I *1869:Y O *D BUFx3_ASAP7_75t_SL
*CAP
1 *1425:C 1.07806e-05
2 *1411:A 0
3 *1869:Y 1.99921e-05
4 *894:25 3.51046e-05
5 *894:23 2.4324e-05
6 *894:16 9.66921e-06
7 *894:6 2.96613e-05
8 *1413:B *1425:C 5.51397e-07
9 *1425:B *1425:C 1.84022e-05
10 *1819:A *894:6 3.15957e-05
11 *1869:A *894:25 2.84286e-06
12 *73:22 *1425:C 9.75645e-06
13 *262:58 *894:16 1.52651e-06
14 *262:69 *894:25 1.57869e-05
15 *262:71 *894:25 7.62338e-05
16 *492:18 *894:25 6.74186e-05
17 *499:47 *894:16 2.68933e-07
18 *499:47 *894:25 0
19 *506:8 *1425:C 7.58545e-06
20 *852:12 *894:6 5.40225e-06
21 *852:12 *894:16 1.31952e-05
*RES
1 *1869:Y *894:6 28.4313 
2 *894:6 *894:16 40.9596 
3 *894:16 *1411:A 17.2 
4 *894:6 *894:23 17.2 
5 *894:23 *894:25 35.4795 
6 *894:25 *1425:C 42.9572 
*END

*D_NET *895 0.000151249
*CONN
*I *975:A1 I *D AO31x2_ASAP7_75t_SL
*I *968:A I *D AND4x1_ASAP7_75t_SL
*I *1870:Y O *D BUFx3_ASAP7_75t_SL
*CAP
1 *975:A1 0
2 *968:A 0
3 *1870:Y 1.92903e-05
4 *895:10 2.61956e-05
5 *895:6 4.5486e-05
6 *596:8 *895:6 5.62196e-06
7 *625:12 *895:10 1.908e-06
8 *647:16 *895:10 0
9 *654:28 *895:10 8.71771e-06
10 *716:23 *895:6 1.24757e-05
11 *823:46 *895:6 2.54511e-05
12 *877:28 *895:10 6.10236e-06
*RES
1 *1870:Y *895:6 36.9885 
2 *895:6 *895:10 35.7845 
3 *895:10 *968:A 34.4 
4 *895:6 *975:A1 17.2 
*END

*D_NET *896 0.00065612
*CONN
*I *990:A I *D AND2x2_ASAP7_75t_SL
*I *972:A1 I *D OA211x2_ASAP7_75t_SL
*I *1863:A I *D BUFx3_ASAP7_75t_SL
*I *955:B I *D AND2x2_ASAP7_75t_SL
*I *1871:Y O *D BUFx6f_ASAP7_75t_SL
*CAP
1 *990:A 2.02659e-05
2 *972:A1 1.51455e-06
3 *1863:A 3.18949e-06
4 *955:B 0
5 *1871:Y 8.15132e-06
6 *896:53 3.64966e-05
7 *896:47 5.04436e-05
8 *896:32 4.69352e-05
9 *896:21 3.75529e-05
10 *896:14 3.16006e-05
11 *896:10 6.29076e-05
12 *987:A1 *896:53 5.52807e-07
13 *987:A2 *990:A 7.26837e-05
14 *1438:A1 *896:21 9.94583e-06
15 *79:6 *896:10 1.04475e-06
16 *79:6 *896:14 8.04845e-05
17 *80:10 *896:14 8.65792e-06
18 *512:8 *896:14 5.62196e-06
19 *513:14 *896:10 6.76305e-06
20 *513:14 *896:21 7.09459e-06
21 *515:14 *896:10 2.22736e-06
22 *515:14 *896:21 1.09842e-06
23 *529:68 *896:21 3.2405e-05
24 *581:14 *896:21 4.73164e-07
25 *593:25 *896:47 2.36401e-05
26 *722:53 *972:A1 1.44167e-06
27 *768:8 *990:A 4.49838e-05
28 *775:60 *896:47 7.90851e-06
29 *776:22 *1863:A 7.63254e-07
30 *776:22 *896:32 2.35022e-05
31 *776:22 *896:47 8.46363e-06
32 *789:14 *896:21 8.33296e-06
33 *820:310 *896:21 0
34 *820:327 *896:21 1.86759e-06
35 *820:327 *896:32 2.83874e-07
36 *820:327 *896:47 4.5868e-06
37 *820:327 *896:53 0
38 *836:48 *896:47 1.07377e-06
39 *836:54 *896:53 1.16088e-06
*RES
1 *1871:Y *896:10 41.073 
2 *896:10 *896:14 44.4761 
3 *896:14 *955:B 17.2 
4 *896:10 *896:21 22.5266 
5 *896:21 *1863:A 36.0045 
6 *896:21 *896:32 10.137 
7 *896:32 *972:A1 35.4697 
8 *896:32 *896:47 43.5271 
9 *896:47 *896:53 44.537 
10 *896:53 *990:A 36.9885 
*END

*D_NET *897 9.89914e-05
*CONN
*I *1153:A2 I *D AO21x2_ASAP7_75t_SL
*I *1872:Y O *D BUFx3_ASAP7_75t_SL
*CAP
1 *1153:A2 1.47548e-05
2 *1872:Y 1.38174e-05
3 *897:10 2.85723e-05
4 *1183:B *897:10 2.68933e-07
5 *209:28 *897:10 5.52807e-07
6 *272:6 *1153:A2 3.80843e-05
7 *272:6 *897:10 1.59615e-06
8 *744:23 *897:10 1.34466e-06
*RES
1 *1872:Y *897:10 42.1426 
2 *897:10 *1153:A2 45.6313 
*END
