*SPEF "ieee 1481-1999"
*DESIGN "radix2_div"
*DATE "20:16:03 Thursday January 15, 2026"
*VENDOR "The OpenROAD Project"
*PROGRAM "OpenROAD"
*VERSION "26Q1-54-gb42159587e"
*DESIGN_FLOW "NAME_SCOPE LOCAL" "PIN_CAP NONE"
*DIVIDER /
*DELIMITER :
*BUS_DELIMITER []
*T_UNIT 1 NS
*C_UNIT 1 PF
*R_UNIT 1 OHM
*L_UNIT 1 HENRY

*NAME_MAP
*1 NEG_DIVISOR\[0\]
*2 NEG_DIVISOR\[1\]
*3 NEG_DIVISOR\[2\]
*4 NEG_DIVISOR\[3\]
*5 NEG_DIVISOR\[4\]
*6 NEG_DIVISOR\[5\]
*7 NEG_DIVISOR\[6\]
*8 NEG_DIVISOR\[7\]
*9 dividend[1]
*10 dividend[0]
*11 REMAINER\[1\]
*12 REMAINER\[2\]
*13 REMAINER\[3\]
*14 REMAINER\[4\]
*15 REMAINER\[5\]
*16 REMAINER\[6\]
*17 REMAINER\[7\]
*18 _000_
*19 _001_
*20 _002_
*21 _003_
*22 _004_
*23 _005_
*24 _006_
*25 _007_
*26 _008_
*27 _009_
*28 _010_
*29 _011_
*30 _012_
*31 _013_
*32 _014_
*33 _015_
*34 _016_
*35 _017_
*36 _018_
*37 _019_
*38 _020_
*39 _021_
*40 _022_
*41 _023_
*42 _024_
*43 _025_
*44 _026_
*45 _027_
*46 _028_
*47 _029_
*48 _030_
*49 _031_
*50 _032_
*51 _033_
*52 _034_
*53 _035_
*54 _036_
*55 _037_
*56 _038_
*57 _039_
*58 _040_
*59 _041_
*60 _042_
*61 _043_
*62 _044_
*63 _045_
*64 _046_
*65 _047_
*66 _048_
*67 _049_
*68 _050_
*69 _051_
*70 _052_
*71 _053_
*72 _054_
*73 _055_
*74 _056_
*75 _057_
*76 _058_
*77 _059_
*78 _060_
*79 _061_
*80 _062_
*81 _063_
*82 _064_
*83 _065_
*84 _066_
*85 _067_
*86 _068_
*87 _069_
*88 _070_
*89 _071_
*90 _072_
*91 _073_
*92 _074_
*93 _075_
*94 _076_
*95 _077_
*96 _078_
*97 _079_
*98 _080_
*99 _081_
*100 _082_
*101 _083_
*102 _084_
*103 _085_
*104 _086_
*105 _087_
*106 _088_
*107 _089_
*108 _090_
*109 _091_
*110 _092_
*111 _093_
*112 _094_
*113 _095_
*114 _096_
*115 _097_
*116 res_ready
*117 _099_
*118 _100_
*119 _101_
*120 opn_valid
*121 _103_
*122 _104_
*123 divisor[7]
*124 _106_
*125 _107_
*126 _108_
*127 divisor[6]
*128 _110_
*129 _111_
*130 _112_
*131 _113_
*132 _114_
*133 _115_
*134 _116_
*135 _117_
*136 _118_
*137 _119_
*138 _120_
*139 _121_
*140 _122_
*141 _123_
*142 _124_
*143 _125_
*144 _126_
*145 _127_
*146 _128_
*147 _129_
*148 _130_
*149 divisor[5]
*150 _132_
*151 _133_
*152 _134_
*153 _135_
*154 _136_
*155 _137_
*156 _138_
*157 divisor[4]
*158 _140_
*159 _141_
*160 _142_
*161 _143_
*162 _144_
*163 _145_
*164 _146_
*165 _147_
*166 _148_
*167 divisor[3]
*168 divisor[2]
*169 _151_
*170 _152_
*171 _153_
*172 _154_
*173 _155_
*174 _156_
*175 _157_
*176 _158_
*177 _159_
*178 _160_
*179 _161_
*180 _162_
*181 divisor[1]
*182 _164_
*183 _165_
*184 _166_
*185 _167_
*186 _168_
*187 _169_
*188 _170_
*189 _171_
*190 _172_
*191 _173_
*192 _174_
*193 _175_
*194 _176_
*195 _177_
*196 _178_
*197 _179_
*198 _180_
*199 _181_
*200 _182_
*201 _183_
*202 _184_
*203 _185_
*204 _186_
*205 _187_
*206 _188_
*207 _189_
*208 _190_
*209 _191_
*210 _192_
*211 _193_
*212 _194_
*213 _195_
*214 divisor[0]
*215 _197_
*216 _198_
*217 _199_
*218 _200_
*219 _201_
*220 _202_
*221 _203_
*222 _204_
*223 _205_
*224 _206_
*225 _207_
*226 _208_
*227 _209_
*228 _210_
*229 _211_
*230 _212_
*231 dividend[7]
*232 _214_
*233 dividend[6]
*234 _216_
*235 _217_
*236 dividend[5]
*237 _219_
*238 _220_
*239 _221_
*240 _222_
*241 dividend[4]
*242 _224_
*243 _225_
*244 dividend[3]
*245 _227_
*246 _228_
*247 _229_
*248 _230_
*249 _231_
*250 dividend[2]
*251 _233_
*252 _234_
*253 _235_
*254 _236_
*255 _237_
*256 _238_
*257 _239_
*258 _240_
*259 _241_
*260 _242_
*261 _243_
*262 _244_
*263 _245_
*264 _246_
*265 _247_
*266 _248_
*267 _249_
*268 _250_
*269 _251_
*270 _252_
*271 _253_
*272 _254_
*273 _255_
*274 _256_
*275 _257_
*276 _258_
*277 _259_
*278 _260_
*279 _261_
*280 _262_
*281 _263_
*282 _264_
*283 _265_
*284 _266_
*285 _267_
*286 _268_
*287 _269_
*288 _270_
*289 _271_
*290 _272_
*291 _273_
*292 _274_
*293 _275_
*294 _276_
*295 _277_
*296 _278_
*297 _279_
*298 _280_
*299 _281_
*300 _282_
*301 _283_
*302 _284_
*303 _285_
*304 _286_
*305 _287_
*306 _288_
*307 _289_
*308 _290_
*309 _291_
*310 _292_
*311 _293_
*312 _294_
*313 _295_
*314 _296_
*315 _297_
*316 _298_
*317 _299_
*318 _300_
*319 _301_
*320 _302_
*321 _303_
*322 _304_
*323 _305_
*324 _306_
*325 _307_
*326 clk
*327 cnt\[0\]
*328 cnt\[1\]
*329 net1
*330 net2
*331 net3
*332 net4
*333 net5
*334 net6
*335 net7
*336 net8
*337 net9
*338 net10
*339 net11
*340 net12
*341 net13
*342 net14
*343 net15
*344 net16
*345 net17
*346 net18
*347 net21
*348 net22
*349 net23
*350 net24
*351 net25
*352 net26
*353 net27
*354 net28
*355 net29
*356 net30
*357 net31
*358 net32
*359 net33
*360 net34
*361 net35
*362 net36
*363 net37
*364 net19
*365 net20
*368 rst
*369 sign
*370 res_valid
*371 result[0]
*372 result[10]
*373 result[11]
*374 result[12]
*375 result[13]
*376 result[14]
*377 result[15]
*378 result[1]
*379 result[2]
*380 result[3]
*381 result[4]
*382 result[5]
*383 result[6]
*384 result[7]
*385 result[8]
*386 result[9]
*387 clknet_0_clk
*388 clknet_2_0__leaf_clk
*389 clknet_2_1__leaf_clk
*390 clknet_2_2__leaf_clk
*391 clknet_2_3__leaf_clk
*392 NEG_DIVISOR\[0\]\$_DFFE_PP_
*393 NEG_DIVISOR\[1\]\$_DFFE_PP_
*394 NEG_DIVISOR\[2\]\$_DFFE_PP_
*395 NEG_DIVISOR\[3\]\$_DFFE_PP_
*396 NEG_DIVISOR\[4\]\$_DFFE_PP_
*397 NEG_DIVISOR\[5\]\$_DFFE_PP_
*398 NEG_DIVISOR\[6\]\$_DFFE_PP_
*399 NEG_DIVISOR\[7\]\$_DFFE_PP_
*400 NEG_DIVISOR\[8\]\$_SDFFCE_PP1P_
*401 SR\[0\]\$_SDFFE_PP0P_
*402 SR\[10\]\$_SDFFE_PP0P_
*403 SR\[11\]\$_SDFFE_PP0P_
*404 SR\[12\]\$_SDFFE_PP0P_
*405 SR\[13\]\$_SDFFE_PP0P_
*406 SR\[14\]\$_SDFFE_PP0P_
*407 SR\[15\]\$_SDFFE_PP0P_
*408 SR\[1\]\$_SDFFE_PP0P_
*409 SR\[2\]\$_SDFFE_PP0P_
*410 SR\[3\]\$_SDFFE_PP0P_
*411 SR\[4\]\$_SDFFE_PP0P_
*412 SR\[5\]\$_SDFFE_PP0P_
*413 SR\[6\]\$_SDFFE_PP0P_
*414 SR\[7\]\$_SDFFE_PP0P_
*415 SR\[8\]\$_SDFFE_PP0P_
*416 SR\[9\]\$_SDFFE_PP0P_
*417 _308_
*418 _309_
*419 _310_
*420 _311_
*421 _312_
*422 _313_
*423 _314_
*424 _315_
*425 _316_
*426 _317_
*427 _318_
*428 _319_
*429 _320_
*430 _321_
*431 _322_
*432 _323_
*433 _324_
*434 _325_
*435 _326_
*436 _327_
*437 _328_
*438 _329_
*439 _330_
*440 _331_
*441 input18
*442 _333_
*443 _334_
*444 _335_
*445 input17
*446 _337_
*447 _338_
*448 _339_
*449 input16
*450 _341_
*451 _342_
*452 _343_
*453 _344_
*454 input15
*455 _346_
*456 _347_
*457 _348_
*458 _349_
*459 _350_
*460 _351_
*461 _352_
*462 _353_
*463 _354_
*464 _355_
*465 _356_
*466 _357_
*467 _358_
*468 _359_
*469 _360_
*470 _361_
*471 _362_
*472 _363_
*473 _364_
*474 _365_
*475 _366_
*476 _367_
*477 _368_
*478 _369_
*479 _370_
*480 _371_
*481 input14
*482 _373_
*483 _374_
*484 _375_
*485 _376_
*486 _377_
*487 _378_
*488 _379_
*489 _380_
*490 _381_
*491 input13
*492 _383_
*493 _384_
*494 _385_
*495 _386_
*496 _387_
*497 _388_
*498 _389_
*499 _390_
*500 _391_
*501 input12
*502 input11
*503 _394_
*504 _395_
*505 _396_
*506 _397_
*507 _398_
*508 _399_
*509 _400_
*510 _401_
*511 _402_
*512 _403_
*513 _404_
*514 _405_
*515 _406_
*516 _407_
*517 input10
*518 _409_
*519 _410_
*520 _411_
*521 _412_
*522 _413_
*523 _414_
*524 _415_
*525 _416_
*526 _417_
*527 _418_
*528 _419_
*529 _420_
*530 _421_
*531 _422_
*532 _423_
*533 _424_
*534 _425_
*535 _426_
*536 _427_
*537 _428_
*538 _429_
*539 _430_
*540 _431_
*541 _432_
*542 _433_
*543 _434_
*544 _435_
*545 _436_
*546 _437_
*547 _438_
*548 _439_
*549 _440_
*550 _441_
*551 _442_
*552 _443_
*553 _444_
*554 input9
*555 _446_
*556 _447_
*557 _448_
*558 _449_
*559 _450_
*560 _451_
*561 _452_
*562 _453_
*563 _454_
*564 _455_
*565 _456_
*566 _457_
*567 _458_
*568 _459_
*569 _460_
*570 _461_
*571 _462_
*572 input8
*573 _464_
*574 _465_
*575 input7
*576 _467_
*577 _468_
*578 input6
*579 _470_
*580 _471_
*581 _472_
*582 _473_
*583 _474_
*584 input5
*585 _476_
*586 _477_
*587 input4
*588 _479_
*589 _480_
*590 _481_
*591 _482_
*592 _483_
*593 _484_
*594 input3
*595 _486_
*596 _487_
*597 _488_
*598 _489_
*599 _490_
*600 _491_
*601 _492_
*602 _493_
*603 _494_
*604 _495_
*605 _496_
*606 _497_
*607 _498_
*608 _499_
*609 _500_
*610 _501_
*611 _502_
*612 _503_
*613 _504_
*614 _505_
*615 _506_
*616 _507_
*617 _508_
*618 _509_
*619 _510_
*620 _511_
*621 _512_
*622 _513_
*623 _514_
*624 _515_
*625 _516_
*626 _517_
*627 _518_
*628 _519_
*629 _520_
*630 _521_
*631 _522_
*632 _523_
*633 _524_
*634 _525_
*635 _526_
*636 _527_
*637 _528_
*638 _529_
*639 _530_
*640 _531_
*641 _532_
*642 _533_
*643 _534_
*644 _535_
*645 _536_
*646 _537_
*647 _538_
*648 _539_
*649 _540_
*650 _541_
*651 _542_
*652 _543_
*653 _544_
*654 _545_
*655 _546_
*656 _547_
*657 _548_
*658 _549_
*659 _550_
*660 _551_
*661 _552_
*662 _553_
*663 _554_
*664 _555_
*665 _556_
*666 _557_
*667 _558_
*668 _559_
*669 _560_
*670 _561_
*671 _562_
*672 _563_
*673 _564_
*674 _565_
*675 _566_
*676 _567_
*677 _568_
*678 _569_
*679 _570_
*680 _571_
*681 _572_
*682 _573_
*683 _574_
*684 _575_
*685 _576_
*686 _577_
*687 _578_
*688 _579_
*689 _580_
*690 _581_
*691 _582_
*692 _583_
*693 _584_
*694 _585_
*695 _586_
*696 _587_
*697 _588_
*698 _589_
*699 _590_
*700 _591_
*701 _592_
*702 _593_
*703 _594_
*704 _595_
*705 _596_
*706 _597_
*707 _598_
*708 _599_
*709 _600_
*710 _601_
*711 _602_
*712 input2
*713 input1
*714 cnt\[0\]\$_SDFFE_PP0P_
*715 cnt\[1\]\$_SDFFE_PP0P_
*716 cnt\[2\]\$_SDFFE_PP0P_
*717 cnt\[3\]\$_SDFFE_PP0P_
*718 dividend_save\[7\]\$_SDFFE_PP0P_
*719 divisor_save\[7\]\$_SDFFE_PP0P_
*720 res_valid\$_SDFFE_PP0P_
*721 start_cnt\$_SDFF_PP0_
*722 PHY_EDGE_ROW_0_Right_0
*723 PHY_EDGE_ROW_1_Right_1
*724 PHY_EDGE_ROW_2_Right_2
*725 PHY_EDGE_ROW_3_Right_3
*726 PHY_EDGE_ROW_4_Right_4
*727 PHY_EDGE_ROW_5_Right_5
*728 PHY_EDGE_ROW_6_Right_6
*729 PHY_EDGE_ROW_7_Right_7
*730 PHY_EDGE_ROW_8_Right_8
*731 PHY_EDGE_ROW_9_Right_9
*732 PHY_EDGE_ROW_10_Right_10
*733 PHY_EDGE_ROW_11_Right_11
*734 PHY_EDGE_ROW_12_Right_12
*735 PHY_EDGE_ROW_13_Right_13
*736 PHY_EDGE_ROW_14_Right_14
*737 PHY_EDGE_ROW_15_Right_15
*738 PHY_EDGE_ROW_16_Right_16
*739 PHY_EDGE_ROW_17_Right_17
*740 PHY_EDGE_ROW_18_Right_18
*741 PHY_EDGE_ROW_19_Right_19
*742 PHY_EDGE_ROW_20_Right_20
*743 PHY_EDGE_ROW_21_Right_21
*744 PHY_EDGE_ROW_22_Right_22
*745 PHY_EDGE_ROW_23_Right_23
*746 PHY_EDGE_ROW_24_Right_24
*747 PHY_EDGE_ROW_25_Right_25
*748 PHY_EDGE_ROW_26_Right_26
*749 PHY_EDGE_ROW_27_Right_27
*750 PHY_EDGE_ROW_28_Right_28
*751 PHY_EDGE_ROW_29_Right_29
*752 PHY_EDGE_ROW_30_Right_30
*753 PHY_EDGE_ROW_31_Right_31
*754 PHY_EDGE_ROW_32_Right_32
*755 PHY_EDGE_ROW_33_Right_33
*756 PHY_EDGE_ROW_34_Right_34
*757 PHY_EDGE_ROW_35_Right_35
*758 PHY_EDGE_ROW_36_Right_36
*759 PHY_EDGE_ROW_37_Right_37
*760 PHY_EDGE_ROW_38_Right_38
*761 PHY_EDGE_ROW_39_Right_39
*762 PHY_EDGE_ROW_40_Right_40
*763 PHY_EDGE_ROW_41_Right_41
*764 PHY_EDGE_ROW_42_Right_42
*765 PHY_EDGE_ROW_43_Right_43
*766 PHY_EDGE_ROW_44_Right_44
*767 PHY_EDGE_ROW_45_Right_45
*768 PHY_EDGE_ROW_46_Right_46
*769 PHY_EDGE_ROW_47_Right_47
*770 PHY_EDGE_ROW_48_Right_48
*771 PHY_EDGE_ROW_49_Right_49
*772 PHY_EDGE_ROW_50_Right_50
*773 PHY_EDGE_ROW_0_Left_51
*774 PHY_EDGE_ROW_1_Left_52
*775 PHY_EDGE_ROW_2_Left_53
*776 PHY_EDGE_ROW_3_Left_54
*777 PHY_EDGE_ROW_4_Left_55
*778 PHY_EDGE_ROW_5_Left_56
*779 PHY_EDGE_ROW_6_Left_57
*780 PHY_EDGE_ROW_7_Left_58
*781 PHY_EDGE_ROW_8_Left_59
*782 PHY_EDGE_ROW_9_Left_60
*783 PHY_EDGE_ROW_10_Left_61
*784 PHY_EDGE_ROW_11_Left_62
*785 PHY_EDGE_ROW_12_Left_63
*786 PHY_EDGE_ROW_13_Left_64
*787 PHY_EDGE_ROW_14_Left_65
*788 PHY_EDGE_ROW_15_Left_66
*789 PHY_EDGE_ROW_16_Left_67
*790 PHY_EDGE_ROW_17_Left_68
*791 PHY_EDGE_ROW_18_Left_69
*792 PHY_EDGE_ROW_19_Left_70
*793 PHY_EDGE_ROW_20_Left_71
*794 PHY_EDGE_ROW_21_Left_72
*795 PHY_EDGE_ROW_22_Left_73
*796 PHY_EDGE_ROW_23_Left_74
*797 PHY_EDGE_ROW_24_Left_75
*798 PHY_EDGE_ROW_25_Left_76
*799 PHY_EDGE_ROW_26_Left_77
*800 PHY_EDGE_ROW_27_Left_78
*801 PHY_EDGE_ROW_28_Left_79
*802 PHY_EDGE_ROW_29_Left_80
*803 PHY_EDGE_ROW_30_Left_81
*804 PHY_EDGE_ROW_31_Left_82
*805 PHY_EDGE_ROW_32_Left_83
*806 PHY_EDGE_ROW_33_Left_84
*807 PHY_EDGE_ROW_34_Left_85
*808 PHY_EDGE_ROW_35_Left_86
*809 PHY_EDGE_ROW_36_Left_87
*810 PHY_EDGE_ROW_37_Left_88
*811 PHY_EDGE_ROW_38_Left_89
*812 PHY_EDGE_ROW_39_Left_90
*813 PHY_EDGE_ROW_40_Left_91
*814 PHY_EDGE_ROW_41_Left_92
*815 PHY_EDGE_ROW_42_Left_93
*816 PHY_EDGE_ROW_43_Left_94
*817 PHY_EDGE_ROW_44_Left_95
*818 PHY_EDGE_ROW_45_Left_96
*819 PHY_EDGE_ROW_46_Left_97
*820 PHY_EDGE_ROW_47_Left_98
*821 PHY_EDGE_ROW_48_Left_99
*822 PHY_EDGE_ROW_49_Left_100
*823 PHY_EDGE_ROW_50_Left_101
*824 input19
*825 input20
*826 output21
*827 output22
*828 output23
*829 output24
*830 output25
*831 output26
*832 output27
*833 output28
*834 output29
*835 output30
*836 output31
*837 output32
*838 output33
*839 output34
*840 output35
*841 output36
*842 output37
*843 clkbuf_0_clk
*844 clkbuf_2_0__f_clk
*845 clkbuf_2_1__f_clk
*846 clkbuf_2_2__f_clk
*847 clkbuf_2_3__f_clk
*848 clkload0
*849 clkload1
*850 clkload2
*851 FILLER_0_2
*852 FILLER_0_24
*853 FILLER_0_46
*854 FILLER_0_68
*855 FILLER_0_90
*856 FILLER_0_112
*857 FILLER_0_123
*858 FILLER_0_130
*859 FILLER_0_152
*860 FILLER_0_174
*861 FILLER_0_196
*862 FILLER_0_218
*863 FILLER_0_240
*864 FILLER_0_254
*865 FILLER_1_2
*866 FILLER_1_16
*867 FILLER_1_25
*868 FILLER_1_35
*869 FILLER_1_41
*870 FILLER_1_63
*871 FILLER_1_85
*872 FILLER_1_87
*873 FILLER_1_111
*874 FILLER_1_133
*875 FILLER_1_155
*876 FILLER_1_177
*877 FILLER_1_199
*878 FILLER_1_221
*879 FILLER_1_243
*880 FILLER_1_253
*881 FILLER_2_2
*882 FILLER_2_24
*883 FILLER_2_34
*884 FILLER_2_38
*885 FILLER_2_47
*886 FILLER_2_53
*887 FILLER_2_82
*888 FILLER_2_86
*889 FILLER_2_94
*890 FILLER_2_116
*891 FILLER_2_138
*892 FILLER_2_152
*893 FILLER_2_156
*894 FILLER_2_166
*895 FILLER_2_176
*896 FILLER_2_180
*897 FILLER_2_184
*898 FILLER_2_192
*899 FILLER_2_206
*900 FILLER_2_214
*901 FILLER_2_236
*902 FILLER_2_250
*903 FILLER_2_254
*904 FILLER_3_2
*905 FILLER_3_16
*906 FILLER_3_22
*907 FILLER_3_29
*908 FILLER_3_35
*909 FILLER_3_44
*910 FILLER_3_66
*911 FILLER_3_88
*912 FILLER_3_94
*913 FILLER_3_96
*914 FILLER_3_104
*915 FILLER_3_133
*916 FILLER_3_147
*917 FILLER_3_151
*918 FILLER_3_167
*919 FILLER_3_198
*920 FILLER_3_210
*921 FILLER_3_232
*922 FILLER_3_254
*923 FILLER_4_2
*924 FILLER_4_24
*925 FILLER_4_33
*926 FILLER_4_35
*927 FILLER_4_42
*928 FILLER_4_64
*929 FILLER_4_86
*930 FILLER_4_108
*931 FILLER_4_130
*932 FILLER_4_152
*933 FILLER_4_158
*934 FILLER_4_167
*935 FILLER_4_189
*936 FILLER_4_199
*937 FILLER_4_201
*938 FILLER_4_229
*939 FILLER_4_251
*940 FILLER_5_2
*941 FILLER_5_24
*942 FILLER_5_32
*943 FILLER_5_54
*944 FILLER_5_71
*945 FILLER_5_93
*946 FILLER_5_115
*947 FILLER_5_137
*948 FILLER_5_151
*949 FILLER_5_159
*950 FILLER_5_189
*951 FILLER_5_203
*952 FILLER_5_207
*953 FILLER_5_216
*954 FILLER_5_225
*955 FILLER_5_247
*956 FILLER_5_253
*957 FILLER_6_2
*958 FILLER_6_24
*959 FILLER_6_28
*960 FILLER_6_35
*961 FILLER_6_49
*962 FILLER_6_55
*963 FILLER_6_62
*964 FILLER_6_84
*965 FILLER_6_106
*966 FILLER_6_128
*967 FILLER_6_138
*968 FILLER_6_148
*969 FILLER_6_167
*970 FILLER_6_177
*971 FILLER_6_179
*972 FILLER_6_198
*973 FILLER_6_229
*974 FILLER_6_251
*975 FILLER_7_2
*976 FILLER_7_24
*977 FILLER_7_46
*978 FILLER_7_68
*979 FILLER_7_98
*980 FILLER_7_120
*981 FILLER_7_134
*982 FILLER_7_140
*983 FILLER_7_144
*984 FILLER_7_161
*985 FILLER_7_175
*986 FILLER_7_177
*987 FILLER_7_185
*988 FILLER_7_207
*989 FILLER_7_216
*990 FILLER_7_238
*991 FILLER_7_252
*992 FILLER_7_254
*993 FILLER_8_2
*994 FILLER_8_13
*995 FILLER_8_23
*996 FILLER_8_32
*997 FILLER_8_54
*998 FILLER_8_83
*999 FILLER_8_87
*1000 FILLER_8_91
*1001 FILLER_8_93
*1002 FILLER_8_124
*1003 FILLER_8_138
*1004 FILLER_8_140
*1005 FILLER_8_150
*1006 FILLER_8_172
*1007 FILLER_8_178
*1008 FILLER_8_180
*1009 FILLER_8_191
*1010 FILLER_8_213
*1011 FILLER_8_235
*1012 FILLER_8_249
*1013 FILLER_9_2
*1014 FILLER_9_13
*1015 FILLER_9_25
*1016 FILLER_9_32
*1017 FILLER_9_62
*1018 FILLER_9_84
*1019 FILLER_9_106
*1020 FILLER_9_128
*1021 FILLER_9_150
*1022 FILLER_9_172
*1023 FILLER_9_194
*1024 FILLER_9_202
*1025 FILLER_9_208
*1026 FILLER_9_210
*1027 FILLER_9_217
*1028 FILLER_9_239
*1029 FILLER_9_253
*1030 FILLER_10_2
*1031 FILLER_10_24
*1032 FILLER_10_46
*1033 FILLER_10_68
*1034 FILLER_10_90
*1035 FILLER_10_112
*1036 FILLER_10_134
*1037 FILLER_10_156
*1038 FILLER_10_178
*1039 FILLER_10_200
*1040 FILLER_10_206
*1041 FILLER_10_208
*1042 FILLER_10_218
*1043 FILLER_10_222
*1044 FILLER_10_244
*1045 FILLER_10_254
*1046 FILLER_11_2
*1047 FILLER_11_24
*1048 FILLER_11_33
*1049 FILLER_11_61
*1050 FILLER_11_71
*1051 FILLER_11_73
*1052 FILLER_11_77
*1053 FILLER_11_99
*1054 FILLER_11_121
*1055 FILLER_11_125
*1056 FILLER_11_134
*1057 FILLER_11_154
*1058 FILLER_11_176
*1059 FILLER_11_190
*1060 FILLER_11_194
*1061 FILLER_11_205
*1062 FILLER_11_211
*1063 FILLER_11_233
*1064 FILLER_12_2
*1065 FILLER_12_17
*1066 FILLER_12_35
*1067 FILLER_12_49
*1068 FILLER_12_55
*1069 FILLER_12_106
*1070 FILLER_12_120
*1071 FILLER_12_126
*1072 FILLER_12_136
*1073 FILLER_12_138
*1074 FILLER_12_150
*1075 FILLER_12_164
*1076 FILLER_12_178
*1077 FILLER_12_200
*1078 FILLER_12_222
*1079 FILLER_12_244
*1080 FILLER_12_254
*1081 FILLER_13_2
*1082 FILLER_13_24
*1083 FILLER_13_46
*1084 FILLER_13_68
*1085 FILLER_13_90
*1086 FILLER_13_112
*1087 FILLER_13_122
*1088 FILLER_13_131
*1089 FILLER_13_137
*1090 FILLER_13_175
*1091 FILLER_13_183
*1092 FILLER_13_211
*1093 FILLER_13_234
*1094 FILLER_13_248
*1095 FILLER_13_254
*1096 FILLER_14_2
*1097 FILLER_14_24
*1098 FILLER_14_46
*1099 FILLER_14_68
*1100 FILLER_14_78
*1101 FILLER_14_87
*1102 FILLER_14_109
*1103 FILLER_14_131
*1104 FILLER_14_137
*1105 FILLER_14_146
*1106 FILLER_14_160
*1107 FILLER_14_164
*1108 FILLER_14_171
*1109 FILLER_14_185
*1110 FILLER_14_191
*1111 FILLER_14_198
*1112 FILLER_14_208
*1113 FILLER_14_210
*1114 FILLER_14_217
*1115 FILLER_14_226
*1116 FILLER_14_239
*1117 FILLER_14_248
*1118 FILLER_14_254
*1119 FILLER_15_2
*1120 FILLER_15_16
*1121 FILLER_15_38
*1122 FILLER_15_60
*1123 FILLER_15_74
*1124 FILLER_15_96
*1125 FILLER_15_118
*1126 FILLER_15_128
*1127 FILLER_15_150
*1128 FILLER_15_162
*1129 FILLER_15_184
*1130 FILLER_15_190
*1131 FILLER_15_199
*1132 FILLER_15_221
*1133 FILLER_15_243
*1134 FILLER_15_253
*1135 FILLER_16_2
*1136 FILLER_16_8
*1137 FILLER_16_27
*1138 FILLER_16_41
*1139 FILLER_16_63
*1140 FILLER_16_85
*1141 FILLER_16_107
*1142 FILLER_16_120
*1143 FILLER_16_142
*1144 FILLER_16_152
*1145 FILLER_16_166
*1146 FILLER_16_188
*1147 FILLER_16_210
*1148 FILLER_16_232
*1149 FILLER_16_254
*1150 FILLER_17_7
*1151 FILLER_17_21
*1152 FILLER_17_33
*1153 FILLER_17_47
*1154 FILLER_17_58
*1155 FILLER_17_64
*1156 FILLER_17_80
*1157 FILLER_17_82
*1158 FILLER_17_103
*1159 FILLER_17_113
*1160 FILLER_17_117
*1161 FILLER_17_119
*1162 FILLER_17_129
*1163 FILLER_17_133
*1164 FILLER_17_148
*1165 FILLER_17_165
*1166 FILLER_17_187
*1167 FILLER_17_209
*1168 FILLER_17_231
*1169 FILLER_17_253
*1170 FILLER_18_2
*1171 FILLER_18_24
*1172 FILLER_18_36
*1173 FILLER_18_50
*1174 FILLER_18_78
*1175 FILLER_18_100
*1176 FILLER_18_122
*1177 FILLER_18_144
*1178 FILLER_18_158
*1179 FILLER_18_176
*1180 FILLER_18_188
*1181 FILLER_18_194
*1182 FILLER_18_196
*1183 FILLER_18_203
*1184 FILLER_18_209
*1185 FILLER_18_217
*1186 FILLER_18_239
*1187 FILLER_18_253
*1188 FILLER_19_2
*1189 FILLER_19_24
*1190 FILLER_19_30
*1191 FILLER_19_32
*1192 FILLER_19_36
*1193 FILLER_19_58
*1194 FILLER_19_80
*1195 FILLER_19_102
*1196 FILLER_19_124
*1197 FILLER_19_146
*1198 FILLER_19_168
*1199 FILLER_19_190
*1200 FILLER_19_212
*1201 FILLER_19_227
*1202 FILLER_19_229
*1203 FILLER_19_250
*1204 FILLER_19_254
*1205 FILLER_20_2
*1206 FILLER_20_24
*1207 FILLER_20_46
*1208 FILLER_20_68
*1209 FILLER_20_90
*1210 FILLER_20_112
*1211 FILLER_20_126
*1212 FILLER_20_133
*1213 FILLER_20_155
*1214 FILLER_20_169
*1215 FILLER_20_177
*1216 FILLER_20_191
*1217 FILLER_20_211
*1218 FILLER_20_233
*1219 FILLER_21_2
*1220 FILLER_21_24
*1221 FILLER_21_37
*1222 FILLER_21_59
*1223 FILLER_21_81
*1224 FILLER_21_95
*1225 FILLER_21_119
*1226 FILLER_21_141
*1227 FILLER_21_147
*1228 FILLER_21_152
*1229 FILLER_21_166
*1230 FILLER_21_168
*1231 FILLER_21_177
*1232 FILLER_21_191
*1233 FILLER_21_195
*1234 FILLER_21_202
*1235 FILLER_21_224
*1236 FILLER_21_246
*1237 FILLER_21_252
*1238 FILLER_21_254
*1239 FILLER_22_2
*1240 FILLER_22_8
*1241 FILLER_22_10
*1242 FILLER_22_16
*1243 FILLER_22_30
*1244 FILLER_22_38
*1245 FILLER_22_60
*1246 FILLER_22_82
*1247 FILLER_22_96
*1248 FILLER_22_108
*1249 FILLER_22_122
*1250 FILLER_22_134
*1251 FILLER_22_156
*1252 FILLER_22_173
*1253 FILLER_22_187
*1254 FILLER_22_212
*1255 FILLER_22_216
*1256 FILLER_22_220
*1257 FILLER_22_242
*1258 FILLER_22_252
*1259 FILLER_22_254
*1260 FILLER_23_2
*1261 FILLER_23_24
*1262 FILLER_23_46
*1263 FILLER_23_54
*1264 FILLER_23_76
*1265 FILLER_23_78
*1266 FILLER_23_93
*1267 FILLER_23_115
*1268 FILLER_23_125
*1269 FILLER_23_133
*1270 FILLER_23_139
*1271 FILLER_23_161
*1272 FILLER_23_172
*1273 FILLER_23_194
*1274 FILLER_23_208
*1275 FILLER_23_236
*1276 FILLER_23_250
*1277 FILLER_23_254
*1278 FILLER_24_2
*1279 FILLER_24_24
*1280 FILLER_24_46
*1281 FILLER_24_68
*1282 FILLER_24_78
*1283 FILLER_24_108
*1284 FILLER_24_124
*1285 FILLER_24_140
*1286 FILLER_24_150
*1287 FILLER_24_172
*1288 FILLER_24_194
*1289 FILLER_24_204
*1290 FILLER_24_225
*1291 FILLER_24_239
*1292 FILLER_24_250
*1293 FILLER_24_254
*1294 FILLER_25_2
*1295 FILLER_25_6
*1296 FILLER_25_12
*1297 FILLER_25_18
*1298 FILLER_25_20
*1299 FILLER_25_32
*1300 FILLER_25_42
*1301 FILLER_25_50
*1302 FILLER_25_72
*1303 FILLER_25_94
*1304 FILLER_25_116
*1305 FILLER_25_138
*1306 FILLER_25_160
*1307 FILLER_25_182
*1308 FILLER_25_204
*1309 FILLER_25_226
*1310 FILLER_25_248
*1311 FILLER_25_254
*1312 FILLER_26_2
*1313 FILLER_26_8
*1314 FILLER_26_10
*1315 FILLER_26_16
*1316 FILLER_26_26
*1317 FILLER_26_48
*1318 FILLER_26_70
*1319 FILLER_26_92
*1320 FILLER_26_114
*1321 FILLER_26_136
*1322 FILLER_26_138
*1323 FILLER_26_147
*1324 FILLER_26_169
*1325 FILLER_26_191
*1326 FILLER_26_213
*1327 FILLER_26_225
*1328 FILLER_26_231
*1329 FILLER_26_237
*1330 FILLER_26_251
*1331 FILLER_27_2
*1332 FILLER_27_24
*1333 FILLER_27_33
*1334 FILLER_27_55
*1335 FILLER_27_69
*1336 FILLER_27_75
*1337 FILLER_27_82
*1338 FILLER_27_104
*1339 FILLER_27_126
*1340 FILLER_27_143
*1341 FILLER_27_165
*1342 FILLER_27_189
*1343 FILLER_27_211
*1344 FILLER_27_233
*1345 FILLER_28_2
*1346 FILLER_28_24
*1347 FILLER_28_26
*1348 FILLER_28_33
*1349 FILLER_28_55
*1350 FILLER_28_77
*1351 FILLER_28_81
*1352 FILLER_28_103
*1353 FILLER_28_116
*1354 FILLER_28_122
*1355 FILLER_28_130
*1356 FILLER_28_152
*1357 FILLER_28_174
*1358 FILLER_28_180
*1359 FILLER_28_182
*1360 FILLER_28_194
*1361 FILLER_28_208
*1362 FILLER_28_221
*1363 FILLER_28_230
*1364 FILLER_28_244
*1365 FILLER_28_248
*1366 FILLER_28_254
*1367 FILLER_29_2
*1368 FILLER_29_13
*1369 FILLER_29_19
*1370 FILLER_29_21
*1371 FILLER_29_28
*1372 FILLER_29_30
*1373 FILLER_29_48
*1374 FILLER_29_66
*1375 FILLER_29_80
*1376 FILLER_29_87
*1377 FILLER_29_109
*1378 FILLER_29_116
*1379 FILLER_29_122
*1380 FILLER_29_132
*1381 FILLER_29_166
*1382 FILLER_29_168
*1383 FILLER_29_172
*1384 FILLER_29_182
*1385 FILLER_29_188
*1386 FILLER_29_196
*1387 FILLER_29_202
*1388 FILLER_29_217
*1389 FILLER_29_231
*1390 FILLER_29_240
*1391 FILLER_29_254
*1392 FILLER_30_2
*1393 FILLER_30_16
*1394 FILLER_30_24
*1395 FILLER_30_46
*1396 FILLER_30_56
*1397 FILLER_30_77
*1398 FILLER_30_89
*1399 FILLER_30_111
*1400 FILLER_30_117
*1401 FILLER_30_131
*1402 FILLER_30_153
*1403 FILLER_30_165
*1404 FILLER_30_187
*1405 FILLER_30_197
*1406 FILLER_30_212
*1407 FILLER_30_226
*1408 FILLER_30_241
*1409 FILLER_31_2
*1410 FILLER_31_24
*1411 FILLER_31_46
*1412 FILLER_31_66
*1413 FILLER_31_80
*1414 FILLER_31_82
*1415 FILLER_31_106
*1416 FILLER_31_116
*1417 FILLER_31_123
*1418 FILLER_31_137
*1419 FILLER_31_139
*1420 FILLER_31_160
*1421 FILLER_31_182
*1422 FILLER_31_184
*1423 FILLER_31_205
*1424 FILLER_31_227
*1425 FILLER_31_235
*1426 FILLER_31_249
*1427 FILLER_32_2
*1428 FILLER_32_16
*1429 FILLER_32_18
*1430 FILLER_32_30
*1431 FILLER_32_52
*1432 FILLER_32_74
*1433 FILLER_32_96
*1434 FILLER_32_118
*1435 FILLER_32_140
*1436 FILLER_32_162
*1437 FILLER_32_184
*1438 FILLER_32_206
*1439 FILLER_32_228
*1440 FILLER_32_250
*1441 FILLER_32_254
*1442 FILLER_33_2
*1443 FILLER_33_12
*1444 FILLER_33_18
*1445 FILLER_33_40
*1446 FILLER_33_54
*1447 FILLER_33_65
*1448 FILLER_33_87
*1449 FILLER_33_93
*1450 FILLER_33_106
*1451 FILLER_33_128
*1452 FILLER_33_150
*1453 FILLER_33_164
*1454 FILLER_33_186
*1455 FILLER_33_208
*1456 FILLER_33_230
*1457 FILLER_33_252
*1458 FILLER_33_254
*1459 FILLER_34_2
*1460 FILLER_34_27
*1461 FILLER_34_49
*1462 FILLER_34_66
*1463 FILLER_34_88
*1464 FILLER_34_110
*1465 FILLER_34_132
*1466 FILLER_34_154
*1467 FILLER_34_164
*1468 FILLER_34_185
*1469 FILLER_34_207
*1470 FILLER_34_229
*1471 FILLER_34_251
*1472 FILLER_35_2
*1473 FILLER_35_11
*1474 FILLER_35_15
*1475 FILLER_35_28
*1476 FILLER_35_34
*1477 FILLER_35_51
*1478 FILLER_35_57
*1479 FILLER_35_64
*1480 FILLER_35_86
*1481 FILLER_35_108
*1482 FILLER_35_110
*1483 FILLER_35_118
*1484 FILLER_35_140
*1485 FILLER_35_162
*1486 FILLER_35_184
*1487 FILLER_35_194
*1488 FILLER_35_202
*1489 FILLER_35_224
*1490 FILLER_35_246
*1491 FILLER_35_252
*1492 FILLER_35_254
*1493 FILLER_36_7
*1494 FILLER_36_9
*1495 FILLER_36_15
*1496 FILLER_36_37
*1497 FILLER_36_59
*1498 FILLER_36_77
*1499 FILLER_36_83
*1500 FILLER_36_91
*1501 FILLER_36_105
*1502 FILLER_36_145
*1503 FILLER_36_167
*1504 FILLER_36_173
*1505 FILLER_36_181
*1506 FILLER_36_195
*1507 FILLER_36_197
*1508 FILLER_36_225
*1509 FILLER_36_253
*1510 FILLER_37_2
*1511 FILLER_37_16
*1512 FILLER_37_23
*1513 FILLER_37_29
*1514 FILLER_37_36
*1515 FILLER_37_50
*1516 FILLER_37_56
*1517 FILLER_37_71
*1518 FILLER_37_93
*1519 FILLER_37_105
*1520 FILLER_37_112
*1521 FILLER_37_126
*1522 FILLER_37_128
*1523 FILLER_37_149
*1524 FILLER_37_177
*1525 FILLER_37_205
*1526 FILLER_37_227
*1527 FILLER_37_249
*1528 FILLER_38_2
*1529 FILLER_38_24
*1530 FILLER_38_46
*1531 FILLER_38_68
*1532 FILLER_38_90
*1533 FILLER_38_100
*1534 FILLER_38_116
*1535 FILLER_38_138
*1536 FILLER_38_160
*1537 FILLER_38_170
*1538 FILLER_38_174
*1539 FILLER_38_196
*1540 FILLER_38_200
*1541 FILLER_38_222
*1542 FILLER_38_236
*1543 FILLER_38_242
*1544 FILLER_38_246
*1545 FILLER_38_253
*1546 FILLER_39_7
*1547 FILLER_39_29
*1548 FILLER_39_41
*1549 FILLER_39_63
*1550 FILLER_39_85
*1551 FILLER_39_99
*1552 FILLER_39_109
*1553 FILLER_39_131
*1554 FILLER_39_153
*1555 FILLER_39_175
*1556 FILLER_39_197
*1557 FILLER_39_219
*1558 FILLER_39_241
*1559 FILLER_40_2
*1560 FILLER_40_8
*1561 FILLER_40_26
*1562 FILLER_40_48
*1563 FILLER_40_70
*1564 FILLER_40_92
*1565 FILLER_40_98
*1566 FILLER_40_106
*1567 FILLER_40_120
*1568 FILLER_40_126
*1569 FILLER_40_133
*1570 FILLER_40_155
*1571 FILLER_40_177
*1572 FILLER_40_191
*1573 FILLER_40_204
*1574 FILLER_40_227
*1575 FILLER_40_249
*1576 FILLER_41_2
*1577 FILLER_41_24
*1578 FILLER_41_46
*1579 FILLER_41_52
*1580 FILLER_41_54
*1581 FILLER_41_67
*1582 FILLER_41_89
*1583 FILLER_41_111
*1584 FILLER_41_121
*1585 FILLER_41_123
*1586 FILLER_41_169
*1587 FILLER_41_191
*1588 FILLER_41_205
*1589 FILLER_41_209
*1590 FILLER_41_225
*1591 FILLER_41_232
*1592 FILLER_41_234
*1593 FILLER_42_2
*1594 FILLER_42_16
*1595 FILLER_42_22
*1596 FILLER_42_29
*1597 FILLER_42_43
*1598 FILLER_42_84
*1599 FILLER_42_90
*1600 FILLER_42_95
*1601 FILLER_42_117
*1602 FILLER_42_139
*1603 FILLER_42_161
*1604 FILLER_42_183
*1605 FILLER_42_197
*1606 FILLER_42_210
*1607 FILLER_42_223
*1608 FILLER_42_245
*1609 FILLER_43_2
*1610 FILLER_43_24
*1611 FILLER_43_26
*1612 FILLER_43_33
*1613 FILLER_43_53
*1614 FILLER_43_63
*1615 FILLER_43_72
*1616 FILLER_43_94
*1617 FILLER_43_116
*1618 FILLER_43_138
*1619 FILLER_43_160
*1620 FILLER_43_170
*1621 FILLER_43_192
*1622 FILLER_43_214
*1623 FILLER_43_236
*1624 FILLER_43_250
*1625 FILLER_43_254
*1626 FILLER_44_2
*1627 FILLER_44_24
*1628 FILLER_44_46
*1629 FILLER_44_68
*1630 FILLER_44_82
*1631 FILLER_44_90
*1632 FILLER_44_112
*1633 FILLER_44_134
*1634 FILLER_44_156
*1635 FILLER_44_170
*1636 FILLER_44_174
*1637 FILLER_44_202
*1638 FILLER_44_224
*1639 FILLER_44_246
*1640 FILLER_44_252
*1641 FILLER_44_254
*1642 FILLER_45_2
*1643 FILLER_45_16
*1644 FILLER_45_34
*1645 FILLER_45_56
*1646 FILLER_45_62
*1647 FILLER_45_70
*1648 FILLER_45_84
*1649 FILLER_45_92
*1650 FILLER_45_106
*1651 FILLER_45_121
*1652 FILLER_45_131
*1653 FILLER_45_138
*1654 FILLER_45_148
*1655 FILLER_45_150
*1656 FILLER_45_157
*1657 FILLER_45_179
*1658 FILLER_45_193
*1659 FILLER_45_201
*1660 FILLER_45_223
*1661 FILLER_45_245
*1662 FILLER_46_2
*1663 FILLER_46_16
*1664 FILLER_46_42
*1665 FILLER_46_63
*1666 FILLER_46_75
*1667 FILLER_46_85
*1668 FILLER_46_87
*1669 FILLER_46_102
*1670 FILLER_46_116
*1671 FILLER_46_142
*1672 FILLER_46_155
*1673 FILLER_46_177
*1674 FILLER_46_191
*1675 FILLER_46_193
*1676 FILLER_46_200
*1677 FILLER_46_225
*1678 FILLER_46_232
*1679 FILLER_46_254
*1680 FILLER_47_2
*1681 FILLER_47_24
*1682 FILLER_47_28
*1683 FILLER_47_49
*1684 FILLER_47_55
*1685 FILLER_47_78
*1686 FILLER_47_88
*1687 FILLER_47_107
*1688 FILLER_47_129
*1689 FILLER_47_139
*1690 FILLER_47_146
*1691 FILLER_47_152
*1692 FILLER_47_154
*1693 FILLER_47_163
*1694 FILLER_47_198
*1695 FILLER_47_200
*1696 FILLER_47_204
*1697 FILLER_47_206
*1698 FILLER_47_210
*1699 FILLER_47_224
*1700 FILLER_47_228
*1701 FILLER_47_249
*1702 FILLER_48_2
*1703 FILLER_48_24
*1704 FILLER_48_46
*1705 FILLER_48_68
*1706 FILLER_48_74
*1707 FILLER_48_81
*1708 FILLER_48_95
*1709 FILLER_48_104
*1710 FILLER_48_126
*1711 FILLER_48_148
*1712 FILLER_48_152
*1713 FILLER_48_158
*1714 FILLER_48_180
*1715 FILLER_48_202
*1716 FILLER_48_224
*1717 FILLER_48_246
*1718 FILLER_48_252
*1719 FILLER_48_254
*1720 FILLER_49_2
*1721 FILLER_49_24
*1722 FILLER_49_46
*1723 FILLER_49_68
*1724 FILLER_49_90
*1725 FILLER_49_104
*1726 FILLER_49_115
*1727 FILLER_49_137
*1728 FILLER_49_151
*1729 FILLER_49_160
*1730 FILLER_49_182
*1731 FILLER_49_204
*1732 FILLER_49_226
*1733 FILLER_49_248
*1734 FILLER_49_254
*1735 FILLER_50_2
*1736 FILLER_50_24
*1737 FILLER_50_46
*1738 FILLER_50_60
*1739 FILLER_50_66
*1740 FILLER_50_72
*1741 FILLER_50_86
*1742 FILLER_50_97
*1743 FILLER_50_101
*1744 FILLER_50_107
*1745 FILLER_50_129
*1746 FILLER_50_151
*1747 FILLER_50_173
*1748 FILLER_50_195
*1749 FILLER_50_217
*1750 FILLER_50_239
*1751 FILLER_50_253

*PORTS
clk I
dividend[0] I
dividend[1] I
dividend[2] I
dividend[3] I
dividend[4] I
dividend[5] I
dividend[6] I
dividend[7] I
divisor[0] I
divisor[1] I
divisor[2] I
divisor[3] I
divisor[4] I
divisor[5] I
divisor[6] I
divisor[7] I
opn_valid I
res_ready I
res_valid O
result[0] O
result[10] O
result[11] O
result[12] O
result[13] O
result[14] O
result[15] O
result[1] O
result[2] O
result[3] O
result[4] O
result[5] O
result[6] O
result[7] O
result[8] O
result[9] O
rst I
sign I

*D_NET *1 0.000412022
*CONN
*I *709:B I *D HAxp5_ASAP7_75t_R
*I *446:B I *D AO21x1_ASAP7_75t_R
*I *436:Y O *D INVx1_ASAP7_75t_R
*CAP
1 *709:B 0
2 *446:B 0
3 *436:Y 0
4 *1:33 1.06186e-05
5 *1:27 0.00014068
6 *1:25 0.000130061
7 *1:23 3.03885e-05
8 *1:12 1.23836e-05
9 *1:4 4.27722e-05
10 *1:12 *436:A 2.28976e-06
11 *1:12 *453:B 1.96943e-05
12 *1:12 *121:10 2.0895e-06
13 *1:12 *126:6 3.73144e-06
14 *1:23 *453:B 1.05206e-05
15 *1:23 *119:47 6.79293e-06
16 *1:23 *388:75 0
17 *1:23 *388:86 0
18 *1:33 *73:8 0
19 *1:33 *363:10 0
*RES
1 *436:Y *1:4 17.2 
2 *1:4 *1:12 46.3645 
3 *1:12 *446:B 17.2 
4 *1:4 *1:23 37.612 
5 *1:23 *1:25 17.2 
6 *1:25 *1:27 72.2014 
7 *1:27 *1:33 42.2843 
8 *1:33 *709:B 17.2 
*END

*D_NET *2 0.000429279
*CONN
*I *453:A1 I *D AO21x1_ASAP7_75t_R
*I *705:B I *D HAxp5_ASAP7_75t_R
*I *435:Y O *D INVx1_ASAP7_75t_R
*CAP
1 *453:A1 0
2 *705:B 0
3 *435:Y 0
4 *2:23 0.000153156
5 *2:21 0.000161811
6 *2:12 3.11304e-05
7 *2:6 3.97857e-05
8 *2:12 *73:8 1.67815e-06
9 *2:12 *73:12 6.07185e-06
10 *2:21 *73:8 2.77657e-06
11 *2:23 *393:CLK 1.60115e-05
12 *2:23 *393:D 0
13 *2:23 *453:B 5.22376e-06
14 *2:23 *698:B 2.11853e-06
15 *2:23 *47:6 9.51578e-06
*RES
1 *435:Y *2:6 34.4 
2 *2:6 *2:12 38.1752 
3 *2:12 *705:B 17.2 
4 *2:6 *2:21 23.3948 
5 *2:21 *2:23 67.9228 
6 *2:23 *453:A1 17.2 
*END

*D_NET *3 0.00047082
*CONN
*I *704:B I *D HAxp5_ASAP7_75t_R
*I *458:A1 I *D OA21x2_ASAP7_75t_R
*I *434:Y O *D INVx1_ASAP7_75t_R
*CAP
1 *704:B 0
2 *458:A1 0
3 *434:Y 1.53962e-05
4 *3:41 3.91981e-06
5 *3:35 9.14472e-05
6 *3:28 7.32457e-06
7 *3:22 7.83567e-05
8 *3:20 9.25752e-05
9 *3:12 0.00010907
10 *3:10 1.53962e-05
11 *3:20 *389:46 3.47607e-06
12 *3:22 *388:51 1.27255e-05
13 *3:28 *125:172 2.01457e-05
14 *3:28 *388:10 0
15 *3:35 *63:16 5.0551e-07
16 *3:35 *64:16 9.42744e-06
17 *3:41 *61:10 5.52652e-06
18 *3:41 *63:16 5.52652e-06
*RES
1 *434:Y *3:10 41.5228 
2 *3:10 *3:12 17.2 
3 *3:12 *3:20 43.0989 
4 *3:20 *3:22 44.3905 
5 *3:22 *3:28 41.158 
6 *3:28 *458:A1 17.2 
7 *3:12 *3:35 35.8333 
8 *3:35 *3:41 38.9053 
9 *3:41 *704:B 17.2 
*END

*D_NET *4 0.000378801
*CONN
*I *703:B I *D HAxp5_ASAP7_75t_R
*I *463:A1 I *D OA21x2_ASAP7_75t_R
*I *433:Y O *D INVx1_ASAP7_75t_R
*CAP
1 *703:B 5.15316e-05
2 *463:A1 0
3 *433:Y 0
4 *4:20 5.30899e-06
5 *4:14 0.000124971
6 *4:12 0.000129469
7 *4:4 6.13389e-05
8 *4:12 *362:10 0
9 *4:12 *363:10 5.52807e-07
10 *4:14 *38:8 0
11 *4:20 *38:55 3.95007e-06
12 *4:20 *125:144 1.67815e-06
*RES
1 *433:Y *4:4 17.2 
2 *4:4 *4:12 39.975 
3 *4:12 *4:14 46.5298 
4 *4:14 *4:20 38.9053 
5 *4:20 *463:A1 17.2 
6 *4:4 *703:B 49.2895 
*END

*D_NET *5 0.000859315
*CONN
*I *702:B I *D HAxp5_ASAP7_75t_R
*I *468:A1 I *D OA21x2_ASAP7_75t_R
*I *432:Y O *D INVx1_ASAP7_75t_R
*CAP
1 *702:B 0
2 *468:A1 0
3 *432:Y 0
4 *5:33 6.19003e-06
5 *5:27 0.000294563
6 *5:20 2.33523e-05
7 *5:12 4.91461e-05
8 *5:10 3.72692e-05
9 *5:4 0.000299848
10 *5:12 *397:CLK 1.4806e-05
11 *5:12 *142:12 5.87706e-05
12 *5:12 *388:28 4.61825e-05
13 *5:20 *125:72 6.20163e-07
14 *5:20 *125:78 4.34114e-06
15 *5:20 *138:20 1.26923e-05
16 *5:27 *473:A2 5.82745e-07
17 *5:27 *6:20 0
18 *5:27 *7:12 0
19 *5:27 *88:10 8.13414e-06
20 *5:27 *142:20 2.30405e-06
21 *5:33 *57:8 5.13209e-07
*RES
1 *432:Y *5:4 17.2 
2 *5:4 *5:10 41.158 
3 *5:10 *5:12 41.1815 
4 *5:12 *5:20 49.7719 
5 *5:20 *468:A1 17.2 
6 *5:4 *5:27 119.266 
7 *5:27 *5:33 39.4685 
8 *5:33 *702:B 17.2 
*END

*D_NET *6 0.000865277
*CONN
*I *701:B I *D HAxp5_ASAP7_75t_R
*I *473:A1 I *D OA21x2_ASAP7_75t_R
*I *431:Y O *D INVx1_ASAP7_75t_R
*CAP
1 *701:B 0
2 *473:A1 0
3 *431:Y 0
4 *6:31 2.65928e-05
5 *6:27 0.000296842
6 *6:20 4.18284e-05
7 *6:14 0.000120097
8 *6:10 8.80997e-05
9 *6:4 0.00028008
10 *6:20 *473:A2 3.89037e-06
11 *6:20 *88:10 5.2643e-06
12 *6:20 *142:20 6.49184e-07
13 *6:31 *56:20 1.93294e-06
14 *5:27 *6:20 0
*RES
1 *431:Y *6:4 17.2 
2 *6:4 *6:10 40.5948 
3 *6:10 *6:14 44.4761 
4 *6:14 *6:20 36.9072 
5 *6:20 *473:A1 17.2 
6 *6:4 *6:27 129.962 
7 *6:27 *6:31 35.7845 
8 *6:31 *701:B 34.4 
*END

*D_NET *7 0.00117629
*CONN
*I *700:B I *D HAxp5_ASAP7_75t_R
*I *478:A1 I *D OA21x2_ASAP7_75t_R
*I *430:Y O *D INVx1_ASAP7_75t_R
*CAP
1 *700:B 3.65878e-06
2 *478:A1 0
3 *430:Y 0
4 *7:39 2.609e-05
5 *7:35 0.00011636
6 *7:33 0.000104738
7 *7:27 0.000214145
8 *7:20 8.1531e-06
9 *7:12 0.000163829
10 *7:10 0.000167445
11 *7:4 0.000215105
12 *700:B *56:40 2.86376e-07
13 *7:20 *125:133 1.61096e-06
14 *7:27 *548:A1 2.63008e-06
15 *7:27 *57:23 2.52783e-06
16 *7:27 *193:14 3.12564e-05
17 *7:27 *209:6 0
18 *7:33 *209:12 9.63398e-06
19 *7:35 *549:A2 5.9327e-05
20 *7:35 *55:25 4.08123e-05
21 *7:35 *56:20 1.1699e-06
22 *7:39 *16:36 3.92018e-06
23 *7:39 *55:36 0
24 *7:39 *56:8 0
25 *7:39 *210:12 3.05074e-06
26 *7:39 *220:16 5.37866e-07
27 *5:27 *7:12 0
*RES
1 *430:Y *7:4 17.2 
2 *7:4 *7:10 43.4107 
3 *7:10 *7:12 56.1566 
4 *7:12 *7:20 38.8486 
5 *7:20 *478:A1 17.2 
6 *7:4 *7:27 74.3407 
7 *7:27 *7:33 43.4107 
8 *7:33 *7:35 41.1815 
9 *7:35 *7:39 33.5318 
10 *7:39 *700:B 36.0045 
*END

*D_NET *8 0.00128541
*CONN
*I *699:B I *D HAxp5_ASAP7_75t_R
*I *485:A1 I *D AO21x1_ASAP7_75t_R
*I *429:Y O *D INVx1_ASAP7_75t_R
*CAP
1 *699:B 0
2 *485:A1 0
3 *429:Y 0
4 *8:33 4.68329e-06
5 *8:27 0.000531105
6 *8:25 0.000532867
7 *8:14 7.04509e-06
8 *8:6 7.10242e-05
9 *8:4 7.04236e-05
10 *8:6 *485:A2 7.58265e-07
11 *8:6 *485:B 2.12481e-06
12 *8:6 *90:10 5.0551e-07
13 *8:6 *125:166 6.10326e-05
14 *8:6 *388:51 0
15 *8:27 *134:12 0
16 *8:33 *38:42 0
17 *8:33 *51:8 3.84449e-06
*RES
1 *429:Y *8:4 17.2 
2 *8:4 *8:6 33.694 
3 *8:6 *8:14 38.2855 
4 *8:14 *485:A1 17.2 
5 *8:4 *8:25 37.779 
6 *8:25 *8:27 216.604 
7 *8:27 *8:33 39.4685 
8 *8:33 *699:B 17.2 
*END

*D_NET *9 0.000182908
*CONN
*P dividend[1] I
*I *712:A I *D BUFx2_ASAP7_75t_R
*CAP
1 dividend[1] 2.08939e-05
2 *712:A 2.40414e-05
3 *9:9 4.49353e-05
4 *712:A *365:6 7.38232e-06
5 *9:9 *10:9 5.53641e-05
6 *9:9 *369:9 3.02907e-05
*RES
1 dividend[1] *9:9 39.6212 
2 *9:9 *712:A 47.7706 
*END

*D_NET *10 0.000143888
*CONN
*P dividend[0] I
*I *713:A I *D BUFx2_ASAP7_75t_R
*CAP
1 dividend[0] 3.14017e-05
2 *713:A 1.28601e-05
3 *10:9 4.42619e-05
4 *9:9 *10:9 5.53641e-05
*RES
1 dividend[0] *10:9 39.895 
2 *10:9 *713:A 40.2831 
*END

*D_NET *11 0.000592152
*CONN
*I *697:A1 I *D OA21x2_ASAP7_75t_R
*I *627:A2 I *D OA21x2_ASAP7_75t_R
*I *705:A I *D HAxp5_ASAP7_75t_R
*I *421:Y O *D INVx1_ASAP7_75t_R
*CAP
1 *697:A1 0
2 *627:A2 2.61344e-05
3 *705:A 1.97773e-05
4 *421:Y 0
5 *11:50 1.88016e-05
6 *11:35 8.84841e-05
7 *11:33 5.93381e-05
8 *11:25 2.33256e-05
9 *11:8 7.19174e-05
10 *11:6 5.96757e-05
11 *627:A2 *627:A1 2.0895e-06
12 *705:A *63:8 1.07377e-06
13 *705:A *64:8 1.29877e-05
14 *11:8 *48:10 0
15 *11:8 *76:8 0
16 *11:8 *274:16 5.15455e-06
17 *11:8 *363:10 0
18 *11:25 *421:A 1.07377e-06
19 *11:25 *274:16 8.06799e-07
20 *11:33 *177:6 1.3988e-05
21 *11:33 *274:16 1.48332e-05
22 *11:35 *26:18 4.22795e-05
23 *11:35 *73:65 2.64405e-05
24 *11:35 *177:12 2.99938e-06
25 *11:35 *274:16 2.29762e-05
26 *11:35 *274:29 4.0308e-05
27 *11:35 *326:14 1.82344e-06
28 *11:50 *697:A2 1.04475e-06
29 *11:50 *37:28 2.03608e-06
30 *11:50 *73:65 7.56859e-06
31 *11:50 *325:12 5.09299e-06
32 *11:50 *363:8 2.01215e-05
*RES
1 *421:Y *11:6 34.4 
2 *11:6 *11:8 38.2953 
3 *11:8 *705:A 46.701 
4 *11:6 *11:25 39.89 
5 *11:25 *11:33 49.4071 
6 *11:33 *11:35 50.1218 
7 *11:35 *627:A2 49.9099 
8 *11:35 *11:50 33.5848 
9 *11:50 *697:A1 17.2 
*END

*D_NET *12 0.00112368
*CONN
*I *660:B I *D OR3x1_ASAP7_75t_R
*I *526:A1 I *D AO21x1_ASAP7_75t_R
*I *514:B2 I *D AO32x1_ASAP7_75t_R
*I *704:A I *D HAxp5_ASAP7_75t_R
*I *420:Y O *D INVx1_ASAP7_75t_R
*CAP
1 *660:B 0
2 *526:A1 0
3 *514:B2 0
4 *704:A 0
5 *420:Y 8.25845e-06
6 *12:59 1.59466e-05
7 *12:34 7.83898e-05
8 *12:32 7.83898e-05
9 *12:30 6.14593e-05
10 *12:28 6.64722e-05
11 *12:24 3.63508e-05
12 *12:18 4.48384e-05
13 *12:16 1.78202e-05
14 *12:10 4.75158e-05
15 *12:8 6.74012e-05
16 *12:8 *74:40 6.7842e-07
17 *12:10 *18:58 5.127e-07
18 *12:10 *93:10 6.33425e-05
19 *12:10 *94:8 7.75e-06
20 *12:10 *172:128 1.25912e-05
21 *12:10 *188:31 8.8252e-05
22 *12:16 *173:6 9.30483e-06
23 *12:18 *18:58 3.57826e-05
24 *12:18 *172:73 9.14482e-06
25 *12:18 *179:10 0
26 *12:18 *187:8 2.58803e-05
27 *12:18 *188:31 5.49212e-07
28 *12:24 *525:A1 2.20493e-06
29 *12:24 *172:62 1.93758e-05
30 *12:24 *172:73 1.56807e-06
31 *12:24 *179:10 0
32 *12:28 *514:B1 6.7631e-06
33 *12:28 *525:A1 8.2174e-07
34 *12:28 *172:62 0
35 *12:28 *179:10 6.33206e-07
36 *12:28 *186:10 0
37 *12:30 *514:B1 1.31604e-05
38 *12:30 *525:A1 3.73518e-07
39 *12:30 *621:C 3.3563e-06
40 *12:30 *165:10 5.79724e-07
41 *12:30 *165:19 7.17027e-06
42 *12:30 *165:30 2.19685e-06
43 *12:30 *166:45 1.34466e-06
44 *12:30 *172:62 0
45 *12:30 *178:10 2.65972e-05
46 *12:30 *185:10 0
47 *12:30 *195:8 1.43711e-05
48 *12:34 *61:21 9.43179e-06
49 *12:34 *62:6 8.87763e-06
50 *12:34 *62:21 5.21445e-05
51 *12:34 *176:8 6.34696e-06
52 *12:59 *74:29 6.92634e-06
53 *12:59 *74:40 7.33734e-05
54 *12:59 *93:10 4.10928e-06
55 *12:59 *94:8 1.12894e-06
56 *12:59 *299:36 3.29001e-05
57 *12:59 *301:6 5.12901e-05
*RES
1 *420:Y *12:8 38.1438 
2 *12:8 *12:10 55.1903 
3 *12:10 *12:16 37.0741 
4 *12:16 *12:18 17.4581 
5 *12:18 *12:24 39.4149 
6 *12:24 *12:28 22.2685 
7 *12:28 *12:30 51.2481 
8 *12:30 *12:32 17.2 
9 *12:32 *12:34 57.2263 
10 *12:34 *704:A 17.2 
11 *12:28 *514:B2 34.4 
12 *12:18 *526:A1 34.4 
13 *12:8 *12:59 48.4182 
14 *12:59 *660:B 17.2 
*END

*D_NET *13 0.00142514
*CONN
*I *658:A I *D XNOR2x2_ASAP7_75t_R
*I *523:A2 I *D OA21x2_ASAP7_75t_R
*I *522:A1 I *D OA21x2_ASAP7_75t_R
*I *703:A I *D HAxp5_ASAP7_75t_R
*I *660:A I *D OR3x1_ASAP7_75t_R
*I *423:Y O *D INVx1_ASAP7_75t_R
*CAP
1 *658:A 4.80525e-05
2 *523:A2 0
3 *522:A1 3.9114e-06
4 *703:A 0
5 *660:A 1.52457e-06
6 *423:Y 0
7 *13:88 5.41455e-05
8 *13:63 2.69212e-05
9 *13:59 0.000109067
10 *13:57 0.000100399
11 *13:53 3.97944e-05
12 *13:45 6.03793e-05
13 *13:39 4.15616e-05
14 *13:35 6.63527e-06
15 *13:33 4.2466e-05
16 *13:31 4.2466e-05
17 *13:20 6.12239e-05
18 *13:14 9.83653e-05
19 *13:10 9.33657e-05
20 *13:4 6.07927e-05
21 *522:A1 *622:B 2.03526e-06
22 *658:A *304:12 4.03861e-05
23 *660:A *74:29 3.68287e-06
24 *13:10 *535:B 7.34229e-06
25 *13:10 *666:A 1.14627e-05
26 *13:10 *36:31 5.19475e-06
27 *13:10 *37:16 0
28 *13:10 *198:8 1.13631e-05
29 *13:10 *215:22 0
30 *13:10 *215:26 0
31 *13:10 *301:6 1.40419e-08
32 *13:14 *37:20 2.25816e-05
33 *13:14 *37:28 0
34 *13:20 *37:28 0
35 *13:20 *46:18 0
36 *13:33 *523:B 7.30305e-06
37 *13:33 *179:10 6.09588e-06
38 *13:33 *180:8 1.82715e-05
39 *13:33 *180:10 1.51765e-05
40 *13:33 *180:14 8.83215e-05
41 *13:39 *156:137 3.1244e-06
42 *13:39 *156:139 1.88951e-06
43 *13:39 *173:6 2.01215e-05
44 *13:45 *172:83 0
45 *13:45 *177:23 0
46 *13:45 *179:10 1.4151e-05
47 *13:45 *186:10 4.91471e-05
48 *13:53 *177:23 0
49 *13:53 *186:10 8.06436e-06
50 *13:57 *19:98 3.54095e-06
51 *13:57 *176:10 2.96996e-05
52 *13:57 *177:23 4.94291e-06
53 *13:57 *274:8 1.67893e-05
54 *13:59 *19:98 1.10561e-06
55 *13:59 *19:104 8.06799e-07
56 *13:59 *59:10 0
57 *13:59 *176:10 0.000111451
58 *13:59 *184:10 0
59 *13:59 *184:20 1.23111e-05
60 *13:63 *59:8 9.67251e-06
61 *13:88 *18:28 6.94376e-06
62 *13:88 *95:10 0
63 *13:88 *301:12 1.07573e-06
*RES
1 *423:Y *13:4 17.2 
2 *13:4 *13:10 47.0688 
3 *13:10 *13:14 35.9189 
4 *13:14 *13:20 48.1952 
5 *13:20 *660:A 35.4697 
6 *13:14 *13:31 17.2 
7 *13:31 *13:33 46.7428 
8 *13:33 *13:35 17.2 
9 *13:35 *13:39 23.0831 
10 *13:39 *13:45 48.0324 
11 *13:45 *13:53 47.3775 
12 *13:53 *13:57 34.6581 
13 *13:57 *13:59 75.4642 
14 *13:59 *13:63 34.8492 
15 *13:63 *703:A 17.2 
16 *13:57 *522:A1 36.0045 
17 *13:35 *523:A2 17.2 
18 *13:4 *13:88 40.0317 
19 *13:88 *658:A 49.8243 
*END

*D_NET *14 0.000102794
*CONN
*I *702:A I *D HAxp5_ASAP7_75t_R
*I *424:Y O *D INVx1_ASAP7_75t_R
*CAP
1 *702:A 0
2 *424:Y 4.70744e-05
3 *14:6 4.70744e-05
4 *14:6 *424:A 6.5975e-06
5 *14:6 *58:10 2.04733e-06
*RES
1 *424:Y *14:6 43.9412 
2 *14:6 *702:A 17.2 
*END

*D_NET *15 0.000882209
*CONN
*I *701:A I *D HAxp5_ASAP7_75t_R
*I *542:A1 I *D AOI22x1_ASAP7_75t_R
*I *546:A2 I *D OA21x2_ASAP7_75t_R
*I *425:Y O *D INVx1_ASAP7_75t_R
*CAP
1 *701:A 0
2 *542:A1 3.83105e-06
3 *546:A2 0
4 *425:Y 5.28076e-06
5 *15:48 7.91138e-05
6 *15:46 0.000111688
7 *15:31 0.000113458
8 *15:29 7.70532e-05
9 *15:22 1.4271e-05
10 *15:12 3.87655e-05
11 *15:8 2.97753e-05
12 *542:A1 *542:A2 5.51814e-06
13 *542:A1 *16:36 1.67821e-05
14 *542:A1 *203:10 5.37866e-07
15 *15:8 *208:8 4.77454e-07
16 *15:12 *547:B1 5.92989e-06
17 *15:22 *180:46 6.19506e-06
18 *15:31 *542:A2 7.54709e-06
19 *15:31 *16:32 3.65358e-05
20 *15:31 *16:36 3.35714e-05
21 *15:31 *18:136 0
22 *15:31 *18:140 0
23 *15:31 *18:153 3.0607e-05
24 *15:31 *18:196 6.96138e-05
25 *15:31 *19:150 2.43534e-06
26 *15:31 *19:156 8.2174e-07
27 *15:31 *169:12 4.97654e-06
28 *15:31 *169:21 1.34257e-05
29 *15:31 *172:23 5.85806e-06
30 *15:31 *173:23 0
31 *15:31 *204:10 1.12894e-06
32 *15:31 *205:8 1.64164e-06
33 *15:31 *206:8 0
34 *15:31 *207:10 6.98541e-05
35 *15:31 *208:8 1.05282e-06
36 *15:46 *172:6 0
37 *15:48 *56:20 1.31577e-05
38 *15:48 *56:29 5.42398e-05
39 *15:48 *164:34 0
40 *15:48 *202:10 2.7064e-05
41 *15:48 *203:10 0
*RES
1 *425:Y *15:8 37.779 
2 *15:8 *15:12 26.292 
3 *15:12 *15:22 42.1143 
4 *15:22 *546:A2 17.2 
5 *15:12 *15:29 17.2 
6 *15:29 *15:31 90.6697 
7 *15:31 *542:A1 40.0317 
8 *15:31 *15:46 48.8403 
9 *15:46 *15:48 72.0853 
10 *15:48 *701:A 34.4 
*END

*D_NET *16 0.000907233
*CONN
*I *669:A I *D XNOR2x2_ASAP7_75t_R
*I *551:B I *D OR3x1_ASAP7_75t_R
*I *556:A I *D OR3x1_ASAP7_75t_R
*I *700:A I *D HAxp5_ASAP7_75t_R
*I *426:Y O *D INVx1_ASAP7_75t_R
*CAP
1 *669:A 0
2 *551:B 0
3 *556:A 8.21628e-06
4 *700:A 0
5 *426:Y 0
6 *16:59 4.21334e-05
7 *16:57 4.21334e-05
8 *16:36 9.23277e-05
9 *16:34 9.23277e-05
10 *16:32 1.90399e-05
11 *16:24 6.95845e-05
12 *16:20 9.6812e-05
13 *16:18 4.06332e-05
14 *16:14 4.5424e-05
15 *16:8 5.70142e-05
16 *16:4 1.41723e-05
17 *556:A *166:87 6.06859e-06
18 *556:A *166:95 1.02586e-05
19 *556:A *188:63 6.06859e-06
20 *16:14 *426:A 7.52934e-06
21 *16:14 *33:20 3.44497e-06
22 *16:14 *155:18 0
23 *16:14 *166:121 1.15587e-05
24 *16:14 *170:25 0
25 *16:14 *211:33 6.33206e-07
26 *16:20 *19:160 3.36775e-05
27 *16:20 *166:121 2.68731e-05
28 *16:20 *211:33 9.21843e-06
29 *16:24 *557:B 3.68287e-06
30 *16:24 *18:157 1.41227e-05
31 *16:24 *215:45 0
32 *16:32 *166:87 3.56177e-06
33 *16:32 *172:23 2.64666e-05
34 *16:32 *188:63 3.3921e-06
35 *16:32 *206:8 0
36 *16:36 *541:B 0
37 *16:36 *162:16 0
38 *16:36 *163:14 0
39 *16:36 *203:10 0
40 *16:36 *204:10 1.77993e-05
41 *16:36 *220:16 0
42 *16:36 *221:12 0
43 *16:59 *170:25 9.89635e-06
44 *16:59 *306:12 2.35211e-06
45 *542:A1 *16:36 1.67821e-05
46 *7:39 *16:36 3.92018e-06
47 *15:31 *16:32 3.65358e-05
48 *15:31 *16:36 3.35714e-05
*RES
1 *426:Y *16:4 17.2 
2 *16:4 *16:8 22.0134 
3 *16:8 *16:14 49.7503 
4 *16:14 *16:18 18.2696 
5 *16:18 *16:20 38.2953 
6 *16:20 *16:24 40.1975 
7 *16:24 *16:32 49.4638 
8 *16:32 *16:34 17.2 
9 *16:34 *16:36 76.5906 
10 *16:36 *700:A 34.4 
11 *16:32 *556:A 24.1527 
12 *16:14 *551:B 17.2 
13 *16:4 *16:57 17.2 
14 *16:57 *16:59 34.3531 
15 *16:59 *669:A 34.4 
*END

*D_NET *17 8.60071e-05
*CONN
*I *699:A I *D HAxp5_ASAP7_75t_R
*I *427:Y O *D INVx1_ASAP7_75t_R
*CAP
1 *699:A 0
2 *427:Y 5.85692e-06
3 *17:16 2.99984e-05
4 *17:8 3.58553e-05
5 *17:8 *211:10 2.83874e-07
6 *17:16 *38:42 1.34329e-05
7 *17:16 *52:8 5.79724e-07
8 *17:16 *163:6 0
9 *17:16 *211:10 0
*RES
1 *427:Y *17:8 37.779 
2 *17:8 *17:16 49.067 
3 *17:16 *699:A 34.4 
*END

*D_NET *18 0.00381269
*CONN
*I *640:B2 I *D AO22x1_ASAP7_75t_R
*I *643:A1 I *D OA21x2_ASAP7_75t_R
*I *631:A I *D AND3x1_ASAP7_75t_R
*I *650:B I *D OA21x2_ASAP7_75t_R
*I *571:A1 I *D AO21x1_ASAP7_75t_R
*I *576:A I *D AND3x1_ASAP7_75t_R
*I *524:A I *D NAND2x1_ASAP7_75t_R
*I *508:A I *D AND2x2_ASAP7_75t_R
*I *551:A I *D OR3x1_ASAP7_75t_R
*I *503:A I *D NOR2x1_ASAP7_75t_R
*I *534:A1 I *D OA211x2_ASAP7_75t_R
*I *557:A I *D OR3x1_ASAP7_75t_R
*I *545:C I *D OA211x2_ASAP7_75t_R
*I *543:A I *D NOR2x1_ASAP7_75t_R
*I *535:A I *D NAND2x1_ASAP7_75t_R
*I *629:B I *D AO21x1_ASAP7_75t_R
*I *512:A I *D INVx1_ASAP7_75t_R
*I *624:A1 I *D OAI21x1_ASAP7_75t_R
*I *527:A1 I *D OA211x2_ASAP7_75t_R
*I *717:QN O *D DFFHQNx1_ASAP7_75t_R
*CAP
1 *640:B2 0
2 *643:A1 1.0291e-05
3 *631:A 2.41415e-06
4 *650:B 0
5 *571:A1 8.67954e-06
6 *576:A 1.6185e-05
7 *524:A 8.94667e-06
8 *508:A 2.14753e-06
9 *551:A 4.52093e-05
10 *503:A 0
11 *534:A1 0
12 *557:A 0
13 *545:C 5.61602e-06
14 *543:A 0
15 *535:A 3.15456e-06
16 *629:B 0
17 *512:A 1.08449e-05
18 *624:A1 2.97181e-06
19 *527:A1 0
20 *717:QN 2.07531e-05
21 *18:290 3.12312e-05
22 *18:265 9.28454e-06
23 *18:259 2.43526e-05
24 *18:257 1.74822e-05
25 *18:255 7.25438e-05
26 *18:253 7.25438e-05
27 *18:233 2.93934e-05
28 *18:229 0.000130533
29 *18:227 0.000130722
30 *18:225 3.77241e-05
31 *18:196 5.97691e-05
32 *18:192 3.20351e-05
33 *18:172 7.87344e-06
34 *18:166 6.764e-05
35 *18:157 1.68198e-05
36 *18:153 3.34774e-05
37 *18:140 3.18143e-05
38 *18:136 9.11517e-05
39 *18:134 5.22005e-05
40 *18:132 5.49127e-05
41 *18:123 2.02922e-05
42 *18:112 4.15177e-05
43 *18:89 3.07329e-05
44 *18:83 7.00787e-05
45 *18:77 5.31625e-05
46 *18:75 3.13056e-05
47 *18:69 9.64096e-05
48 *18:67 7.24488e-05
49 *18:58 2.25182e-05
50 *18:52 5.16035e-05
51 *18:46 8.42528e-05
52 *18:40 5.07384e-05
53 *18:32 4.38802e-05
54 *18:28 0.000139897
55 *18:26 0.000177662
56 *18:24 6.9421e-05
57 *18:20 1.42407e-05
58 *18:14 5.7062e-05
59 *18:10 0.000106466
60 *508:A *19:130 6.1473e-07
61 *512:A *177:6 0
62 *535:A *19:44 2.20493e-06
63 *545:C *545:B 4.49469e-06
64 *571:A1 *652:A 0
65 *571:A1 *117:16 0
66 *571:A1 *118:28 2.63006e-07
67 *571:A1 *156:64 0
68 *571:A1 *230:89 1.12894e-06
69 *576:A *156:64 4.60953e-05
70 *576:A *230:24 1.21211e-05
71 *624:A1 *274:16 3.83687e-06
72 *624:A1 *274:29 2.34878e-06
73 *624:A1 *275:8 2.34878e-06
74 *631:A *20:12 1.7743e-05
75 *631:A *156:52 6.78917e-06
76 *18:10 *505:A2 2.71921e-06
77 *18:10 *156:195 1.04475e-06
78 *18:14 *69:31 2.29878e-05
79 *18:20 *156:10 5.52807e-07
80 *18:20 *156:101 6.33206e-07
81 *18:20 *290:12 8.33296e-06
82 *18:24 *19:195 9.67251e-06
83 *18:24 *69:31 4.86935e-05
84 *18:24 *156:6 2.20493e-06
85 *18:24 *156:101 3.56648e-06
86 *18:26 *19:201 0
87 *18:26 *188:70 0
88 *18:26 *391:84 0
89 *18:28 *36:10 3.84116e-05
90 *18:28 *36:16 1.20178e-05
91 *18:28 *95:10 0
92 *18:28 *156:113 0
93 *18:28 *156:123 7.35909e-06
94 *18:28 *156:135 4.7643e-07
95 *18:28 *173:23 6.01196e-06
96 *18:28 *188:8 0
97 *18:28 *188:70 0
98 *18:28 *200:8 0
99 *18:28 *304:8 4.41094e-06
100 *18:28 *351:8 9.81516e-06
101 *18:32 *173:23 4.83654e-06
102 *18:40 *156:135 3.21173e-06
103 *18:40 *200:8 1.19921e-06
104 *18:46 *19:54 1.76362e-05
105 *18:46 *19:58 4.97714e-06
106 *18:46 *19:130 7.68196e-05
107 *18:46 *94:8 4.20917e-06
108 *18:46 *156:137 3.38269e-05
109 *18:46 *173:6 1.35684e-06
110 *18:52 *93:8 2.03526e-06
111 *18:58 *523:B 8.71118e-06
112 *18:58 *93:10 7.72763e-06
113 *18:58 *179:10 0
114 *18:67 *93:10 2.26774e-05
115 *18:67 *180:14 3.18377e-06
116 *18:75 *46:18 1.04418e-06
117 *18:75 *46:33 5.71014e-05
118 *18:75 *50:10 0
119 *18:75 *172:91 2.26397e-06
120 *18:75 *174:10 2.25481e-06
121 *18:75 *279:10 1.32095e-05
122 *18:83 *50:10 1.95851e-06
123 *18:83 *156:145 5.63702e-07
124 *18:83 *177:6 0
125 *18:112 *19:50 1.7372e-05
126 *18:112 *19:54 0.000106212
127 *18:112 *94:8 2.11406e-05
128 *18:112 *198:8 1.57955e-05
129 *18:134 *543:B 1.71432e-05
130 *18:134 *552:A2 4.41094e-06
131 *18:134 *19:142 1.77327e-06
132 *18:134 *19:150 2.04615e-05
133 *18:134 *19:156 2.35211e-06
134 *18:134 *173:23 3.64849e-06
135 *18:136 *19:156 4.10928e-06
136 *18:140 *172:42 0
137 *18:153 *204:10 1.29228e-05
138 *18:153 *207:8 9.6678e-06
139 *18:157 *215:45 2.55358e-05
140 *18:166 *172:44 8.4204e-05
141 *18:172 *196:14 8.45637e-06
142 *18:192 *19:130 2.03526e-06
143 *18:192 *19:138 1.36252e-05
144 *18:192 *173:23 1.22511e-06
145 *18:196 *19:142 5.13692e-05
146 *18:196 *19:150 1.64764e-06
147 *18:196 *205:8 2.58173e-06
148 *18:225 *19:201 0
149 *18:225 *188:70 0
150 *18:229 *117:12 4.24286e-05
151 *18:229 *117:210 6.84893e-06
152 *18:229 *156:64 2.98641e-05
153 *18:233 *230:89 1.09842e-06
154 *18:255 *188:70 0
155 *18:255 *281:8 0
156 *18:259 *20:12 0.000124017
157 *18:259 *156:52 5.39412e-05
158 *18:265 *20:46 5.37569e-06
159 *18:265 *364:31 0
160 *18:290 *640:A2 3.05302e-06
161 *18:290 *19:214 3.55835e-05
162 *18:290 *69:29 1.09067e-06
163 *18:290 *287:10 0
164 *12:10 *18:58 5.127e-07
165 *12:18 *18:58 3.57826e-05
166 *13:88 *18:28 6.94376e-06
167 *15:31 *18:136 0
168 *15:31 *18:140 0
169 *15:31 *18:153 3.0607e-05
170 *15:31 *18:196 6.96138e-05
171 *16:24 *18:157 1.41227e-05
*RES
1 *717:QN *18:10 48.4225 
2 *18:10 *18:14 42.3368 
3 *18:14 *18:20 37.2158 
4 *18:20 *18:24 31.6403 
5 *18:24 *18:26 23.653 
6 *18:26 *18:28 113.76 
7 *18:28 *18:32 21.7053 
8 *18:32 *18:40 48.1107 
9 *18:40 *18:46 45.9425 
10 *18:46 *18:52 44.5617 
11 *18:52 *18:58 36.8541 
12 *18:58 *527:A1 17.2 
13 *18:52 *18:67 25.0843 
14 *18:67 *18:69 38.5074 
15 *18:69 *18:75 45.3016 
16 *18:75 *18:77 17.2 
17 *18:77 *18:83 39.638 
18 *18:83 *18:89 48.8403 
19 *18:89 *624:A1 38.3422 
20 *18:77 *512:A 22.0134 
21 *18:69 *629:B 17.2 
22 *18:46 *18:112 48.9954 
23 *18:112 *535:A 36.0045 
24 *18:32 *18:123 4.81343 
25 *18:123 *543:A 17.2 
26 *18:123 *18:132 19.8741 
27 *18:132 *18:134 31.5373 
28 *18:134 *18:136 17.4581 
29 *18:136 *18:140 22.8317 
30 *18:140 *545:C 21.4786 
31 *18:140 *18:153 35.3594 
32 *18:153 *18:157 33.7796 
33 *18:157 *557:A 17.2 
34 *18:136 *18:166 48.7547 
35 *18:166 *18:172 40.0317 
36 *18:172 *534:A1 17.2 
37 *18:134 *503:A 34.4 
38 *18:132 *18:192 45.9147 
39 *18:192 *18:196 40.853 
40 *18:196 *551:A 39.1278 
41 *18:28 *508:A 35.4697 
42 *18:26 *524:A 39.2134 
43 *18:24 *18:225 34.6581 
44 *18:225 *18:227 2.67412 
45 *18:227 *18:229 88.2461 
46 *18:229 *18:233 20.0158 
47 *18:233 *576:A 49.9099 
48 *18:233 *571:A1 40.0317 
49 *18:227 *18:253 17.2 
50 *18:253 *18:255 53.5008 
51 *18:255 *18:257 17.2 
52 *18:257 *18:259 37.9726 
53 *18:259 *18:265 41.158 
54 *18:265 *650:B 17.2 
55 *18:257 *631:A 22.5483 
56 *18:225 *643:A1 23.6179 
57 *18:10 *18:290 43.3287 
58 *18:290 *640:B2 17.2 
*END

*D_NET *19 0.00322944
*CONN
*I *640:A1 I *D AO22x1_ASAP7_75t_R
*I *490:A I *D INVx1_ASAP7_75t_R
*I *536:B I *D AO21x1_ASAP7_75t_R
*I *547:A1 I *D OA31x2_ASAP7_75t_R
*I *552:A1 I *D AOI221x1_ASAP7_75t_R
*I *503:B I *D NOR2x1_ASAP7_75t_R
*I *557:B I *D OR3x1_ASAP7_75t_R
*I *521:A I *D OR3x1_ASAP7_75t_R
*I *513:B I *D AO21x1_ASAP7_75t_R
*I *619:A I *D AND3x1_ASAP7_75t_R
*I *628:B I *D OR3x1_ASAP7_75t_R
*I *632:A1 I *D AO21x1_ASAP7_75t_R
*I *443:B I *D AND3x1_ASAP7_75t_R
*I *721:QN O *D DFFHQNx1_ASAP7_75t_R
*CAP
1 *640:A1 0
2 *490:A 0
3 *536:B 1.68968e-06
4 *547:A1 0
5 *552:A1 0
6 *503:B 0
7 *557:B 1.24753e-06
8 *521:A 2.04666e-06
9 *513:B 0
10 *619:A 0
11 *628:B 2.26675e-06
12 *632:A1 0
13 *443:B 3.87773e-05
14 *721:QN 0
15 *19:214 1.07024e-05
16 *19:208 7.92343e-05
17 *19:201 7.50219e-05
18 *19:195 7.16382e-05
19 *19:160 2.87599e-05
20 *19:156 8.45432e-05
21 *19:150 7.76232e-05
22 *19:144 2.05924e-05
23 *19:142 1.27489e-05
24 *19:138 2.54348e-05
25 *19:130 4.28541e-05
26 *19:128 3.01682e-05
27 *19:112 6.29404e-06
28 *19:104 3.99071e-05
29 *19:98 9.58853e-05
30 *19:96 6.02257e-05
31 *19:89 1.47584e-05
32 *19:81 7.50178e-05
33 *19:79 8.25243e-05
34 *19:66 6.88711e-05
35 *19:60 0.000115569
36 *19:58 7.81929e-05
37 *19:54 4.48489e-05
38 *19:52 3.78852e-05
39 *19:50 1.94771e-05
40 *19:44 2.10618e-05
41 *19:38 9.19428e-05
42 *19:36 8.86685e-05
43 *19:34 7.57708e-05
44 *19:32 4.30535e-05
45 *19:28 6.17332e-05
46 *19:19 5.1456e-05
47 *19:10 9.02334e-05
48 *19:8 3.76269e-05
49 *19:4 6.69291e-05
50 *443:B *443:C 6.86929e-06
51 *536:B *536:A2 5.62196e-06
52 *19:8 *118:255 0
53 *19:8 *180:8 3.7685e-05
54 *19:8 *364:31 0
55 *19:8 *364:42 9.97906e-07
56 *19:19 *282:6 4.07209e-05
57 *19:32 *117:10 3.05199e-05
58 *19:32 *117:214 0
59 *19:32 *118:238 2.52593e-06
60 *19:32 *391:127 0
61 *19:34 *69:31 3.16328e-06
62 *19:38 *94:8 2.43179e-05
63 *19:38 *118:238 0
64 *19:38 *215:26 0
65 *19:38 *364:44 0
66 *19:38 *364:48 0
67 *19:38 *391:12 0
68 *19:38 *391:18 2.14047e-05
69 *19:38 *391:33 0
70 *19:38 *391:127 0
71 *19:44 *301:6 3.56648e-06
72 *19:50 *536:A1 7.63254e-07
73 *19:50 *536:A2 3.90258e-06
74 *19:50 *94:8 4.90164e-05
75 *19:54 *35:39 0
76 *19:54 *180:42 1.93482e-06
77 *19:54 *180:63 0
78 *19:54 *215:10 0
79 *19:58 *94:8 4.90042e-07
80 *19:58 *215:10 0
81 *19:60 *156:137 6.96712e-05
82 *19:60 *156:139 7.34846e-05
83 *19:66 *628:A 5.27966e-06
84 *19:66 *50:10 7.75944e-06
85 *19:66 *156:139 7.3315e-05
86 *19:66 *172:91 1.95615e-05
87 *19:79 *628:A 4.58425e-06
88 *19:79 *46:18 0
89 *19:79 *156:158 0
90 *19:79 *172:91 8.06923e-06
91 *19:79 *174:10 2.63456e-06
92 *19:79 *277:10 0
93 *19:79 *279:10 9.86088e-07
94 *19:79 *280:8 0
95 *19:81 *26:12 1.98585e-05
96 *19:89 *229:28 0
97 *19:89 *271:8 3.68287e-06
98 *19:89 *271:14 0
99 *19:98 *76:18 2.68933e-07
100 *19:98 *177:23 0
101 *19:98 *274:8 2.77657e-06
102 *19:104 *521:B 3.50727e-05
103 *19:104 *172:46 7.14604e-06
104 *19:104 *184:20 3.6269e-06
105 *19:112 *533:A 0
106 *19:112 *172:46 3.68287e-06
107 *19:130 *156:127 8.13414e-06
108 *19:130 *156:135 3.89037e-06
109 *19:130 *156:137 1.26391e-06
110 *19:130 *173:6 9.50085e-05
111 *19:138 *173:23 0
112 *19:138 *205:8 5.87576e-06
113 *19:142 *543:B 2.14084e-06
114 *19:142 *552:A2 7.90851e-06
115 *19:142 *205:8 9.48786e-06
116 *19:150 *552:A2 6.7842e-07
117 *19:150 *552:B1 1.07377e-06
118 *19:150 *169:12 1.64764e-06
119 *19:150 *169:21 1.64764e-06
120 *19:156 *178:22 3.58867e-05
121 *19:160 *166:106 0
122 *19:195 *69:31 2.40873e-05
123 *19:201 *188:70 1.82788e-05
124 *19:208 *69:31 4.96454e-05
125 *508:A *19:130 6.1473e-07
126 *535:A *19:44 2.20493e-06
127 *13:57 *19:98 3.54095e-06
128 *13:59 *19:98 1.10561e-06
129 *13:59 *19:104 8.06799e-07
130 *15:31 *19:150 2.43534e-06
131 *15:31 *19:156 8.2174e-07
132 *16:20 *19:160 3.36775e-05
133 *16:24 *557:B 3.68287e-06
134 *18:24 *19:195 9.67251e-06
135 *18:26 *19:201 0
136 *18:46 *19:54 1.76362e-05
137 *18:46 *19:58 4.97714e-06
138 *18:46 *19:130 7.68196e-05
139 *18:112 *19:50 1.7372e-05
140 *18:112 *19:54 0.000106212
141 *18:134 *19:142 1.77327e-06
142 *18:134 *19:150 2.04615e-05
143 *18:134 *19:156 2.35211e-06
144 *18:136 *19:156 4.10928e-06
145 *18:192 *19:130 2.03526e-06
146 *18:192 *19:138 1.36252e-05
147 *18:196 *19:142 5.13692e-05
148 *18:196 *19:150 1.64764e-06
149 *18:225 *19:201 0
150 *18:290 *19:214 3.55835e-05
*RES
1 *721:QN *19:4 17.2 
2 *19:4 *19:8 48.1741 
3 *19:8 *19:10 17.2 
4 *19:10 *443:B 41.8019 
5 *19:10 *19:19 43.8557 
6 *19:19 *632:A1 17.2 
7 *19:4 *19:28 27.3617 
8 *19:28 *19:32 48.7373 
9 *19:32 *19:34 4.81343 
10 *19:34 *19:36 17.2 
11 *19:36 *19:38 74.3379 
12 *19:38 *19:44 37.0741 
13 *19:44 *19:50 37.2756 
14 *19:50 *19:52 17.2 
15 *19:52 *19:54 41.6743 
16 *19:54 *19:58 22.2685 
17 *19:58 *19:60 36.9029 
18 *19:60 *19:66 46.0559 
19 *19:66 *628:B 35.4697 
20 *19:66 *19:79 35.7845 
21 *19:79 *19:81 39.0422 
22 *19:81 *19:89 43.354 
23 *19:89 *619:A 17.2 
24 *19:60 *19:96 17.2 
25 *19:96 *19:98 46.7428 
26 *19:98 *19:104 36.7088 
27 *19:104 *19:112 38.2855 
28 *19:112 *513:B 17.2 
29 *19:98 *521:A 35.4697 
30 *19:54 *19:128 17.2 
31 *19:128 *19:130 33.694 
32 *19:130 *19:138 43.2123 
33 *19:138 *19:142 34.6581 
34 *19:142 *19:144 17.2 
35 *19:144 *19:150 36.2059 
36 *19:150 *19:156 45.7725 
37 *19:156 *19:160 44.232 
38 *19:160 *557:B 35.4697 
39 *19:150 *503:B 34.4 
40 *19:144 *552:A1 17.2 
41 *19:130 *547:A1 17.2 
42 *19:50 *536:B 18.8045 
43 *19:34 *19:195 33.694 
44 *19:195 *19:201 40.5948 
45 *19:201 *490:A 17.2 
46 *19:201 *19:208 33.694 
47 *19:208 *19:214 46.2265 
48 *19:214 *640:A1 17.2 
*END

*D_NET *20 0.000506978
*CONN
*I *650:A2 I *D OA21x2_ASAP7_75t_R
*I *417:A I *D INVx1_ASAP7_75t_R
*I *443:C I *D AND3x1_ASAP7_75t_R
*I *720:QN O *D DFFHQNx1_ASAP7_75t_R
*CAP
1 *650:A2 0
2 *417:A 1.03689e-05
3 *443:C 1.98447e-05
4 *720:QN 5.25453e-06
5 *20:46 8.3734e-06
6 *20:16 6.61552e-05
7 *20:12 0.000126467
8 *20:10 8.21519e-05
9 *20:8 5.25453e-06
10 *417:A *347:14 3.31686e-06
11 *417:A *364:27 3.56648e-06
12 *443:C *229:8 0
13 *443:C *345:10 0
14 *443:C *347:14 2.05883e-06
15 *20:8 *418:A 0
16 *20:12 *156:50 1.56713e-06
17 *20:12 *156:52 3.13426e-06
18 *20:16 *156:52 1.5207e-05
19 *20:46 *364:79 2.52755e-07
20 *443:B *443:C 6.86929e-06
21 *631:A *20:12 1.7743e-05
22 *18:259 *20:12 0.000124017
23 *18:265 *20:46 5.37569e-06
*RES
1 *720:QN *20:8 37.779 
2 *20:8 *20:10 17.2 
3 *20:10 *20:12 47.5994 
4 *20:12 *20:16 34.8492 
5 *20:16 *443:C 49.3504 
6 *20:16 *417:A 40.4531 
7 *20:12 *20:46 39.975 
8 *20:46 *650:A2 17.2 
*END

*D_NET *21 0.000401034
*CONN
*I *673:A I *D XOR2x2_ASAP7_75t_R
*I *648:A I *D NAND2x1_ASAP7_75t_R
*I *719:QN O *D DFFHQNx1_ASAP7_75t_R
*CAP
1 *673:A 3.52635e-06
2 *648:A 0
3 *719:QN 8.54491e-06
4 *21:21 9.30197e-05
5 *21:14 4.27216e-05
6 *21:8 0.00014076
7 *21:8 *270:18 0
8 *21:14 *625:B 1.49407e-08
9 *21:14 *649:B 5.38096e-06
10 *21:14 *229:34 2.8275e-05
11 *21:14 *229:42 3.24655e-06
12 *21:21 *22:10 2.1698e-05
13 *21:21 *118:157 5.38457e-05
14 *21:21 *270:10 0
15 *21:21 *291:8 0
*RES
1 *719:QN *21:8 38.1438 
2 *21:8 *21:14 44.168 
3 *21:14 *648:A 17.2 
4 *21:8 *21:21 81.0959 
5 *21:21 *673:A 36.0045 
*END

*D_NET *22 0.000103072
*CONN
*I *645:A I *D INVx1_ASAP7_75t_R
*I *673:B I *D XOR2x2_ASAP7_75t_R
*I *718:QN O *D DFFHQNx1_ASAP7_75t_R
*CAP
1 *645:A 4.73225e-06
2 *673:B 0
3 *718:QN 0
4 *22:10 2.42903e-05
5 *22:4 2.90225e-05
6 *645:A *390:12 7.31751e-06
7 *22:10 *390:12 1.60115e-05
8 *21:21 *22:10 2.1698e-05
*RES
1 *718:QN *22:4 17.2 
2 *22:4 *22:10 38.3452 
3 *22:10 *673:B 34.4 
4 *22:4 *645:A 19.8741 
*END

*D_NET *23 0.000348418
*CONN
*I *636:A I *D INVx1_ASAP7_75t_R
*I *638:C I *D AND3x1_ASAP7_75t_R
*I *642:A I *D OR4x1_ASAP7_75t_R
*I *716:QN O *D DFFHQNx1_ASAP7_75t_R
*CAP
1 *636:A 0
2 *638:C 0
3 *642:A 1.78592e-05
4 *716:QN 7.90716e-06
5 *23:27 1.05198e-05
6 *23:14 3.89191e-05
7 *23:12 0.000114268
8 *23:10 0.000103727
9 *23:8 7.90716e-06
10 *642:A *642:B 2.30043e-05
11 *642:A *81:25 1.65766e-05
12 *23:14 *81:25 7.00659e-06
13 *23:27 *639:A1 2.31409e-07
14 *23:27 *188:185 4.9137e-07
*RES
1 *716:QN *23:8 40.0317 
2 *23:8 *23:10 17.2 
3 *23:10 *23:12 55.087 
4 *23:12 *23:14 6.95272 
5 *23:14 *642:A 30.5706 
6 *23:14 *23:27 41.158 
7 *23:27 *638:C 17.2 
8 *23:12 *636:A 17.2 
*END

*D_NET *24 0.00050265
*CONN
*I *634:A2 I *D OAI22x1_ASAP7_75t_R
*I *428:A I *D INVx1_ASAP7_75t_R
*I *642:B I *D OR4x1_ASAP7_75t_R
*I *715:QN O *D DFFHQNx1_ASAP7_75t_R
*CAP
1 *634:A2 0
2 *428:A 0
3 *642:B 1.19225e-05
4 *715:QN 6.54619e-06
5 *24:33 2.82029e-05
6 *24:18 4.22752e-05
7 *24:16 8.61313e-05
8 *24:12 9.29291e-05
9 *24:10 6.53534e-05
10 *24:8 6.54619e-06
11 *24:12 *635:B 3.65663e-06
12 *24:12 *109:10 1.55843e-05
13 *24:16 *634:B1 2.6401e-05
14 *24:18 *81:10 4.07149e-05
15 *24:18 *188:185 2.21687e-05
16 *24:18 *328:10 6.33206e-07
17 *24:33 *328:10 4.74248e-06
18 *24:33 *391:168 2.5838e-05
19 *642:A *642:B 2.30043e-05
*RES
1 *715:QN *24:8 38.9053 
2 *24:8 *24:10 17.2 
3 *24:10 *24:12 41.1815 
4 *24:12 *24:16 35.9189 
5 *24:16 *24:18 35.4795 
6 *24:18 *642:B 41.8876 
7 *24:16 *24:33 34.2897 
8 *24:33 *428:A 17.2 
9 *24:12 *634:A2 17.2 
*END

*D_NET *25 0.000274798
*CONN
*I *418:A I *D INVx1_ASAP7_75t_R
*I *631:C I *D AND3x1_ASAP7_75t_R
*I *642:C I *D OR4x1_ASAP7_75t_R
*I *714:QN O *D DFFHQNx1_ASAP7_75t_R
*CAP
1 *418:A 1.197e-05
2 *631:C 7.50278e-06
3 *642:C 0
4 *714:QN 0
5 *25:19 3.7623e-05
6 *25:12 3.73548e-05
7 *25:6 5.5505e-05
8 *418:A *327:8 5.49212e-07
9 *418:A *327:14 1.67815e-06
10 *418:A *391:168 2.66797e-07
11 *631:C *156:50 1.75355e-05
12 *25:12 *642:D 4.82783e-06
13 *25:12 *156:29 3.43688e-05
14 *25:12 *188:82 2.47522e-06
15 *25:19 *156:29 4.20278e-05
16 *25:19 *156:50 1.66587e-05
17 *25:19 *327:14 4.45472e-06
18 *20:8 *418:A 0
*RES
1 *714:QN *25:6 34.4 
2 *25:6 *25:12 38.1185 
3 *25:12 *642:C 17.2 
4 *25:6 *25:19 20.8371 
5 *25:19 *631:C 40.8179 
6 *25:19 *418:A 41.6361 
*END

*D_NET *26 0.000867735
*CONN
*I *695:A I *D XNOR2x2_ASAP7_75t_R
*I *613:B2 I *D OAI22x1_ASAP7_75t_R
*I *623:A2 I *D OA21x2_ASAP7_75t_R
*I *414:QN O *D DFFHQNx1_ASAP7_75t_R
*CAP
1 *695:A 0
2 *613:B2 0
3 *623:A2 0
4 *414:QN 4.31003e-06
5 *26:46 3.46076e-05
6 *26:33 4.14356e-05
7 *26:31 2.59874e-05
8 *26:25 7.30628e-05
9 *26:18 8.96144e-06
10 *26:12 0.000221341
11 *26:10 0.000212379
12 *26:8 5.82134e-05
13 *26:8 *117:44 2.22736e-06
14 *26:18 *73:65 2.36328e-05
15 *26:18 *363:10 1.77924e-06
16 *26:25 *117:42 3.3563e-06
17 *26:25 *117:44 2.32195e-05
18 *26:25 *349:18 0
19 *26:31 *27:6 5.25278e-06
20 *26:33 *27:10 3.32579e-06
21 *26:33 *261:20 1.6136e-06
22 *26:33 *266:10 0
23 *26:33 *390:20 5.97901e-06
24 *26:46 *27:10 1.64764e-06
25 *26:46 *27:23 7.75e-06
26 *26:46 *27:27 2.69203e-06
27 *26:46 *28:35 3.00916e-05
28 *26:46 *117:32 0
29 *26:46 *188:141 0
30 *26:46 *230:34 8.29921e-06
31 *26:46 *324:12 6.33206e-07
32 *26:46 *390:20 3.79923e-06
33 *11:35 *26:18 4.22795e-05
34 *19:81 *26:12 1.98585e-05
*RES
1 *414:QN *26:8 37.779 
2 *26:8 *26:10 17.2 
3 *26:10 *26:12 98.9426 
4 *26:12 *26:18 48.4791 
5 *26:18 *623:A2 17.2 
6 *26:8 *26:25 45.0533 
7 *26:25 *26:31 45.6313 
8 *26:31 *26:33 7.88432 
9 *26:33 *613:B2 34.4 
10 *26:33 *26:46 48.0891 
11 *26:46 *695:A 17.2 
*END

*D_NET *27 0.000912533
*CONN
*I *607:B2 I *D OAI22x1_ASAP7_75t_R
*I *692:A I *D XOR2x2_ASAP7_75t_R
*I *693:A I *D AND2x2_ASAP7_75t_R
*I *613:A1 I *D OAI22x1_ASAP7_75t_R
*I *413:QN O *D DFFHQNx1_ASAP7_75t_R
*CAP
1 *607:B2 0
2 *692:A 0
3 *693:A 0
4 *613:A1 0
5 *413:QN 5.3632e-05
6 *27:46 2.0111e-05
7 *27:42 0.000107099
8 *27:40 9.65601e-05
9 *27:31 1.1679e-05
10 *27:27 1.96398e-05
11 *27:25 1.75334e-05
12 *27:23 2.54743e-05
13 *27:10 3.10895e-05
14 *27:6 5.92472e-05
15 *27:10 *117:42 1.07573e-06
16 *27:10 *266:10 1.12894e-06
17 *27:23 *607:A1 5.17782e-06
18 *27:23 *117:42 5.37866e-07
19 *27:23 *188:156 1.90741e-05
20 *27:27 *28:35 9.52295e-05
21 *27:27 *230:28 9.20037e-05
22 *27:27 *230:34 1.22048e-05
23 *27:31 *693:B 1.35684e-06
24 *27:40 *693:B 1.35684e-06
25 *27:40 *694:A2 6.7842e-07
26 *27:42 *588:A2 1.61443e-05
27 *27:42 *28:10 0
28 *27:42 *28:33 8.11281e-06
29 *27:42 *29:38 0
30 *27:42 *31:64 5.00394e-06
31 *27:42 *117:32 4.22193e-05
32 *27:42 *117:160 2.63526e-06
33 *27:42 *117:166 3.01489e-05
34 *27:42 *188:98 3.19091e-05
35 *27:42 *245:8 2.95651e-05
36 *27:42 *310:47 1.12894e-06
37 *27:42 *320:8 0
38 *27:42 *324:12 1.50458e-05
39 *27:42 *390:85 0
40 *27:46 *689:B 2.66207e-05
41 *27:46 *315:27 8.82914e-06
42 *27:46 *359:8 2.61188e-06
43 *26:31 *27:6 5.25278e-06
44 *26:33 *27:10 3.32579e-06
45 *26:46 *27:10 1.64764e-06
46 *26:46 *27:23 7.75e-06
47 *26:46 *27:27 2.69203e-06
*RES
1 *413:QN *27:6 40.1975 
2 *27:6 *27:10 22.8317 
3 *27:10 *613:A1 34.4 
4 *27:10 *27:23 39.4149 
5 *27:23 *27:25 17.2 
6 *27:25 *27:27 34.3531 
7 *27:27 *27:31 18.2696 
8 *27:31 *693:A 17.2 
9 *27:31 *27:40 22.5483 
10 *27:40 *27:42 86.1644 
11 *27:42 *27:46 35.384 
12 *27:46 *692:A 17.2 
13 *27:23 *607:B2 17.2 
*END

*D_NET *28 0.000788075
*CONN
*I *689:A I *D XNOR2x2_ASAP7_75t_R
*I *690:A I *D AND4x1_ASAP7_75t_R
*I *693:B I *D AND2x2_ASAP7_75t_R
*I *607:A1 I *D OAI22x1_ASAP7_75t_R
*I *601:B2 I *D OAI22x1_ASAP7_75t_R
*I *412:QN O *D DFFHQNx1_ASAP7_75t_R
*CAP
1 *689:A 1.42631e-05
2 *690:A 2.52259e-06
3 *693:B 8.7183e-06
4 *607:A1 5.23565e-06
5 *601:B2 0
6 *412:QN 3.01601e-05
7 *28:35 3.13806e-05
8 *28:33 8.31225e-05
9 *28:31 5.87042e-05
10 *28:20 5.41769e-05
11 *28:14 8.83052e-05
12 *28:10 3.51518e-05
13 *28:6 5.3369e-05
14 *28:10 *29:38 3.6269e-06
15 *28:14 *29:38 1.73636e-05
16 *28:14 *31:64 0
17 *28:20 *29:12 0
18 *28:20 *29:34 0
19 *28:31 *29:34 0
20 *28:31 *29:49 0
21 *28:33 *588:A1 3.65685e-05
22 *28:33 *588:B1 1.69111e-06
23 *28:33 *30:20 2.94942e-05
24 *28:33 *31:64 8.06495e-06
25 *28:33 *117:166 9.78415e-06
26 *28:33 *188:98 3.80699e-06
27 *28:33 *188:106 0
28 *28:33 *230:28 3.61889e-05
29 *28:33 *230:48 1.37466e-05
30 *28:33 *324:12 1.12894e-06
31 *28:35 *230:28 2.83449e-06
32 *28:35 *324:12 3.90551e-06
33 *28:35 *336:76 1.3435e-05
34 *26:46 *28:35 3.00916e-05
35 *27:23 *607:A1 5.17782e-06
36 *27:27 *28:35 9.52295e-05
37 *27:31 *693:B 1.35684e-06
38 *27:40 *693:B 1.35684e-06
39 *27:42 *28:10 0
40 *27:42 *28:33 8.11281e-06
*RES
1 *412:QN *28:6 31.6403 
2 *28:6 *28:10 23.958 
3 *28:10 *28:14 36.9108 
4 *28:14 *28:20 43.6898 
5 *28:20 *601:B2 34.4 
6 *28:14 *28:31 22.0134 
7 *28:31 *28:33 56.3166 
8 *28:33 *28:35 34.3531 
9 *28:35 *607:A1 38.1438 
10 *28:33 *693:B 38.6786 
11 *28:10 *690:A 35.4697 
12 *28:6 *689:A 24.1527 
*END

*D_NET *29 0.000751614
*CONN
*I *684:B I *D OAI21x1_ASAP7_75t_R
*I *685:A I *D OR3x1_ASAP7_75t_R
*I *687:A I *D AND4x1_ASAP7_75t_R
*I *690:B I *D AND4x1_ASAP7_75t_R
*I *601:A1 I *D OAI22x1_ASAP7_75t_R
*I *595:B2 I *D OAI22x1_ASAP7_75t_R
*I *411:QN O *D DFFHQNx1_ASAP7_75t_R
*CAP
1 *684:B 0
2 *685:A 0
3 *687:A 0
4 *690:B 0
5 *601:A1 0
6 *595:B2 1.40189e-05
7 *411:QN 3.01601e-05
8 *29:81 1.42413e-05
9 *29:66 5.09135e-05
10 *29:55 1.95462e-05
11 *29:49 0.000116729
12 *29:38 1.6633e-05
13 *29:34 0.000110428
14 *29:12 2.89021e-05
15 *29:10 6.76815e-05
16 *29:8 4.96738e-05
17 *595:B2 *601:B1 1.94357e-06
18 *595:B2 *230:52 1.46238e-06
19 *595:B2 *251:8 0
20 *29:38 *31:64 7.2313e-06
21 *29:55 *30:14 3.79966e-05
22 *29:55 *30:20 8.53214e-06
23 *29:55 *31:47 2.92605e-05
24 *29:55 *31:51 1.49313e-05
25 *29:55 *319:23 5.55315e-06
26 *29:66 *310:37 7.74713e-05
27 *29:66 *310:41 4.84588e-06
28 *29:66 *319:23 1.12894e-06
29 *29:81 *310:37 1.73158e-06
30 *29:81 *310:72 3.08023e-06
31 *29:81 *315:23 1.6528e-05
32 *27:42 *29:38 0
33 *28:10 *29:38 3.6269e-06
34 *28:14 *29:38 1.73636e-05
35 *28:20 *29:12 0
36 *28:20 *29:34 0
37 *28:31 *29:34 0
38 *28:31 *29:49 0
*RES
1 *411:QN *29:8 48.8403 
2 *29:8 *29:10 11.8265 
3 *29:10 *29:12 11.2633 
4 *29:12 *595:B2 44.9585 
5 *29:12 *601:A1 34.4 
6 *29:10 *29:34 31.6403 
7 *29:34 *29:38 33.5318 
8 *29:38 *690:B 34.4 
9 *29:34 *29:49 41.2671 
10 *29:49 *29:55 38.5683 
11 *29:55 *687:A 17.2 
12 *29:49 *29:66 48.6166 
13 *29:66 *685:A 17.2 
14 *29:66 *29:81 44.8451 
15 *29:81 *684:B 17.2 
*END

*D_NET *30 0.000912509
*CONN
*I *681:A I *D XOR2x2_ASAP7_75t_R
*I *690:C I *D AND4x1_ASAP7_75t_R
*I *683:A I *D AND3x1_ASAP7_75t_R
*I *687:B I *D AND4x1_ASAP7_75t_R
*I *595:A1 I *D OAI22x1_ASAP7_75t_R
*I *588:B2 I *D OAI22x1_ASAP7_75t_R
*I *410:QN O *D DFFHQNx1_ASAP7_75t_R
*CAP
1 *681:A 4.62559e-05
2 *690:C 0
3 *683:A 2.22261e-06
4 *687:B 0
5 *595:A1 2.11595e-06
6 *588:B2 3.00457e-06
7 *410:QN 2.17036e-05
8 *30:79 6.08982e-05
9 *30:70 8.67432e-05
10 *30:68 8.67432e-05
11 *30:66 3.07449e-05
12 *30:55 2.97908e-05
13 *30:39 3.25157e-05
14 *30:20 6.69656e-05
15 *30:14 5.33166e-05
16 *30:10 5.29246e-05
17 *588:B2 *588:B1 1.95129e-06
18 *595:A1 *230:52 2.8275e-06
19 *681:A *315:27 1.07377e-06
20 *681:A *357:8 7.63254e-07
21 *681:A *358:8 3.81627e-06
22 *30:10 *315:10 7.49203e-06
23 *30:14 *31:47 3.5541e-05
24 *30:14 *313:12 0.00010605
25 *30:20 *601:A2 0
26 *30:20 *31:51 1.48466e-05
27 *30:39 *230:56 0
28 *30:55 *315:10 1.2262e-05
29 *30:66 *315:10 6.33206e-07
30 *30:66 *315:23 1.51539e-05
31 *30:70 *691:A2 2.11853e-06
32 *30:70 *310:47 4.43637e-05
33 *30:70 *322:10 0
34 *30:79 *315:23 1.1648e-05
35 *30:79 *317:10 0
36 *28:33 *30:20 2.94942e-05
37 *29:55 *30:14 3.79966e-05
38 *29:55 *30:20 8.53214e-06
*RES
1 *410:QN *30:10 45.9714 
2 *30:10 *30:14 47.1502 
3 *30:14 *30:20 41.2424 
4 *30:20 *588:B2 36.0045 
5 *30:20 *30:39 43.2817 
6 *30:39 *595:A1 36.0045 
7 *30:14 *687:B 17.2 
8 *30:10 *30:55 10.137 
9 *30:55 *683:A 35.4697 
10 *30:55 *30:66 12.9528 
11 *30:66 *30:68 17.2 
12 *30:68 *30:70 42.786 
13 *30:70 *690:C 17.2 
14 *30:66 *30:79 29.5897 
15 *30:79 *681:A 44.4761 
*END

*D_NET *31 0.00115633
*CONN
*I *577:A1 I *D AO21x1_ASAP7_75t_R
*I *678:A I *D XNOR2x2_ASAP7_75t_R
*I *680:A1 I *D AO21x1_ASAP7_75t_R
*I *687:C I *D AND4x1_ASAP7_75t_R
*I *690:D I *D AND4x1_ASAP7_75t_R
*I *588:A1 I *D OAI22x1_ASAP7_75t_R
*I *683:B I *D AND3x1_ASAP7_75t_R
*I *409:QN O *D DFFHQNx1_ASAP7_75t_R
*CAP
1 *577:A1 0
2 *678:A 0
3 *680:A1 1.27875e-05
4 *687:C 0
5 *690:D 0
6 *588:A1 6.83077e-06
7 *683:B 5.01387e-06
8 *409:QN 8.88266e-06
9 *31:100 2.91349e-05
10 *31:98 2.91349e-05
11 *31:91 5.35289e-06
12 *31:64 2.27309e-05
13 *31:51 6.13865e-05
14 *31:47 0.000104502
15 *31:45 7.85015e-05
16 *31:32 3.83533e-05
17 *31:26 0.000112673
18 *31:22 8.39257e-05
19 *31:14 3.35607e-05
20 *31:12 6.27375e-05
21 *31:8 5.49676e-05
22 *588:A1 *117:166 3.64592e-05
23 *680:A1 *684:A2 0
24 *680:A1 *310:27 1.15587e-05
25 *680:A1 *310:87 8.3668e-07
26 *683:B *683:C 1.35684e-06
27 *31:8 *100:8 0
28 *31:8 *156:58 1.70866e-06
29 *31:14 *356:8 3.65131e-06
30 *31:22 *312:10 1.908e-06
31 *31:22 *356:8 8.146e-06
32 *31:26 *310:87 2.6409e-06
33 *31:26 *356:8 0
34 *31:32 *310:27 2.01457e-05
35 *31:32 *316:10 6.86929e-06
36 *31:45 *315:10 1.66193e-05
37 *31:47 *313:12 1.9131e-06
38 *31:64 *117:166 3.86392e-05
39 *31:91 *312:10 5.49212e-07
40 *31:100 *188:86 5.10958e-06
41 *31:100 *390:125 9.62907e-05
42 *27:42 *31:64 5.00394e-06
43 *28:14 *31:64 0
44 *28:33 *588:A1 3.65685e-05
45 *28:33 *31:64 8.06495e-06
46 *29:38 *31:64 7.2313e-06
47 *29:55 *31:47 2.92605e-05
48 *29:55 *31:51 1.49313e-05
49 *30:14 *31:47 3.5541e-05
50 *30:20 *31:51 1.48466e-05
*RES
1 *409:QN *31:8 40.0317 
2 *31:8 *31:12 44.4761 
3 *31:12 *31:14 10.1617 
4 *31:14 *31:22 44.2252 
5 *31:22 *31:26 47.685 
6 *31:26 *31:32 38.3983 
7 *31:32 *683:B 19.8741 
8 *31:32 *31:45 40.0317 
9 *31:45 *31:47 31.5547 
10 *31:47 *31:51 30.5706 
11 *31:51 *588:A1 46.7897 
12 *31:51 *31:64 40.853 
13 *31:64 *690:D 17.2 
14 *31:47 *687:C 17.2 
15 *31:26 *680:A1 43.4107 
16 *31:14 *31:91 38.8203 
17 *31:91 *678:A 17.2 
18 *31:12 *31:98 17.2 
19 *31:98 *31:100 34.3531 
20 *31:100 *577:A1 34.4 
*END

*D_NET *32 0.000235315
*CONN
*I *672:A I *D XNOR2x2_ASAP7_75t_R
*I *567:A1 I *D AOI221x1_ASAP7_75t_R
*I *427:A I *D INVx1_ASAP7_75t_R
*I *407:QN O *D DFFHQNx1_ASAP7_75t_R
*CAP
1 *672:A 0
2 *567:A1 0
3 *427:A 0
4 *407:QN 3.51038e-05
5 *32:34 3.26868e-05
6 *32:21 5.0025e-05
7 *32:14 2.70279e-05
8 *32:8 7.947e-05
9 *32:14 *211:10 0
10 *32:14 *226:10 0
11 *32:21 *98:8 0
12 *32:21 *178:26 2.68933e-07
13 *32:21 *211:33 0
14 *32:21 *218:8 7.84037e-07
15 *32:21 *226:10 0
16 *32:34 *155:33 0
17 *32:34 *178:26 1.89747e-06
18 *32:34 *218:8 8.05096e-06
*RES
1 *407:QN *32:8 48.8403 
2 *32:8 *32:14 34.8245 
3 *32:14 *427:A 17.2 
4 *32:8 *32:21 14.0792 
5 *32:21 *567:A1 34.4 
6 *32:21 *32:34 38.5683 
7 *32:34 *672:A 17.2 
*END

*D_NET *33 0.000609667
*CONN
*I *670:A I *D AND2x2_ASAP7_75t_R
*I *426:A I *D INVx1_ASAP7_75t_R
*I *552:A2 I *D AOI221x1_ASAP7_75t_R
*I *406:QN O *D DFFHQNx1_ASAP7_75t_R
*CAP
1 *670:A 5.71045e-06
2 *426:A 7.00511e-06
3 *552:A2 7.25872e-06
4 *406:QN 5.33427e-05
5 *33:52 2.48709e-05
6 *33:24 8.06399e-05
7 *33:20 7.70398e-05
8 *33:16 1.06637e-05
9 *33:14 4.81234e-05
10 *33:10 8.51336e-05
11 *33:6 7.11925e-05
12 *552:A2 *543:B 9.94583e-06
13 *552:A2 *552:B1 5.41446e-06
14 *670:A *307:8 7.64042e-07
15 *670:A *308:10 1.53963e-06
16 *33:10 *155:33 0
17 *33:10 *308:10 5.90307e-05
18 *33:10 *389:98 1.64764e-06
19 *33:20 *170:25 0
20 *33:52 *308:10 3.63718e-05
21 *16:14 *426:A 7.52934e-06
22 *16:14 *33:20 3.44497e-06
23 *18:134 *552:A2 4.41094e-06
24 *19:142 *552:A2 7.90851e-06
25 *19:150 *552:A2 6.7842e-07
*RES
1 *406:QN *33:6 42.3368 
2 *33:6 *33:10 36.9108 
3 *33:10 *33:14 43.4064 
4 *33:14 *33:16 17.2 
5 *33:16 *33:20 20.0158 
6 *33:20 *33:24 47.685 
7 *33:24 *552:A2 42.7625 
8 *33:16 *426:A 41.158 
9 *33:10 *33:52 49.4638 
10 *33:52 *670:A 38.9053 
*END

*D_NET *34 0.000769293
*CONN
*I *665:A I *D XNOR2x2_ASAP7_75t_R
*I *667:A I *D AND4x1_ASAP7_75t_R
*I *670:B I *D AND2x2_ASAP7_75t_R
*I *425:A I *D INVx1_ASAP7_75t_R
*I *405:QN O *D DFFHQNx1_ASAP7_75t_R
*CAP
1 *665:A 0
2 *667:A 6.68325e-06
3 *670:B 2.05841e-05
4 *425:A 6.18891e-05
5 *405:QN 0
6 *34:55 3.0548e-05
7 *34:44 2.78994e-05
8 *34:38 7.56351e-05
9 *34:36 5.44189e-05
10 *34:34 5.47528e-05
11 *34:21 7.80164e-05
12 *34:10 7.85169e-05
13 *34:4 4.98552e-05
14 *667:A *667:C 2.37505e-06
15 *670:B *307:8 1.11918e-05
16 *34:10 *170:25 3.2524e-06
17 *34:34 *307:8 3.24195e-05
18 *34:38 *351:12 0.000158958
19 *34:44 *156:113 0
20 *34:44 *391:45 0
21 *34:55 *671:A1 0
22 *34:55 *297:50 2.71921e-06
23 *34:55 *302:16 2.05883e-06
24 *34:55 *307:8 1.63905e-05
25 *34:55 *308:10 1.12894e-06
*RES
1 *405:QN *34:4 17.2 
2 *34:4 *34:10 46.7897 
3 *34:10 *425:A 48.2198 
4 *34:4 *34:21 30.5706 
5 *34:21 *670:B 47.1544 
6 *34:21 *34:34 24.7793 
7 *34:34 *34:36 17.2 
8 *34:36 *34:38 46.5298 
9 *34:38 *34:44 48.4791 
10 *34:44 *667:A 20.409 
11 *34:34 *34:55 41.9793 
12 *34:55 *665:A 17.2 
*END

*D_NET *35 0.00136614
*CONN
*I *663:A I *D AND4x1_ASAP7_75t_R
*I *662:A I *D XNOR2x2_ASAP7_75t_R
*I *544:A I *D NAND2x1_ASAP7_75t_R
*I *424:A I *D INVx1_ASAP7_75t_R
*I *537:A I *D NAND2x1_ASAP7_75t_R
*I *667:B I *D AND4x1_ASAP7_75t_R
*I *404:QN O *D DFFHQNx1_ASAP7_75t_R
*CAP
1 *663:A 0
2 *662:A 0
3 *544:A 2.00438e-05
4 *424:A 1.38158e-05
5 *537:A 3.74465e-06
6 *667:B 2.87606e-05
7 *404:QN 2.45798e-05
8 *35:56 0.000144446
9 *35:54 0.000193375
10 *35:52 4.91165e-05
11 *35:41 1.01608e-05
12 *35:39 7.66778e-05
13 *35:37 9.84307e-05
14 *35:29 3.5558e-05
15 *35:27 4.1501e-05
16 *35:23 2.76959e-05
17 *35:10 5.33404e-05
18 *424:A *549:A2 4.88558e-05
19 *667:B *667:C 2.59368e-05
20 *667:B *36:53 1.12894e-06
21 *667:B *156:113 5.52652e-06
22 *667:B *297:20 6.33206e-07
23 *35:10 *156:113 8.54172e-06
24 *35:10 *297:20 5.69885e-06
25 *35:10 *391:56 2.82698e-06
26 *35:27 *37:58 7.03391e-05
27 *35:29 *37:16 0
28 *35:29 *74:50 6.33206e-06
29 *35:29 *95:10 4.11131e-05
30 *35:37 *37:20 3.65131e-06
31 *35:37 *74:44 0
32 *35:37 *95:10 1.54378e-05
33 *35:37 *215:22 1.88129e-06
34 *35:39 *537:B 0
35 *35:39 *180:63 7.90851e-06
36 *35:39 *197:8 0.000184463
37 *35:39 *197:20 4.5406e-05
38 *35:39 *200:8 0
39 *35:39 *215:10 1.07131e-05
40 *35:39 *215:22 2.22736e-06
41 *35:54 *537:B 4.74248e-06
42 *35:54 *178:20 3.61852e-06
43 *35:54 *195:20 3.47607e-06
44 *35:54 *197:8 5.69241e-06
45 *35:54 *215:10 0
46 *35:56 *561:A2 0
47 *35:56 *159:10 0
48 *35:56 *159:12 0
49 *35:56 *162:26 7.09459e-06
50 *35:56 *163:22 1.07573e-06
51 *35:56 *164:10 1.00883e-05
52 *35:56 *164:23 1.38875e-05
53 *35:56 *164:34 0
54 *35:56 *166:26 0
55 *35:56 *215:10 0
56 *14:6 *424:A 6.5975e-06
57 *19:54 *35:39 0
*RES
1 *404:QN *35:10 49.237 
2 *35:10 *667:B 49.067 
3 *35:10 *35:23 17.2 
4 *35:23 *35:27 38.0582 
5 *35:27 *35:29 14.0792 
6 *35:29 *35:37 47.4909 
7 *35:37 *35:39 83.9117 
8 *35:39 *35:41 17.2 
9 *35:41 *537:A 18.8045 
10 *35:41 *35:52 20.9438 
11 *35:52 *35:54 34.3531 
12 *35:54 *35:56 99.6804 
13 *35:56 *424:A 47.2358 
14 *35:54 *544:A 46.701 
15 *35:29 *662:A 34.4 
16 *35:23 *663:A 17.2 
*END

*D_NET *36 0.000570176
*CONN
*I *667:C I *D AND4x1_ASAP7_75t_R
*I *663:B I *D AND4x1_ASAP7_75t_R
*I *423:A I *D INVx1_ASAP7_75t_R
*I *535:B I *D NAND2x1_ASAP7_75t_R
*I *403:QN O *D DFFHQNx1_ASAP7_75t_R
*CAP
1 *667:C 1.24864e-05
2 *663:B 0
3 *423:A 0
4 *535:B 1.44827e-05
5 *403:QN 2.79584e-05
6 *36:53 2.78981e-05
7 *36:40 2.36204e-05
8 *36:31 4.57181e-06
9 *36:16 3.53448e-05
10 *36:10 5.50286e-05
11 *36:8 5.84881e-05
12 *535:B *666:A 2.79145e-05
13 *535:B *301:6 5.21689e-05
14 *36:10 *95:10 0
15 *36:16 *666:A 7.13384e-06
16 *36:16 *95:10 0
17 *36:31 *666:A 5.41446e-06
18 *36:31 *301:12 3.16603e-06
19 *36:40 *296:6 5.06326e-05
20 *36:40 *297:14 5.06326e-05
21 *36:53 *156:113 0
22 *36:53 *296:6 5.85387e-06
23 *36:53 *297:14 3.68287e-06
24 *36:53 *297:20 1.12901e-05
25 *36:53 *391:45 0
26 *667:A *667:C 2.37505e-06
27 *667:B *667:C 2.59368e-05
28 *667:B *36:53 1.12894e-06
29 *13:10 *535:B 7.34229e-06
30 *13:10 *36:31 5.19475e-06
31 *18:28 *36:10 3.84116e-05
32 *18:28 *36:16 1.20178e-05
*RES
1 *403:QN *36:8 47.7706 
2 *36:8 *36:10 29.8478 
3 *36:10 *36:16 30.0111 
4 *36:16 *535:B 34.8492 
5 *36:16 *36:31 38.8203 
6 *36:31 *423:A 17.2 
7 *36:10 *36:40 32.1751 
8 *36:40 *663:B 17.2 
9 *36:40 *36:53 45.55 
10 *36:53 *667:C 25.7572 
*END

*D_NET *37 0.00112376
*CONN
*I *667:D I *D AND4x1_ASAP7_75t_R
*I *657:A1 I *D AO21x1_ASAP7_75t_R
*I *663:C I *D AND4x1_ASAP7_75t_R
*I *420:A I *D INVx1_ASAP7_75t_R
*I *654:A I *D XNOR2x2_ASAP7_75t_R
*I *402:QN O *D DFFHQNx1_ASAP7_75t_R
*CAP
1 *667:D 0
2 *657:A1 0
3 *663:C 0
4 *420:A 2.23478e-06
5 *654:A 0
6 *402:QN 0
7 *37:80 1.60023e-05
8 *37:65 2.10097e-05
9 *37:58 2.37812e-05
10 *37:40 3.44916e-05
11 *37:34 3.89152e-05
12 *37:28 0.000183085
13 *37:26 0.000178661
14 *37:24 4.91888e-06
15 *37:20 3.1565e-05
16 *37:16 4.94367e-05
17 *37:10 6.32146e-05
18 *37:6 2.3885e-05
19 *420:A *74:40 4.10928e-06
20 *420:A *180:8 8.33296e-06
21 *37:10 *95:10 0
22 *37:10 *215:26 3.00674e-05
23 *37:16 *74:50 1.12894e-06
24 *37:16 *95:10 0
25 *37:16 *215:22 8.33296e-06
26 *37:16 *215:26 4.44767e-05
27 *37:16 *296:6 5.85387e-06
28 *37:20 *74:44 1.27112e-05
29 *37:20 *215:22 2.20493e-06
30 *37:24 *74:40 6.33206e-07
31 *37:24 *93:10 2.22736e-06
32 *37:24 *180:8 1.20741e-05
33 *37:28 *697:A2 3.68287e-06
34 *37:28 *325:12 8.146e-06
35 *37:34 *229:28 5.04414e-06
36 *37:34 *295:8 0
37 *37:40 *654:B 8.23084e-06
38 *37:40 *365:203 1.50299e-06
39 *37:58 *296:6 9.54357e-05
40 *37:58 *297:22 5.85387e-06
41 *37:65 *657:A2 1.85833e-05
42 *37:65 *296:6 7.35354e-06
43 *37:65 *297:22 2.39855e-05
44 *37:80 *657:A2 9.81687e-06
45 *37:80 *297:22 7.69411e-06
46 *37:80 *391:45 2.64666e-05
47 *11:50 *37:28 2.03608e-06
48 *13:10 *37:16 0
49 *13:14 *37:20 2.25816e-05
50 *13:14 *37:28 0
51 *13:20 *37:28 0
52 *35:27 *37:58 7.03391e-05
53 *35:29 *37:16 0
54 *35:37 *37:20 3.65131e-06
*RES
1 *402:QN *37:6 34.4 
2 *37:6 *37:10 40.853 
3 *37:10 *37:16 36.2626 
4 *37:16 *37:20 41.2671 
5 *37:20 *37:24 21.1422 
6 *37:24 *37:26 17.2 
7 *37:26 *37:28 77.5496 
8 *37:28 *37:34 38.3422 
9 *37:34 *37:40 39.8044 
10 *37:40 *654:A 34.4 
11 *37:24 *420:A 37.779 
12 *37:10 *37:58 28.3457 
13 *37:58 *663:C 17.2 
14 *37:58 *37:65 6.95272 
15 *37:65 *657:A1 17.2 
16 *37:65 *37:80 47.6893 
17 *37:80 *667:D 17.2 
*END

*D_NET *38 0.0014084
*CONN
*I *486:A I *D INVx1_ASAP7_75t_R
*I *557:C I *D OR3x1_ASAP7_75t_R
*I *497:B I *D AO21x1_ASAP7_75t_R
*I *494:C I *D OR4x1_ASAP7_75t_R
*I *400:QN O *D DFFHQNx1_ASAP7_75t_R
*CAP
1 *486:A 0
2 *557:C 0
3 *497:B 0
4 *494:C 0
5 *400:QN 1.62646e-05
6 *38:55 2.85383e-05
7 *38:42 3.46043e-05
8 *38:33 5.982e-05
9 *38:22 0.000137851
10 *38:20 0.00011818
11 *38:14 0.00034464
12 *38:12 0.000345434
13 *38:8 5.1142e-05
14 *38:14 *529:A1 5.41446e-06
15 *38:14 *529:B 7.83564e-06
16 *38:14 *529:C 5.25794e-06
17 *38:14 *530:B 9.08513e-06
18 *38:14 *539:A2 1.25483e-05
19 *38:14 *125:144 8.31096e-06
20 *38:20 *159:12 1.12894e-06
21 *38:22 *494:D 1.07377e-06
22 *38:22 *495:C 3.81941e-06
23 *38:22 *160:6 0
24 *38:22 *162:20 0
25 *38:33 *497:A2 1.63973e-05
26 *38:33 *51:12 1.26641e-06
27 *38:33 *52:8 5.52807e-07
28 *38:33 *52:20 4.57059e-05
29 *38:33 *56:55 1.13191e-05
30 *38:33 *211:10 0
31 *38:42 *497:A2 6.71283e-06
32 *38:42 *51:8 1.11656e-05
33 *38:42 *52:8 1.6136e-06
34 *38:42 *211:10 0
35 *38:42 *211:20 4.88858e-05
36 *38:42 *211:33 0
37 *38:42 *215:51 5.49212e-07
38 *38:42 *389:81 3.22574e-06
39 *38:42 *389:85 4.90164e-05
40 *38:55 *125:144 0
41 *38:55 *153:8 3.65663e-06
42 *4:14 *38:8 0
43 *4:20 *38:55 3.95007e-06
44 *8:33 *38:42 0
45 *17:16 *38:42 1.34329e-05
*RES
1 *400:QN *38:8 41.3527 
2 *38:8 *38:12 20.579 
3 *38:12 *38:14 143.868 
4 *38:14 *38:20 37.779 
5 *38:20 *38:22 48.6691 
6 *38:22 *494:C 17.2 
7 *38:22 *38:33 40.6546 
8 *38:33 *497:B 34.4 
9 *38:33 *38:42 41.6743 
10 *38:42 *557:C 34.4 
11 *38:8 *38:55 34.233 
12 *38:55 *486:A 17.2 
*END

*D_NET *39 2.64449e-05
*CONN
*I *429:A I *D INVx1_ASAP7_75t_R
*I *399:QN O *D DFFHQNx1_ASAP7_75t_R
*CAP
1 *429:A 0
2 *399:QN 1.06142e-05
3 *39:10 1.06142e-05
4 *39:10 *125:172 5.21648e-06
5 *39:10 *130:6 0
*RES
1 *399:QN *39:10 40.5098 
2 *39:10 *429:A 34.4 
*END

*D_NET *40 1.25651e-05
*CONN
*I *430:A I *D INVx1_ASAP7_75t_R
*I *398:QN O *D DFFHQNx1_ASAP7_75t_R
*CAP
1 *430:A 6.28254e-06
2 *398:QN 6.28254e-06
*RES
1 *398:QN *430:A 37.0741 
*END

*D_NET *41 1.40757e-05
*CONN
*I *431:A I *D INVx1_ASAP7_75t_R
*I *397:QN O *D DFFHQNx1_ASAP7_75t_R
*CAP
1 *431:A 7.03783e-06
2 *397:QN 7.03783e-06
*RES
1 *397:QN *431:A 37.0741 
*END

*D_NET *42 2.26171e-05
*CONN
*I *432:A I *D INVx1_ASAP7_75t_R
*I *396:QN O *D DFFHQNx1_ASAP7_75t_R
*CAP
1 *432:A 1.13086e-05
2 *396:QN 1.13086e-05
*RES
1 *396:QN *432:A 39.2134 
*END

*D_NET *43 1.10087e-05
*CONN
*I *433:A I *D INVx1_ASAP7_75t_R
*I *395:QN O *D DFFHQNx1_ASAP7_75t_R
*CAP
1 *433:A 5.50436e-06
2 *395:QN 5.50436e-06
*RES
1 *395:QN *433:A 37.0741 
*END

*D_NET *44 1.34585e-05
*CONN
*I *434:A I *D INVx1_ASAP7_75t_R
*I *394:QN O *D DFFHQNx1_ASAP7_75t_R
*CAP
1 *434:A 6.72925e-06
2 *394:QN 6.72925e-06
*RES
1 *394:QN *434:A 37.0741 
*END

*D_NET *45 2.04861e-05
*CONN
*I *436:A I *D INVx1_ASAP7_75t_R
*I *392:QN O *D DFFHQNx1_ASAP7_75t_R
*CAP
1 *436:A 3.24495e-06
2 *392:QN 5.53663e-06
3 *45:8 8.78158e-06
4 *45:8 *118:106 0
5 *45:8 *119:47 0
6 *45:8 *126:12 6.33206e-07
7 *1:12 *436:A 2.28976e-06
*RES
1 *392:QN *45:8 37.779 
2 *45:8 *436:A 36.0045 
*END

*D_NET *46 0.000892613
*CONN
*I *655:A I *D AND2x2_ASAP7_75t_R
*I *708:B I *D HAxp5_ASAP7_75t_R
*I *698:A I *D FAx1_ASAP7_75t_R
*I *421:A I *D INVx1_ASAP7_75t_R
*I *509:A I *D NAND2x1_ASAP7_75t_R
*I *416:QN O *D DFFHQNx1_ASAP7_75t_R
*CAP
1 *655:A 5.52731e-06
2 *708:B 0
3 *698:A 0
4 *421:A 3.83153e-05
5 *509:A 0
6 *416:QN 9.84694e-06
7 *46:57 4.92549e-05
8 *46:55 4.92549e-05
9 *46:48 3.60464e-05
10 *46:37 0.000106657
11 *46:33 5.83688e-05
12 *46:22 3.22029e-05
13 *46:18 6.91175e-05
14 *46:16 9.13217e-05
15 *46:10 3.38608e-05
16 *46:8 9.84694e-06
17 *655:A *73:78 7.63254e-07
18 *655:A *297:14 3.16328e-06
19 *46:16 *73:78 2.19694e-05
20 *46:16 *107:10 0
21 *46:16 *297:14 1.36108e-05
22 *46:18 *107:10 0
23 *46:18 *174:27 4.7643e-07
24 *46:18 *279:10 0
25 *46:18 *280:8 4.2427e-05
26 *46:22 *174:10 1.63028e-05
27 *46:33 *172:106 0
28 *46:48 *49:6 3.84449e-06
29 *46:48 *50:10 8.39669e-06
30 *46:57 *74:12 3.0511e-05
31 *46:57 *74:29 0.000102308
32 *11:25 *421:A 1.07377e-06
33 *13:20 *46:18 0
34 *18:75 *46:18 1.04418e-06
35 *18:75 *46:33 5.71014e-05
36 *19:79 *46:18 0
*RES
1 *416:QN *46:8 41.158 
2 *46:8 *46:10 17.2 
3 *46:10 *46:16 42.8469 
4 *46:16 *46:18 50.1218 
5 *46:18 *46:22 21.4786 
6 *46:22 *509:A 17.2 
7 *46:22 *46:33 39.7266 
8 *46:33 *46:37 30.5706 
9 *46:37 *421:A 32.7099 
10 *46:37 *46:48 47.611 
11 *46:48 *698:A 17.2 
12 *46:16 *46:55 17.2 
13 *46:55 *46:57 40.1119 
14 *46:57 *708:B 17.2 
15 *46:10 *655:A 21.4786 
*END

*D_NET *47 0.0002517
*CONN
*I *698:B I *D FAx1_ASAP7_75t_R
*I *435:A I *D INVx1_ASAP7_75t_R
*I *393:QN O *D DFFHQNx1_ASAP7_75t_R
*CAP
1 *698:B 5.17482e-05
2 *435:A 0
3 *393:QN 3.39311e-05
4 *47:12 5.49198e-05
5 *47:6 3.71028e-05
6 *698:B *698:CI 5.43849e-05
7 *698:B *709:A 2.12481e-06
8 *698:B *48:8 5.85387e-06
9 *2:23 *698:B 2.11853e-06
10 *2:23 *47:6 9.51578e-06
*RES
1 *393:QN *47:6 36.9885 
2 *47:6 *47:12 36.0895 
3 *47:12 *435:A 17.2 
4 *47:12 *698:B 36.6355 
*END

*D_NET *48 0.000371313
*CONN
*I *698:CI I *D FAx1_ASAP7_75t_R
*I *518:A2 I *D OA21x2_ASAP7_75t_R
*I *493:A2 I *D OA211x2_ASAP7_75t_R
*I *709:CON O *D HAxp5_ASAP7_75t_R
*CAP
1 *698:CI 2.12682e-05
2 *518:A2 0
3 *493:A2 0
4 *709:CON 0
5 *48:32 2.53145e-05
6 *48:14 8.86405e-06
7 *48:10 3.46711e-05
8 *48:8 2.8436e-05
9 *48:4 6.67519e-06
10 *48:10 *63:10 1.80959e-05
11 *48:10 *363:10 9.44103e-05
12 *48:14 *63:10 1.56807e-06
13 *48:14 *63:16 1.98283e-05
14 *48:14 *363:10 4.94012e-05
15 *48:32 *363:10 2.5412e-06
16 *698:B *698:CI 5.43849e-05
17 *698:B *48:8 5.85387e-06
18 *11:8 *48:10 0
*RES
1 *709:CON *48:4 17.2 
2 *48:4 *48:8 18.8045 
3 *48:8 *48:10 32.1005 
4 *48:10 *48:14 33.5318 
5 *48:14 *493:A2 17.2 
6 *48:10 *518:A2 34.4 
7 *48:4 *48:32 37.2158 
8 *48:32 *698:CI 18.4515 
*END

*D_NET *49 0.000234361
*CONN
*I *511:A I *D XNOR2x2_ASAP7_75t_R
*I *528:A I *D INVx1_ASAP7_75t_R
*I *698:CON O *D FAx1_ASAP7_75t_R
*CAP
1 *511:A 0
2 *528:A 0
3 *698:CON 0
4 *49:8 5.59299e-05
5 *49:6 0.000106161
6 *49:4 5.02314e-05
7 *49:6 *511:B 0
8 *49:6 *519:A2 0
9 *49:6 *387:91 6.98043e-07
10 *49:6 *389:8 8.20229e-06
11 *49:6 *389:12 4.83862e-06
12 *49:8 *511:B 0
13 *49:8 *61:21 4.45472e-06
14 *49:8 *62:23 0
15 *46:48 *49:6 3.84449e-06
*RES
1 *698:CON *49:4 17.2 
2 *49:4 *49:6 42.8006 
3 *49:6 *49:8 41.6743 
4 *49:8 *528:A 34.4 
5 *49:6 *511:A 34.4 
*END

*D_NET *50 0.000329435
*CONN
*I *628:A I *D OR3x1_ASAP7_75t_R
*I *510:A1 I *D OA211x2_ASAP7_75t_R
*I *698:SN O *D FAx1_ASAP7_75t_R
*CAP
1 *628:A 5.979e-06
2 *510:A1 0
3 *698:SN 4.31241e-06
4 *50:22 1.07048e-05
5 *50:14 6.22894e-05
6 *50:10 0.000110995
7 *50:8 5.77439e-05
8 *628:A *156:145 5.95881e-06
9 *50:10 *156:145 6.51659e-06
10 *50:14 *156:139 6.10829e-07
11 *50:14 *172:85 4.18905e-06
12 *50:14 *172:91 2.54734e-05
13 *50:22 *172:106 4.83654e-06
14 *50:22 *174:27 1.36155e-06
15 *50:22 *174:35 4.84697e-07
16 *18:75 *50:10 0
17 *18:83 *50:10 1.95851e-06
18 *19:66 *628:A 5.27966e-06
19 *19:66 *50:10 7.75944e-06
20 *19:79 *628:A 4.58425e-06
21 *46:48 *50:10 8.39669e-06
*RES
1 *698:SN *50:8 36.0045 
2 *50:8 *50:10 42.8006 
3 *50:10 *50:14 38.0582 
4 *50:14 *50:22 42.2276 
5 *50:22 *510:A1 17.2 
6 *50:10 *628:A 42.2843 
*END

*D_NET *51 0.000359494
*CONN
*I *497:A1 I *D AO21x1_ASAP7_75t_R
*I *496:C I *D OA211x2_ASAP7_75t_R
*I *564:A I *D INVx1_ASAP7_75t_R
*I *699:CON O *D HAxp5_ASAP7_75t_R
*CAP
1 *497:A1 2.44497e-06
2 *496:C 0
3 *564:A 0
4 *699:CON 1.05566e-05
5 *51:26 4.2921e-05
6 *51:20 5.96027e-05
7 *51:14 2.03784e-05
8 *51:12 3.85454e-05
9 *51:8 4.78503e-05
10 *497:A1 *163:6 8.87763e-06
11 *51:8 *497:A2 1.182e-05
12 *51:12 *497:A2 1.14208e-05
13 *51:12 *52:20 4.12062e-05
14 *51:12 *54:47 2.73415e-06
15 *51:12 *56:55 3.90551e-06
16 *51:12 *162:8 6.79293e-06
17 *51:20 *54:10 2.53282e-06
18 *51:20 *54:36 8.21855e-06
19 *51:20 *56:40 2.83874e-07
20 *51:20 *56:55 2.98814e-06
21 *51:20 *211:10 0
22 *51:20 *220:8 1.95276e-05
23 *51:26 *211:8 0
24 *51:26 *211:10 6.10236e-07
25 *8:33 *51:8 3.84449e-06
26 *38:33 *51:12 1.26641e-06
27 *38:42 *51:8 1.11656e-05
*RES
1 *699:CON *51:8 46.7897 
2 *51:8 *51:12 49.3005 
3 *51:12 *51:14 1.60448 
4 *51:14 *51:20 49.6055 
5 *51:20 *51:26 33.9496 
6 *51:26 *564:A 34.4 
7 *51:14 *496:C 17.2 
8 *51:8 *497:A1 37.0741 
*END

*D_NET *52 0.000340422
*CONN
*I *497:A2 I *D AO21x1_ASAP7_75t_R
*I *559:A I *D INVx1_ASAP7_75t_R
*I *565:C I *D OA211x2_ASAP7_75t_R
*I *494:A I *D OR4x1_ASAP7_75t_R
*I *699:SN O *D HAxp5_ASAP7_75t_R
*CAP
1 *497:A2 6.92522e-06
2 *559:A 2.95045e-06
3 *565:C 1.35363e-05
4 *494:A 0
5 *699:SN 1.34603e-05
6 *52:31 4.54557e-05
7 *52:20 3.6668e-05
8 *52:14 3.02673e-05
9 *52:8 2.91032e-05
10 *565:C *565:B 1.52651e-06
11 *565:C *211:10 8.2174e-07
12 *565:C *221:18 1.12894e-06
13 *565:C *223:14 0
14 *565:C *225:8 1.09067e-06
15 *52:8 *211:10 1.49732e-05
16 *52:20 *56:55 2.03526e-06
17 *52:31 *56:55 2.03526e-06
18 *52:31 *211:10 2.43534e-06
19 *17:16 *52:8 5.79724e-07
20 *38:33 *497:A2 1.63973e-05
21 *38:33 *52:8 5.52807e-07
22 *38:33 *52:20 4.57059e-05
23 *38:42 *497:A2 6.71283e-06
24 *38:42 *52:8 1.6136e-06
25 *51:8 *497:A2 1.182e-05
26 *51:12 *497:A2 1.14208e-05
27 *51:12 *52:20 4.12062e-05
*RES
1 *699:SN *52:8 46.2265 
2 *52:8 *52:14 40.2831 
3 *52:14 *52:20 32.3205 
4 *52:20 *494:A 17.2 
5 *52:20 *52:31 36.3156 
6 *52:31 *565:C 43.354 
7 *52:31 *559:A 36.0045 
8 *52:14 *497:A2 43.354 
*END

*D_NET *53 0.000174927
*CONN
*I *562:A1 I *D AO22x1_ASAP7_75t_R
*I *496:B I *D OA211x2_ASAP7_75t_R
*I *560:B I *D AND2x2_ASAP7_75t_R
*I *700:CON O *D HAxp5_ASAP7_75t_R
*CAP
1 *562:A1 3.32525e-06
2 *496:B 1.0071e-05
3 *560:B 0
4 *700:CON 3.91852e-06
5 *53:14 2.93122e-05
6 *53:8 3.93833e-05
7 *53:6 7.24377e-06
8 *496:B *54:10 4.83862e-06
9 *496:B *54:36 1.15587e-05
10 *496:B *55:36 0
11 *496:B *55:44 1.20248e-06
12 *562:A1 *562:B1 1.95129e-06
13 *562:A1 *54:8 5.85387e-06
14 *562:A1 *220:16 7.80516e-06
15 *53:6 *54:8 1.95129e-06
16 *53:6 *220:16 1.04206e-05
17 *53:14 *550:A 1.60406e-05
18 *53:14 *560:A 1.92539e-06
19 *53:14 *54:10 1.00692e-05
20 *53:14 *55:36 0
21 *53:14 *220:8 8.05573e-06
*RES
1 *700:CON *53:6 19.8741 
2 *53:6 *53:8 17.2 
3 *53:8 *53:14 37.2756 
4 *53:14 *560:B 17.2 
5 *53:8 *496:B 42.171 
6 *53:6 *562:A1 19.8741 
*END

*D_NET *54 0.000285526
*CONN
*I *494:D I *D OR4x1_ASAP7_75t_R
*I *496:A2 I *D OA211x2_ASAP7_75t_R
*I *562:A2 I *D AO22x1_ASAP7_75t_R
*I *550:A I *D XOR2x2_ASAP7_75t_R
*I *700:SN O *D HAxp5_ASAP7_75t_R
*CAP
1 *494:D 3.86725e-06
2 *496:A2 6.06931e-06
3 *562:A2 4.22035e-06
4 *550:A 2.24838e-05
5 *700:SN 4.30263e-06
6 *54:47 2.8899e-05
7 *54:36 4.24846e-05
8 *54:10 3.005e-05
9 *54:8 1.90321e-05
10 *496:A2 *55:36 1.16945e-06
11 *496:A2 *55:44 9.84574e-06
12 *550:A *55:6 4.334e-06
13 *550:A *211:8 1.39477e-06
14 *550:A *220:8 1.59026e-05
15 *562:A2 *562:B1 2.80323e-06
16 *562:A2 *56:40 1.34271e-05
17 *562:A2 *220:16 2.03526e-06
18 *54:10 *220:8 8.33296e-06
19 *496:B *54:10 4.83862e-06
20 *496:B *54:36 1.15587e-05
21 *562:A1 *54:8 5.85387e-06
22 *38:22 *494:D 1.07377e-06
23 *51:12 *54:47 2.73415e-06
24 *51:20 *54:10 2.53282e-06
25 *51:20 *54:36 8.21855e-06
26 *53:6 *54:8 1.95129e-06
27 *53:14 *550:A 1.60406e-05
28 *53:14 *54:10 1.00692e-05
*RES
1 *700:SN *54:8 36.0045 
2 *54:8 *54:10 5.06849 
3 *54:10 *550:A 49.1237 
4 *54:10 *562:A2 38.1438 
5 *54:8 *54:36 26.6888 
6 *54:36 *496:A2 20.9438 
7 *54:36 *54:47 33.5318 
8 *54:47 *494:D 36.5393 
*END

*D_NET *55 0.000367453
*CONN
*I *496:A1 I *D OA211x2_ASAP7_75t_R
*I *549:B I *D OA21x2_ASAP7_75t_R
*I *560:A I *D AND2x2_ASAP7_75t_R
*I *701:CON O *D HAxp5_ASAP7_75t_R
*CAP
1 *496:A1 0
2 *549:B 0
3 *560:A 1.52433e-05
4 *701:CON 3.3828e-05
5 *55:44 7.91565e-06
6 *55:36 3.63942e-05
7 *55:25 3.38716e-05
8 *55:10 5.99991e-05
9 *55:8 3.93627e-05
10 *55:6 3.3828e-05
11 *55:25 *56:20 1.33301e-05
12 *55:25 *210:6 1.42583e-05
13 *55:36 *220:16 1.96686e-05
14 *55:44 *220:16 4.64191e-07
15 *496:A2 *55:36 1.16945e-06
16 *496:A2 *55:44 9.84574e-06
17 *496:B *55:36 0
18 *496:B *55:44 1.20248e-06
19 *550:A *55:6 4.334e-06
20 *7:35 *55:25 4.08123e-05
21 *7:39 *55:36 0
22 *53:14 *560:A 1.92539e-06
23 *53:14 *55:36 0
*RES
1 *701:CON *55:6 34.8492 
2 *55:6 *55:8 17.2 
3 *55:8 *55:10 7.88432 
4 *55:10 *560:A 43.0989 
5 *55:10 *55:25 46.6154 
6 *55:25 *549:B 17.2 
7 *55:8 *55:36 37.2756 
8 *55:36 *55:44 39.89 
9 *55:44 *496:A1 17.2 
*END

*D_NET *56 0.000541302
*CONN
*I *494:B I *D OR4x1_ASAP7_75t_R
*I *562:B2 I *D AO22x1_ASAP7_75t_R
*I *540:A I *D XOR2x2_ASAP7_75t_R
*I *549:A1 I *D OA21x2_ASAP7_75t_R
*I *701:SN O *D HAxp5_ASAP7_75t_R
*CAP
1 *494:B 0
2 *562:B2 6.33333e-07
3 *540:A 0
4 *549:A1 0
5 *701:SN 4.49357e-06
6 *56:55 3.8712e-05
7 *56:40 0.000111025
8 *56:29 1.62605e-05
9 *56:20 3.66435e-05
10 *56:14 6.65516e-05
11 *56:10 8.53276e-05
12 *56:8 4.49357e-06
13 *562:B2 *562:B1 5.41446e-06
14 *56:20 *549:A2 4.34114e-06
15 *56:20 *210:6 1.88216e-05
16 *56:29 *202:10 2.35211e-06
17 *56:40 *562:B1 1.56713e-06
18 *56:40 *211:10 0
19 *56:40 *220:16 5.84421e-06
20 *56:55 *565:A2 1.35961e-06
21 *56:55 *162:8 1.6528e-05
22 *56:55 *211:10 0
23 *56:55 *222:14 8.2174e-07
24 *562:A2 *56:40 1.34271e-05
25 *700:B *56:40 2.86376e-07
26 *6:31 *56:20 1.93294e-06
27 *7:35 *56:20 1.1699e-06
28 *7:39 *56:8 0
29 *15:48 *56:20 1.31577e-05
30 *15:48 *56:29 5.42398e-05
31 *38:33 *56:55 1.13191e-05
32 *51:12 *56:55 3.90551e-06
33 *51:20 *56:40 2.83874e-07
34 *51:20 *56:55 2.98814e-06
35 *52:20 *56:55 2.03526e-06
36 *52:31 *56:55 2.03526e-06
37 *55:25 *56:20 1.33301e-05
*RES
1 *701:SN *56:8 37.779 
2 *56:8 *56:10 17.2 
3 *56:10 *56:14 23.0831 
4 *56:14 *56:20 47.4373 
5 *56:20 *549:A1 17.2 
6 *56:14 *56:29 35.7845 
7 *56:29 *540:A 17.2 
8 *56:10 *56:40 49.4312 
9 *56:40 *562:B2 36.0045 
10 *56:40 *56:55 47.4409 
11 *56:55 *494:B 17.2 
*END

*D_NET *57 8.47865e-05
*CONN
*I *498:B I *D OA21x2_ASAP7_75t_R
*I *548:B1 I *D OA31x2_ASAP7_75t_R
*I *702:CON O *D HAxp5_ASAP7_75t_R
*CAP
1 *498:B 0
2 *548:B1 0
3 *702:CON 7.58096e-06
4 *57:23 1.86391e-05
5 *57:10 1.86391e-05
6 *57:8 7.58096e-06
7 *57:8 *58:10 5.19477e-06
8 *57:8 *58:21 1.1274e-06
9 *57:23 *548:A1 1.00854e-05
10 *57:23 *58:21 1.05457e-05
11 *57:23 *58:30 2.35211e-06
12 *5:33 *57:8 5.13209e-07
13 *7:27 *57:23 2.52783e-06
*RES
1 *702:CON *57:8 41.158 
2 *57:8 *57:10 17.2 
3 *57:10 *548:B1 17.2 
4 *57:10 *57:23 49.3504 
5 *57:23 *498:B 17.2 
*END

*D_NET *58 0.000319692
*CONN
*I *492:B I *D AO211x2_ASAP7_75t_R
*I *532:A I *D XOR2x2_ASAP7_75t_R
*I *498:A2 I *D OA21x2_ASAP7_75t_R
*I *548:A1 I *D OA31x2_ASAP7_75t_R
*I *702:SN O *D HAxp5_ASAP7_75t_R
*CAP
1 *492:B 3.069e-05
2 *532:A 0
3 *498:A2 0
4 *548:A1 2.48412e-05
5 *702:SN 1.78686e-05
6 *58:41 4.76102e-05
7 *58:30 3.58972e-05
8 *58:21 3.01086e-05
9 *58:10 5.38415e-05
10 *492:B *492:C 3.02913e-05
11 *492:B *158:6 5.25794e-06
12 *548:A1 *193:14 9.30244e-06
13 *58:30 *194:8 0
14 *58:41 *195:8 0
15 *7:27 *548:A1 2.63008e-06
16 *14:6 *58:10 2.04733e-06
17 *57:8 *58:10 5.19477e-06
18 *57:8 *58:21 1.1274e-06
19 *57:23 *548:A1 1.00854e-05
20 *57:23 *58:21 1.05457e-05
21 *57:23 *58:30 2.35211e-06
*RES
1 *702:SN *58:10 43.7188 
2 *58:10 *548:A1 49.9099 
3 *58:10 *58:21 10.137 
4 *58:21 *498:A2 34.4 
5 *58:21 *58:30 16.3318 
6 *58:30 *532:A 34.4 
7 *58:30 *58:41 29.5897 
8 *58:41 *492:B 39.1278 
*END

*D_NET *59 0.000260492
*CONN
*I *529:B I *D OA211x2_ASAP7_75t_R
*I *530:A I *D AND2x2_ASAP7_75t_R
*I *498:A1 I *D OA21x2_ASAP7_75t_R
*I *703:CON O *D HAxp5_ASAP7_75t_R
*CAP
1 *529:B 1.39777e-05
2 *530:A 0
3 *498:A1 0
4 *703:CON 8.44196e-06
5 *59:18 3.90747e-05
6 *59:12 4.13014e-05
7 *59:10 4.65027e-05
8 *59:8 3.87402e-05
9 *529:B *529:C 1.21211e-05
10 *529:B *530:B 3.81627e-06
11 *529:B *192:10 9.83747e-06
12 *59:10 *529:C 0
13 *59:10 *530:B 0
14 *59:10 *60:8 0
15 *59:10 *60:34 0
16 *59:12 *194:8 0
17 *59:18 *192:10 9.77825e-06
18 *59:18 *193:8 3.32524e-06
19 *59:18 *193:14 1.60673e-05
20 *59:18 *194:8 0
21 *13:59 *59:10 0
22 *13:63 *59:8 9.67251e-06
23 *38:14 *529:B 7.83564e-06
*RES
1 *703:CON *59:8 41.3527 
2 *59:8 *59:10 18.5845 
3 *59:10 *59:12 1.6895 
4 *59:12 *59:18 46.9024 
5 *59:18 *498:A1 17.2 
6 *59:12 *530:A 34.4 
7 *59:10 *529:B 49.3751 
*END

*D_NET *60 0.000206037
*CONN
*I *520:A I *D XOR2x2_ASAP7_75t_R
*I *492:C I *D AO211x2_ASAP7_75t_R
*I *530:B I *D AND2x2_ASAP7_75t_R
*I *703:SN O *D HAxp5_ASAP7_75t_R
*CAP
1 *520:A 0
2 *492:C 1.06798e-05
3 *530:B 1.20019e-05
4 *703:SN 0
5 *60:34 4.26327e-05
6 *60:8 3.27094e-05
7 *60:6 5.26604e-05
8 *530:B *529:C 2.70427e-06
9 *60:8 *61:34 2.83874e-07
10 *60:34 *61:34 8.90467e-06
11 *60:34 *159:6 2.66797e-07
12 *492:B *492:C 3.02913e-05
13 *529:B *530:B 3.81627e-06
14 *38:14 *530:B 9.08513e-06
15 *59:10 *530:B 0
16 *59:10 *60:8 0
17 *59:10 *60:34 0
*RES
1 *703:SN *60:6 34.4 
2 *60:6 *60:8 5.63166 
3 *60:8 *530:B 44.9585 
4 *60:8 *492:C 43.492 
5 *60:6 *60:34 49.2154 
6 *60:34 *520:A 17.2 
*END

*D_NET *61 0.000406185
*CONN
*I *492:A1 I *D AO211x2_ASAP7_75t_R
*I *529:C I *D OA211x2_ASAP7_75t_R
*I *519:B I *D OA21x2_ASAP7_75t_R
*I *493:C I *D OA211x2_ASAP7_75t_R
*I *704:CON O *D HAxp5_ASAP7_75t_R
*CAP
1 *492:A1 4.03125e-06
2 *529:C 1.69251e-05
3 *519:B 0
4 *493:C 0
5 *704:CON 0
6 *61:34 4.73169e-05
7 *61:32 3.68329e-05
8 *61:23 1.04723e-05
9 *61:21 3.62862e-05
10 *61:10 1.19807e-05
11 *61:4 4.82668e-05
12 *492:A1 *492:A2 5.85387e-06
13 *529:C *529:A2 0
14 *529:C *62:23 4.83862e-06
15 *529:C *62:31 4.83862e-06
16 *529:C *191:8 0
17 *61:10 *62:12 0
18 *61:10 *63:16 1.6136e-06
19 *61:21 *519:A2 1.27636e-05
20 *61:32 *520:B 8.31096e-06
21 *61:32 *159:6 1.56089e-05
22 *61:34 *62:23 9.15596e-05
23 *529:B *529:C 1.21211e-05
24 *530:B *529:C 2.70427e-06
25 *3:41 *61:10 5.52652e-06
26 *12:34 *61:21 9.43179e-06
27 *38:14 *529:C 5.25794e-06
28 *49:8 *61:21 4.45472e-06
29 *59:10 *529:C 0
30 *60:8 *61:34 2.83874e-07
31 *60:34 *61:34 8.90467e-06
*RES
1 *704:CON *61:4 17.2 
2 *61:4 *61:10 44.537 
3 *61:10 *493:C 17.2 
4 *61:4 *61:21 43.9732 
5 *61:21 *61:23 17.2 
6 *61:23 *519:B 17.2 
7 *61:23 *61:32 28.4313 
8 *61:32 *61:34 30.9741 
9 *61:34 *529:C 49.4071 
10 *61:34 *492:A1 36.0045 
*END

*D_NET *62 0.00040521
*CONN
*I *511:B I *D XNOR2x2_ASAP7_75t_R
*I *492:A2 I *D AO211x2_ASAP7_75t_R
*I *529:A2 I *D OA211x2_ASAP7_75t_R
*I *519:A1 I *D OA21x2_ASAP7_75t_R
*I *704:SN O *D HAxp5_ASAP7_75t_R
*CAP
1 *511:B 6.77678e-06
2 *492:A2 4.203e-06
3 *529:A2 1.05697e-05
4 *519:A1 0
5 *704:SN 4.76296e-06
6 *62:31 2.83303e-05
7 *62:23 6.12262e-05
8 *62:21 7.35705e-05
9 *62:12 6.3125e-06
10 *62:6 3.86066e-05
11 *529:A2 *191:8 1.09067e-06
12 *62:12 *519:A2 1.64764e-06
13 *492:A1 *492:A2 5.85387e-06
14 *529:C *529:A2 0
15 *529:C *62:23 4.83862e-06
16 *529:C *62:31 4.83862e-06
17 *12:34 *62:6 8.87763e-06
18 *12:34 *62:21 5.21445e-05
19 *49:6 *511:B 0
20 *49:8 *511:B 0
21 *49:8 *62:23 0
22 *61:10 *62:12 0
23 *61:34 *62:23 9.15596e-05
*RES
1 *704:SN *62:6 19.8741 
2 *62:6 *62:12 38.9053 
3 *62:12 *519:A1 17.2 
4 *62:6 *62:21 32.7099 
5 *62:21 *62:23 38.2953 
6 *62:23 *62:31 45.1815 
7 *62:31 *529:A2 42.2843 
8 *62:23 *492:A2 37.0741 
9 *62:21 *511:B 39.4685 
*END

*D_NET *63 0.000147328
*CONN
*I *518:B I *D OA21x2_ASAP7_75t_R
*I *493:B I *D OA211x2_ASAP7_75t_R
*I *705:CON O *D HAxp5_ASAP7_75t_R
*CAP
1 *518:B 0
2 *493:B 0
3 *705:CON 5.37138e-06
4 *63:16 2.32539e-05
5 *63:10 4.23005e-05
6 *63:8 2.4418e-05
7 *63:16 *64:16 2.12481e-06
8 *63:16 *363:10 1.64764e-06
9 *705:A *63:8 1.07377e-06
10 *3:35 *63:16 5.0551e-07
11 *3:41 *63:16 5.52652e-06
12 *48:10 *63:10 1.80959e-05
13 *48:14 *63:10 1.56807e-06
14 *48:14 *63:16 1.98283e-05
15 *61:10 *63:16 1.6136e-06
*RES
1 *705:CON *63:8 37.0741 
2 *63:8 *63:10 16.3318 
3 *63:10 *63:16 38.9934 
4 *63:16 *493:B 17.2 
5 *63:10 *518:B 34.4 
*END

*D_NET *64 0.000189349
*CONN
*I *518:A1 I *D OA21x2_ASAP7_75t_R
*I *493:A1 I *D OA211x2_ASAP7_75t_R
*I *705:SN O *D HAxp5_ASAP7_75t_R
*CAP
1 *518:A1 0
2 *493:A1 0
3 *705:SN 1.13099e-05
4 *64:16 2.58652e-05
5 *64:10 4.75789e-05
6 *64:8 3.30236e-05
7 *64:10 *362:10 0
8 *64:10 *363:10 2.43682e-05
9 *64:16 *362:10 0
10 *64:16 *363:10 2.26628e-05
11 *705:A *64:8 1.29877e-05
12 *3:35 *64:16 9.42744e-06
13 *63:16 *64:16 2.12481e-06
*RES
1 *705:SN *64:8 39.2134 
2 *64:8 *64:10 19.7108 
3 *64:10 *64:16 41.6109 
4 *64:16 *493:A1 17.2 
5 *64:10 *518:A1 34.4 
*END

*D_NET *65 1.10087e-05
*CONN
*I *706:A I *D HAxp5_ASAP7_75t_R
*I *437:Y O *D INVx1_ASAP7_75t_R
*CAP
1 *706:A 5.50436e-06
2 *437:Y 5.50436e-06
*RES
1 *437:Y *706:A 37.0741 
*END

*D_NET *66 2.68928e-05
*CONN
*I *706:B I *D HAxp5_ASAP7_75t_R
*I *439:Y O *D INVx1_ASAP7_75t_R
*CAP
1 *706:B 3.126e-06
2 *439:Y 1.03204e-05
3 *66:8 1.34464e-05
4 *66:8 *67:8 0
*RES
1 *439:Y *66:8 42.2843 
2 *66:8 *706:B 36.0045 
*END

*D_NET *67 0.000282244
*CONN
*I *455:A1 I *D AOI21x1_ASAP7_75t_R
*I *464:C I *D OR3x1_ASAP7_75t_R
*I *456:B I *D AND3x1_ASAP7_75t_R
*I *706:CON O *D HAxp5_ASAP7_75t_R
*CAP
1 *455:A1 0
2 *464:C 0
3 *456:B 0
4 *706:CON 0
5 *67:42 1.4443e-05
6 *67:29 2.40259e-05
7 *67:23 4.90922e-05
8 *67:12 1.93653e-05
9 *67:8 5.46161e-05
10 *67:6 4.58742e-05
11 *67:8 *122:14 0
12 *67:8 *122:20 0
13 *67:12 *339:6 1.94746e-05
14 *67:12 *339:17 5.62196e-06
15 *67:23 *122:20 2.98532e-06
16 *67:23 *122:26 9.93746e-06
17 *67:29 *464:B 5.41446e-06
18 *67:29 *122:26 3.61852e-06
19 *67:29 *339:19 7.26181e-06
20 *67:42 *455:A2 6.33206e-07
21 *67:42 *455:B 3.65131e-06
22 *67:42 *122:26 7.89622e-06
23 *67:42 *337:23 0
24 *67:42 *338:17 8.33296e-06
25 *66:8 *67:8 0
*RES
1 *706:CON *67:6 34.4 
2 *67:6 *67:8 35.4795 
3 *67:8 *67:12 24.6875 
4 *67:12 *456:B 17.2 
5 *67:12 *67:23 27.337 
6 *67:23 *67:29 36.2626 
7 *67:29 *464:C 17.2 
8 *67:23 *67:42 45.2382 
9 *67:42 *455:A1 34.4 
*END

*D_NET *68 6.66336e-06
*CONN
*I *450:A I *D NAND2x1_ASAP7_75t_R
*I *706:SN O *D HAxp5_ASAP7_75t_R
*CAP
1 *450:A 3.33168e-06
2 *706:SN 3.33168e-06
*RES
1 *706:SN *450:A 36.5393 
*END

*D_NET *69 0.00124642
*CONN
*I *419:A I *D INVx1_ASAP7_75t_R
*I *679:B I *D AND2x2_ASAP7_75t_R
*I *707:A I *D HAxp5_ASAP7_75t_R
*I *505:A2 I *D OA21x2_ASAP7_75t_R
*I *401:QN O *D DFFHQNx1_ASAP7_75t_R
*CAP
1 *419:A 0
2 *679:B 1.01729e-05
3 *707:A 0
4 *505:A2 1.92392e-05
5 *401:QN 3.39214e-05
6 *69:47 2.44949e-05
7 *69:41 3.46677e-05
8 *69:39 0.000145627
9 *69:37 0.000154349
10 *69:31 0.000164638
11 *69:29 0.000160696
12 *69:16 2.40195e-05
13 *69:14 8.0972e-05
14 *69:12 9.75266e-05
15 *69:8 5.0476e-05
16 *679:B *676:B 1.12894e-06
17 *679:B *679:A 2.83874e-07
18 *679:B *707:B 1.07573e-06
19 *679:B *310:27 0
20 *679:B *355:10 9.81516e-06
21 *69:31 *442:A 1.07377e-06
22 *69:31 *229:12 1.46265e-05
23 *69:39 *676:A2 4.10256e-06
24 *69:39 *70:16 5.68258e-05
25 *69:39 *70:24 8.17002e-07
26 *69:39 *355:8 0
27 *69:47 *676:B 1.09842e-06
28 *69:47 *707:B 5.37866e-07
29 *69:47 *310:27 0
30 *69:47 *310:98 0
31 *69:47 *311:14 1.84206e-06
32 *18:10 *505:A2 2.71921e-06
33 *18:14 *69:31 2.29878e-05
34 *18:24 *69:31 4.86935e-05
35 *18:290 *69:29 1.09067e-06
36 *19:34 *69:31 3.16328e-06
37 *19:195 *69:31 2.40873e-05
38 *19:208 *69:31 4.96454e-05
*RES
1 *401:QN *69:8 48.8403 
2 *69:8 *69:12 29.0265 
3 *69:12 *69:14 37.9726 
4 *69:14 *69:16 17.2 
5 *69:16 *505:A2 47.3528 
6 *69:16 *69:29 21.1422 
7 *69:29 *69:31 122.475 
8 *69:31 *69:37 40.0317 
9 *69:37 *69:39 71.1317 
10 *69:39 *69:41 17.2 
11 *69:41 *69:47 33.1067 
12 *69:47 *707:A 17.2 
13 *69:41 *679:B 43.4107 
14 *69:12 *419:A 17.2 
*END

*D_NET *70 0.000575666
*CONN
*I *573:B2 I *D OA22x2_ASAP7_75t_R
*I *576:C I *D AND3x1_ASAP7_75t_R
*I *676:A1 I *D AOI21x1_ASAP7_75t_R
*I *679:A I *D AND2x2_ASAP7_75t_R
*I *707:B I *D HAxp5_ASAP7_75t_R
*I *408:QN O *D DFFHQNx1_ASAP7_75t_R
*CAP
1 *573:B2 4.47465e-06
2 *576:C 1.16787e-05
3 *676:A1 0
4 *679:A 1.05726e-05
5 *707:B 6.02079e-06
6 *408:QN 5.34778e-05
7 *70:68 1.90751e-05
8 *70:28 2.03239e-05
9 *70:24 1.38808e-05
10 *70:16 5.01258e-05
11 *70:14 3.99757e-05
12 *70:12 4.05382e-05
13 *70:6 9.69377e-05
14 *573:B2 *573:A2 1.07377e-06
15 *573:B2 *77:38 1.95129e-06
16 *573:B2 *232:6 2.66797e-07
17 *573:B2 *239:14 8.87763e-06
18 *576:C *239:18 0
19 *679:A *71:10 0
20 *679:A *188:92 5.41446e-06
21 *679:A *313:8 8.58704e-06
22 *679:A *355:10 0
23 *707:B *676:B 1.63973e-05
24 *707:B *310:98 1.98844e-05
25 *70:6 *99:12 0
26 *70:6 *390:53 4.28396e-05
27 *70:12 *239:18 0
28 *70:12 *390:44 1.73158e-06
29 *70:12 *390:53 1.23408e-05
30 *70:24 *676:A2 3.42414e-06
31 *70:24 *71:10 7.75665e-06
32 *70:28 *676:A2 6.7842e-07
33 *70:68 *77:38 1.09842e-06
34 *70:68 *229:86 0
35 *70:68 *239:18 1.6722e-05
36 *679:B *679:A 2.83874e-07
37 *679:B *707:B 1.07573e-06
38 *69:39 *70:16 5.68258e-05
39 *69:39 *70:24 8.17002e-07
40 *69:47 *707:B 5.37866e-07
*RES
1 *408:QN *70:6 43.4064 
2 *70:6 *70:12 35.0229 
3 *70:12 *70:14 17.2 
4 *70:14 *70:16 39.0422 
5 *70:16 *70:24 42.0293 
6 *70:24 *70:28 18.8045 
7 *70:28 *707:B 43.4107 
8 *70:28 *679:A 42.7625 
9 *70:24 *676:A1 17.2 
10 *70:12 *576:C 42.2843 
11 *70:6 *70:68 47.916 
12 *70:68 *573:B2 20.9438 
*END

*D_NET *71 0.000265488
*CONN
*I *677:B I *D AND3x1_ASAP7_75t_R
*I *682:A I *D INVx1_ASAP7_75t_R
*I *707:CON O *D HAxp5_ASAP7_75t_R
*CAP
1 *677:B 8.57301e-06
2 *682:A 0
3 *707:CON 0
4 *71:14 4.62725e-05
5 *71:10 9.95804e-05
6 *71:8 5.78578e-05
7 *71:4 1.31229e-05
8 *677:B *677:A 1.60015e-05
9 *677:B *311:14 7.87913e-06
10 *71:8 *311:14 4.10256e-06
11 *71:14 *315:8 4.34114e-06
12 *679:A *71:10 0
13 *70:24 *71:10 7.75665e-06
*RES
1 *707:CON *71:4 17.2 
2 *71:4 *71:8 19.8741 
3 *71:8 *71:10 33.2268 
4 *71:10 *71:14 41.2671 
5 *71:14 *682:A 17.2 
6 *71:4 *677:B 24.1527 
*END

*D_NET *72 3.293e-05
*CONN
*I *675:B I *D AND3x1_ASAP7_75t_R
*I *707:SN O *D HAxp5_ASAP7_75t_R
*CAP
1 *675:B 0
2 *707:SN 9.72056e-06
3 *72:10 9.72056e-06
4 *72:10 *677:A 1.34888e-05
*RES
1 *707:SN *72:10 40.5098 
2 *72:10 *675:B 34.4 
*END

*D_NET *73 0.00107408
*CONN
*I *655:B I *D AND2x2_ASAP7_75t_R
*I *708:A I *D HAxp5_ASAP7_75t_R
*I *619:B I *D AND3x1_ASAP7_75t_R
*I *422:A I *D INVx1_ASAP7_75t_R
*I *621:A I *D AND3x1_ASAP7_75t_R
*I *415:QN O *D DFFHQNx1_ASAP7_75t_R
*CAP
1 *655:B 0
2 *708:A 0
3 *619:B 4.00505e-06
4 *422:A 4.14995e-06
5 *621:A 0
6 *415:QN 0
7 *73:78 0.000104073
8 *73:76 0.000108775
9 *73:65 5.07003e-05
10 *73:63 6.35106e-05
11 *73:52 2.15173e-05
12 *73:50 1.27927e-05
13 *73:42 5.25105e-05
14 *73:22 1.47316e-05
15 *73:14 0.000128027
16 *73:12 0.0001328
17 *73:8 7.047e-05
18 *73:6 4.68149e-05
19 *73:4 3.97178e-05
20 *619:B *619:C 1.44167e-06
21 *619:B *271:8 1.56713e-06
22 *73:8 *709:A 4.10928e-06
23 *73:12 *709:A 7.68954e-06
24 *73:12 *362:10 1.85834e-05
25 *73:14 *273:6 1.04475e-06
26 *73:22 *176:10 3.6269e-06
27 *73:22 *195:8 0
28 *73:22 *273:6 3.70102e-05
29 *73:42 *229:32 4.7643e-07
30 *73:42 *363:10 0
31 *73:50 *229:32 5.21031e-06
32 *73:50 *229:34 1.88951e-06
33 *73:63 *619:C 3.56648e-06
34 *73:65 *229:28 0
35 *73:65 *299:12 2.25787e-06
36 *73:65 *325:12 1.65842e-06
37 *73:65 *363:10 1.98937e-05
38 *73:76 *75:10 3.95007e-06
39 *73:76 *299:12 1.67815e-06
40 *73:76 *325:12 5.37866e-07
41 *73:78 *297:14 0
42 *73:78 *299:21 4.24961e-06
43 *73:78 *299:34 8.146e-06
44 *655:A *73:78 7.63254e-07
45 *1:33 *73:8 0
46 *2:12 *73:8 1.67815e-06
47 *2:12 *73:12 6.07185e-06
48 *2:21 *73:8 2.77657e-06
49 *11:35 *73:65 2.64405e-05
50 *11:50 *73:65 7.56859e-06
51 *26:18 *73:65 2.36328e-05
52 *46:16 *73:78 2.19694e-05
*RES
1 *415:QN *73:4 17.2 
2 *73:4 *73:6 17.2 
3 *73:6 *73:8 37.169 
4 *73:8 *73:12 38.0371 
5 *73:12 *73:14 66.8531 
6 *73:14 *73:22 48.4472 
7 *73:22 *621:A 17.2 
8 *73:8 *422:A 36.0045 
9 *73:4 *73:42 44.0336 
10 *73:42 *73:50 41.5795 
11 *73:50 *73:52 17.2 
12 *73:52 *619:B 19.8741 
13 *73:52 *73:63 27.3617 
14 *73:63 *73:65 46.1796 
15 *73:65 *708:A 34.4 
16 *73:65 *73:76 21.7053 
17 *73:76 *73:78 51.3432 
18 *73:78 *655:B 17.2 
*END

*D_NET *74 0.000768852
*CONN
*I *666:A I *D INVx1_ASAP7_75t_R
*I *660:C I *D OR3x1_ASAP7_75t_R
*I *653:C I *D AND3x1_ASAP7_75t_R
*I *708:CON O *D HAxp5_ASAP7_75t_R
*CAP
1 *666:A 1.08098e-05
2 *660:C 0
3 *653:C 1.52857e-06
4 *708:CON 0
5 *74:50 1.84468e-05
6 *74:44 6.76241e-05
7 *74:40 8.71601e-05
8 *74:29 5.62501e-05
9 *74:18 3.95371e-05
10 *74:12 5.0193e-05
11 *74:4 4.12616e-05
12 *74:12 *75:10 2.0895e-06
13 *74:12 *229:20 0
14 *74:12 *299:12 8.06436e-06
15 *74:18 *653:B 7.84037e-07
16 *74:18 *229:26 5.19552e-07
17 *74:18 *365:199 5.79724e-07
18 *74:29 *75:10 5.51397e-07
19 *74:29 *299:36 5.34906e-05
20 *74:40 *661:B 8.65792e-06
21 *74:40 *93:10 1.61287e-05
22 *74:40 *180:8 1.09842e-06
23 *74:44 *215:22 9.75645e-06
24 *420:A *74:40 4.10928e-06
25 *535:B *666:A 2.79145e-05
26 *660:A *74:29 3.68287e-06
27 *12:8 *74:40 6.7842e-07
28 *12:59 *74:29 6.92634e-06
29 *12:59 *74:40 7.33734e-05
30 *13:10 *666:A 1.14627e-05
31 *35:29 *74:50 6.33206e-06
32 *35:37 *74:44 0
33 *36:16 *666:A 7.13384e-06
34 *36:31 *666:A 5.41446e-06
35 *37:16 *74:50 1.12894e-06
36 *37:20 *74:44 1.27112e-05
37 *37:24 *74:40 6.33206e-07
38 *46:57 *74:12 3.0511e-05
39 *46:57 *74:29 0.000102308
*RES
1 *708:CON *74:4 17.2 
2 *74:4 *74:12 46.3079 
3 *74:12 *74:18 38.7347 
4 *74:18 *653:C 35.4697 
5 *74:4 *74:29 43.8557 
6 *74:29 *660:C 17.2 
7 *74:29 *74:40 45.2943 
8 *74:40 *74:44 42.3368 
9 *74:44 *74:50 40.0317 
10 *74:50 *666:A 28.9662 
*END

*D_NET *75 7.85824e-05
*CONN
*I *696:A I *D NAND2x1_ASAP7_75t_R
*I *708:SN O *D HAxp5_ASAP7_75t_R
*CAP
1 *696:A 8.2882e-06
2 *708:SN 1.81712e-05
3 *75:10 2.64594e-05
4 *696:A *299:6 1.44167e-06
5 *696:A *299:21 8.146e-06
6 *75:10 *299:12 0
7 *75:10 *325:12 9.48496e-06
8 *73:76 *75:10 3.95007e-06
9 *74:12 *75:10 2.0895e-06
10 *74:29 *75:10 5.51397e-07
*RES
1 *708:SN *75:10 46.0281 
2 *75:10 *696:A 40.8179 
*END

*D_NET *76 0.000220939
*CONN
*I *622:A1 I *D AO21x1_ASAP7_75t_R
*I *709:SN O *D HAxp5_ASAP7_75t_R
*CAP
1 *622:A1 0
2 *709:SN 5.37041e-06
3 *76:18 5.8868e-06
4 *76:12 7.84496e-05
5 *76:10 7.25628e-05
6 *76:8 5.37041e-06
7 *76:8 *363:10 5.52807e-07
8 *76:12 *274:12 5.24776e-05
9 *11:8 *76:8 0
10 *19:98 *76:18 2.68933e-07
*RES
1 *709:SN *76:8 37.779 
2 *76:8 *76:10 17.2 
3 *76:10 *76:12 39.0422 
4 *76:12 *76:18 37.779 
5 *76:18 *622:A1 17.2 
*END

*D_NET *77 0.000704776
*CONN
*I *710:A I *D HAxp5_ASAP7_75t_R
*I *573:A1 I *D OA22x2_ASAP7_75t_R
*I *438:Y O *D INVx1_ASAP7_75t_R
*CAP
1 *710:A 0
2 *573:A1 0
3 *438:Y 2.40737e-05
4 *77:38 1.80751e-05
5 *77:30 7.45486e-05
6 *77:28 6.12209e-05
7 *77:24 6.61085e-05
8 *77:20 6.90091e-05
9 *77:14 0.000148698
10 *77:12 0.000147339
11 *77:6 3.03627e-05
12 *77:6 *710:B 1.73158e-05
13 *77:12 *79:8 0
14 *77:14 *80:6 4.29684e-06
15 *77:14 *238:6 0
16 *77:14 *336:63 2.7707e-05
17 *77:14 *336:76 3.46317e-06
18 *77:38 *573:A2 5.09299e-06
19 *77:38 *239:14 4.41457e-06
20 *77:38 *239:18 0
21 *573:B2 *77:38 1.95129e-06
22 *70:68 *77:38 1.09842e-06
*RES
1 *438:Y *77:6 33.7796 
2 *77:6 *77:12 38.3422 
3 *77:12 *77:14 66.8531 
4 *77:14 *77:20 39.4685 
5 *77:20 *77:24 49.8243 
6 *77:24 *77:28 20.0158 
7 *77:28 *77:30 33.694 
8 *77:30 *77:38 47.1544 
9 *77:38 *573:A1 17.2 
10 *77:6 *710:A 17.2 
*END

*D_NET *78 2.86359e-05
*CONN
*I *710:B I *D HAxp5_ASAP7_75t_R
*I *440:Y O *D INVx1_ASAP7_75t_R
*CAP
1 *710:B 5.66003e-06
2 *440:Y 5.66003e-06
3 *77:6 *710:B 1.73158e-05
*RES
1 *440:Y *710:B 39.7482 
*END

*D_NET *79 0.000339234
*CONN
*I *585:C I *D AND3x1_ASAP7_75t_R
*I *598:C I *D OR3x1_ASAP7_75t_R
*I *710:CON O *D HAxp5_ASAP7_75t_R
*CAP
1 *585:C 0
2 *598:C 1.21052e-05
3 *710:CON 5.46379e-06
4 *79:39 2.80141e-05
5 *79:24 4.54433e-05
6 *79:20 3.91619e-05
7 *79:14 5.65103e-05
8 *79:8 2.81362e-05
9 *79:14 *361:14 4.32896e-05
10 *79:20 *438:A 4.80234e-06
11 *79:24 *255:10 1.52382e-05
12 *79:39 *255:10 4.97847e-05
13 *79:39 *336:48 8.23084e-06
14 *79:39 *336:55 3.05302e-06
15 *77:12 *79:8 0
*RES
1 *710:CON *79:8 37.779 
2 *79:8 *79:14 47.7706 
3 *79:14 *79:20 33.9496 
4 *79:20 *79:24 22.2685 
5 *79:24 *598:C 40.8179 
6 *79:24 *79:39 42.1457 
7 *79:39 *585:C 17.2 
*END

*D_NET *80 7.91864e-05
*CONN
*I *580:C I *D AND3x1_ASAP7_75t_R
*I *710:SN O *D HAxp5_ASAP7_75t_R
*CAP
1 *580:C 0
2 *710:SN 3.02414e-05
3 *80:6 3.02414e-05
4 *80:6 *336:63 1.65419e-06
5 *80:6 *336:76 1.04475e-06
6 *80:6 *365:118 1.17077e-05
7 *77:14 *80:6 4.29684e-06
*RES
1 *710:SN *80:6 35.384 
2 *80:6 *580:C 17.2 
*END

*D_NET *81 0.00024379
*CONN
*I *639:A1 I *D AO21x1_ASAP7_75t_R
*I *637:A I *D INVx1_ASAP7_75t_R
*I *711:CON O *D HAxp5_ASAP7_75t_R
*CAP
1 *639:A1 8.14845e-06
2 *637:A 5.51138e-06
3 *711:CON 5.38068e-06
4 *81:25 3.767e-05
5 *81:10 7.27969e-05
6 *81:8 4.31446e-05
7 *639:A1 *639:B 4.26607e-06
8 *81:8 *711:B 2.34246e-06
9 *81:10 *188:185 0
10 *642:A *81:25 1.65766e-05
11 *23:14 *81:25 7.00659e-06
12 *23:27 *639:A1 2.31409e-07
13 *24:18 *81:10 4.07149e-05
*RES
1 *711:CON *81:8 37.0741 
2 *81:8 *81:10 35.4795 
3 *81:10 *637:A 37.779 
4 *81:10 *81:25 48.8403 
5 *81:25 *639:A1 38.8486 
*END

*D_NET *82 1.42606e-05
*CONN
*I *634:B2 I *D OAI22x1_ASAP7_75t_R
*I *711:SN O *D HAxp5_ASAP7_75t_R
*CAP
1 *634:B2 4.45893e-06
2 *711:SN 4.45893e-06
3 *634:B2 *634:B1 5.34278e-06
*RES
1 *711:SN *634:B2 38.1438 
*END

*D_NET *83 4.43313e-05
*CONN
*I *392:D I *D DFFHQNx1_ASAP7_75t_R
*I *447:Y O *D OA21x2_ASAP7_75t_R
*CAP
1 *392:D 3.73918e-06
2 *447:Y 1.32854e-05
3 *83:8 1.70246e-05
4 *83:8 *119:12 8.23168e-06
5 *83:8 *119:14 2.05045e-06
*RES
1 *447:Y *83:8 43.4107 
2 *83:8 *392:D 36.0045 
*END

*D_NET *84 6.35374e-05
*CONN
*I *393:D I *D DFFHQNx1_ASAP7_75t_R
*I *453:Y O *D AO21x1_ASAP7_75t_R
*CAP
1 *393:D 3.0877e-05
2 *453:Y 3.0877e-05
3 *393:D *393:CLK 1.78333e-06
4 *2:23 *393:D 0
*RES
1 *453:Y *393:D 48.8403 
*END

*D_NET *85 4.19796e-05
*CONN
*I *394:D I *D DFFHQNx1_ASAP7_75t_R
*I *458:Y O *D OA21x2_ASAP7_75t_R
*CAP
1 *394:D 1.67919e-05
2 *458:Y 1.67919e-05
3 *394:D *389:26 8.39579e-06
*RES
1 *458:Y *394:D 43.492 
*END

*D_NET *86 4.59335e-05
*CONN
*I *395:D I *D DFFHQNx1_ASAP7_75t_R
*I *463:Y O *D OA21x2_ASAP7_75t_R
*CAP
1 *395:D 1.82424e-05
2 *463:Y 1.82424e-05
3 *395:D *389:57 9.44869e-06
*RES
1 *463:Y *395:D 43.492 
*END

*D_NET *87 4.3779e-05
*CONN
*I *396:D I *D DFFHQNx1_ASAP7_75t_R
*I *468:Y O *D OA21x2_ASAP7_75t_R
*CAP
1 *396:D 2.18895e-05
2 *468:Y 2.18895e-05
*RES
1 *468:Y *396:D 43.492 
*END

*D_NET *88 3.12776e-05
*CONN
*I *397:D I *D DFFHQNx1_ASAP7_75t_R
*I *473:Y O *D OA21x2_ASAP7_75t_R
*CAP
1 *397:D 0
2 *473:Y 8.81708e-06
3 *88:10 8.81708e-06
4 *88:10 *142:20 2.45021e-07
5 *5:27 *88:10 8.13414e-06
6 *6:20 *88:10 5.2643e-06
*RES
1 *473:Y *88:10 41.0446 
2 *88:10 *397:D 34.4 
*END

*D_NET *89 9.47256e-05
*CONN
*I *398:D I *D DFFHQNx1_ASAP7_75t_R
*I *478:Y O *D OA21x2_ASAP7_75t_R
*CAP
1 *398:D 0
2 *478:Y 4.73628e-05
3 *89:6 4.73628e-05
*RES
1 *478:Y *89:6 35.9189 
2 *89:6 *398:D 17.2 
*END

*D_NET *90 2.35807e-05
*CONN
*I *399:D I *D DFFHQNx1_ASAP7_75t_R
*I *485:Y O *D AO21x1_ASAP7_75t_R
*CAP
1 *399:D 0
2 *485:Y 7.00834e-06
3 *90:10 7.00834e-06
4 *90:10 *152:10 5.37569e-06
5 *90:10 *388:51 3.68287e-06
6 *8:6 *90:10 5.0551e-07
*RES
1 *485:Y *90:10 39.975 
2 *90:10 *399:D 34.4 
*END

*D_NET *91 3.32237e-05
*CONN
*I *400:D I *D DFFHQNx1_ASAP7_75t_R
*I *488:Y O *D OA21x2_ASAP7_75t_R
*CAP
1 *400:D 0
2 *488:Y 9.15012e-06
3 *91:8 9.15012e-06
4 *91:8 *388:12 1.30409e-05
5 *91:8 *388:20 1.88253e-06
*RES
1 *488:Y *91:8 43.4107 
2 *91:8 *400:D 34.4 
*END

*D_NET *92 3.93883e-05
*CONN
*I *401:D I *D DFFHQNx1_ASAP7_75t_R
*I *506:Y O *D NOR2x1_ASAP7_75t_R
*CAP
1 *401:D 1.96941e-05
2 *506:Y 1.96941e-05
*RES
1 *506:Y *401:D 43.492 
*END

*D_NET *93 0.000369828
*CONN
*I *402:D I *D DFFHQNx1_ASAP7_75t_R
*I *516:Y O *D OA21x2_ASAP7_75t_R
*CAP
1 *402:D 6.72889e-06
2 *516:Y 3.85792e-06
3 *93:10 9.65755e-05
4 *93:8 9.37045e-05
5 *402:D *402:CLK 5.0551e-07
6 *93:10 *94:8 0
7 *93:10 *180:8 6.79803e-06
8 *93:10 *180:10 1.09067e-06
9 *93:10 *180:14 6.87273e-06
10 *93:10 *391:37 3.54456e-05
11 *12:10 *93:10 6.33425e-05
12 *12:59 *93:10 4.10928e-06
13 *18:52 *93:8 2.03526e-06
14 *18:58 *93:10 7.72763e-06
15 *18:67 *93:10 2.26774e-05
16 *37:24 *93:10 2.22736e-06
17 *74:40 *93:10 1.61287e-05
*RES
1 *516:Y *93:8 36.0045 
2 *93:8 *93:10 85.0381 
3 *93:10 *402:D 37.0741 
*END

*D_NET *94 0.000496082
*CONN
*I *403:D I *D DFFHQNx1_ASAP7_75t_R
*I *527:Y O *D OA211x2_ASAP7_75t_R
*CAP
1 *403:D 1.68512e-05
2 *527:Y 0
3 *94:8 0.000122593
4 *94:6 0.000105742
5 *403:D *403:CLK 3.73144e-06
6 *403:D *391:22 8.99409e-06
7 *94:8 *172:128 0.000125625
8 *94:8 *188:31 4.49185e-06
9 *94:8 *391:37 0
10 *12:10 *94:8 7.75e-06
11 *12:59 *94:8 1.12894e-06
12 *18:46 *94:8 4.20917e-06
13 *18:112 *94:8 2.11406e-05
14 *19:38 *94:8 2.43179e-05
15 *19:50 *94:8 4.90164e-05
16 *19:58 *94:8 4.90042e-07
17 *93:10 *94:8 0
*RES
1 *527:Y *94:6 34.4 
2 *94:6 *94:8 104.749 
3 *94:8 *403:D 43.492 
*END

*D_NET *95 0.000149863
*CONN
*I *404:D I *D DFFHQNx1_ASAP7_75t_R
*I *538:Y O *D OA211x2_ASAP7_75t_R
*CAP
1 *404:D 6.22522e-06
2 *538:Y 0
3 *95:10 4.09028e-05
4 *95:6 3.46776e-05
5 *404:D *391:56 7.72307e-07
6 *95:10 *215:22 0
7 *95:10 *301:12 1.07346e-05
8 *95:10 *351:8 0
9 *13:88 *95:10 0
10 *18:28 *95:10 0
11 *35:29 *95:10 4.11131e-05
12 *35:37 *95:10 1.54378e-05
13 *36:10 *95:10 0
14 *36:16 *95:10 0
15 *37:10 *95:10 0
16 *37:16 *95:10 0
*RES
1 *538:Y *95:6 34.4 
2 *95:6 *95:10 48.1741 
3 *95:10 *404:D 19.8741 
*END

*D_NET *96 6.83769e-05
*CONN
*I *405:D I *D DFFHQNx1_ASAP7_75t_R
*I *547:Y O *D OA31x2_ASAP7_75t_R
*CAP
1 *405:D 4.47046e-06
2 *547:Y 1.26292e-05
3 *96:8 1.70997e-05
4 *96:8 *155:18 3.41776e-05
*RES
1 *547:Y *96:8 46.2265 
2 *96:8 *405:D 36.0045 
*END

*D_NET *97 5.01715e-05
*CONN
*I *406:D I *D DFFHQNx1_ASAP7_75t_R
*I *553:Y O *D OA211x2_ASAP7_75t_R
*CAP
1 *406:D 2.50858e-05
2 *553:Y 2.50858e-05
*RES
1 *553:Y *406:D 47.7706 
*END

*D_NET *98 6.88668e-05
*CONN
*I *407:D I *D DFFHQNx1_ASAP7_75t_R
*I *568:Y O *D OA211x2_ASAP7_75t_R
*CAP
1 *407:D 4.83884e-06
2 *568:Y 1.03806e-05
3 *98:8 1.52195e-05
4 *407:D *211:14 2.03526e-06
5 *407:D *211:20 6.7842e-07
6 *98:8 *211:33 3.57142e-05
7 *32:21 *98:8 0
*RES
1 *568:Y *98:8 46.2265 
2 *98:8 *407:D 36.0045 
*END

*D_NET *99 9.33626e-05
*CONN
*I *408:D I *D DFFHQNx1_ASAP7_75t_R
*I *574:Y O *D AOI21x1_ASAP7_75t_R
*CAP
1 *408:D 0
2 *574:Y 5.71778e-06
3 *99:12 3.89274e-05
4 *99:8 4.46452e-05
5 *99:12 *390:53 4.07216e-06
6 *70:6 *99:12 0
*RES
1 *574:Y *99:8 37.779 
2 *99:8 *99:12 34.8492 
3 *99:12 *408:D 17.2 
*END

*D_NET *100 7.40604e-05
*CONN
*I *409:D I *D DFFHQNx1_ASAP7_75t_R
*I *583:Y O *D NOR2x1_ASAP7_75t_R
*CAP
1 *409:D 3.10089e-05
2 *583:Y 5.8868e-06
3 *100:8 3.68957e-05
4 *100:8 *583:A 2.68933e-07
5 *31:8 *100:8 0
*RES
1 *583:Y *100:8 37.779 
2 *100:8 *409:D 48.8403 
*END

*D_NET *101 3.75512e-05
*CONN
*I *410:D I *D DFFHQNx1_ASAP7_75t_R
*I *590:Y O *D AND2x2_ASAP7_75t_R
*CAP
1 *410:D 0
2 *590:Y 1.02823e-05
3 *101:10 1.02823e-05
4 *101:10 *117:28 1.76928e-06
5 *101:10 *319:8 2.45021e-07
6 *101:10 *390:70 1.47272e-05
7 *101:10 *390:74 2.45021e-07
*RES
1 *590:Y *101:10 42.6491 
2 *101:10 *410:D 34.4 
*END

*D_NET *102 2.0199e-05
*CONN
*I *411:D I *D DFFHQNx1_ASAP7_75t_R
*I *597:Y O *D AND2x2_ASAP7_75t_R
*CAP
1 *411:D 4.15277e-06
2 *597:Y 5.94671e-06
3 *102:8 1.00995e-05
*RES
1 *597:Y *102:8 37.779 
2 *102:8 *411:D 36.0045 
*END

*D_NET *103 4.41043e-05
*CONN
*I *412:D I *D DFFHQNx1_ASAP7_75t_R
*I *603:Y O *D AND2x2_ASAP7_75t_R
*CAP
1 *412:D 0
2 *603:Y 2.08355e-05
3 *103:10 2.08355e-05
4 *103:10 *117:170 2.66797e-07
5 *103:10 *390:93 0
6 *103:10 *390:99 2.1664e-06
*RES
1 *603:Y *103:10 47.831 
2 *103:10 *412:D 34.4 
*END

*D_NET *104 3.00244e-05
*CONN
*I *413:D I *D DFFHQNx1_ASAP7_75t_R
*I *609:Y O *D AND2x2_ASAP7_75t_R
*CAP
1 *413:D 0
2 *609:Y 1.29621e-05
3 *104:10 1.29621e-05
4 *104:10 *609:A 3.81627e-06
5 *104:10 *261:20 0
6 *104:10 *266:10 2.83874e-07
*RES
1 *609:Y *104:10 41.5228 
2 *104:10 *413:D 34.4 
*END

*D_NET *105 2.07391e-05
*CONN
*I *414:D I *D DFFHQNx1_ASAP7_75t_R
*I *615:Y O *D AND2x2_ASAP7_75t_R
*CAP
1 *414:D 0
2 *615:Y 1.02201e-05
3 *105:10 1.02201e-05
4 *105:10 *414:CLK 2.98814e-07
5 *105:10 *267:8 0
*RES
1 *615:Y *105:10 39.3835 
2 *105:10 *414:D 34.4 
*END

*D_NET *106 4.85973e-05
*CONN
*I *415:D I *D DFFHQNx1_ASAP7_75t_R
*I *625:Y O *D AND3x1_ASAP7_75t_R
*CAP
1 *415:D 1.85123e-05
2 *625:Y 5.78631e-06
3 *106:8 2.42987e-05
*RES
1 *625:Y *106:8 37.779 
2 *106:8 *415:D 40.2831 
*END

*D_NET *107 0.000120157
*CONN
*I *416:D I *D DFFHQNx1_ASAP7_75t_R
*I *630:Y O *D OA211x2_ASAP7_75t_R
*CAP
1 *416:D 0
2 *630:Y 3.51661e-06
3 *107:10 5.46648e-05
4 *107:8 5.81814e-05
5 *107:8 *630:C 1.56713e-06
6 *107:10 *278:8 2.22736e-06
7 *107:10 *297:12 0
8 *46:16 *107:10 0
9 *46:18 *107:10 0
*RES
1 *630:Y *107:8 36.0045 
2 *107:8 *107:10 37.169 
3 *107:10 *416:D 34.4 
*END

*D_NET *108 5.08526e-05
*CONN
*I *714:D I *D DFFHQNx1_ASAP7_75t_R
*I *633:Y O *D OA21x2_ASAP7_75t_R
*CAP
1 *714:D 1.74206e-05
2 *633:Y 1.74206e-05
3 *714:D *714:CLK 1.60115e-05
*RES
1 *633:Y *714:D 43.492 
*END

*D_NET *109 4.27176e-05
*CONN
*I *715:D I *D DFFHQNx1_ASAP7_75t_R
*I *635:Y O *D AND2x2_ASAP7_75t_R
*CAP
1 *715:D 0
2 *635:Y 1.35667e-05
3 *109:10 1.35667e-05
4 *24:12 *109:10 1.55843e-05
*RES
1 *635:Y *109:10 42.5924 
2 *109:10 *715:D 34.4 
*END

*D_NET *110 7.96026e-05
*CONN
*I *716:D I *D DFFHQNx1_ASAP7_75t_R
*I *641:Y O *D AND2x2_ASAP7_75t_R
*CAP
1 *716:D 3.98013e-05
2 *641:Y 3.98013e-05
3 *716:D *716:CLK 0
*RES
1 *641:Y *716:D 48.8403 
*END

*D_NET *111 2.3455e-05
*CONN
*I *717:D I *D DFFHQNx1_ASAP7_75t_R
*I *644:Y O *D NOR2x1_ASAP7_75t_R
*CAP
1 *717:D 0
2 *644:Y 7.34864e-06
3 *111:10 7.34864e-06
4 *111:10 *156:101 5.97901e-06
5 *111:10 *290:12 5.51397e-07
6 *111:10 *391:101 2.22736e-06
*RES
1 *644:Y *111:10 40.5098 
2 *111:10 *717:D 34.4 
*END

*D_NET *112 9.82418e-06
*CONN
*I *718:D I *D DFFHQNx1_ASAP7_75t_R
*I *647:Y O *D OA211x2_ASAP7_75t_R
*CAP
1 *718:D 0
2 *647:Y 3.79841e-06
3 *112:8 3.79841e-06
4 *112:8 *117:149 2.22736e-06
*RES
1 *647:Y *112:8 37.779 
2 *112:8 *718:D 34.4 
*END

*D_NET *113 2.23894e-05
*CONN
*I *719:D I *D DFFHQNx1_ASAP7_75t_R
*I *649:Y O *D OA211x2_ASAP7_75t_R
*CAP
1 *719:D 0
2 *649:Y 1.0115e-05
3 *113:10 1.0115e-05
4 *113:10 *649:B 1.86049e-06
5 *113:10 *719:CLK 2.98814e-07
*RES
1 *649:Y *113:10 39.3835 
2 *113:10 *719:D 34.4 
*END

*D_NET *114 5.4768e-05
*CONN
*I *720:D I *D DFFHQNx1_ASAP7_75t_R
*I *651:Y O *D NOR2x1_ASAP7_75t_R
*CAP
1 *720:D 1.84026e-05
2 *651:Y 1.84026e-05
3 *720:D *720:CLK 8.87763e-06
4 *720:D *391:168 9.08513e-06
*RES
1 *651:Y *720:D 43.492 
*END

*D_NET *115 3.88721e-05
*CONN
*I *721:D I *D DFFHQNx1_ASAP7_75t_R
*I *652:Y O *D AND2x2_ASAP7_75t_R
*CAP
1 *721:D 1.94361e-05
2 *652:Y 1.94361e-05
3 *721:D *391:139 0
*RES
1 *652:Y *721:D 43.492 
*END

*D_NET *116 0.000222861
*CONN
*P res_ready I
*I *441:A I *D BUFx2_ASAP7_75t_R
*CAP
1 res_ready 5.07763e-05
2 *441:A 0
3 *116:15 1.81109e-05
4 *116:7 6.88872e-05
5 *116:7 *120:9 8.39081e-05
6 *116:15 *120:9 9.10106e-07
7 *116:15 *347:14 2.68933e-07
8 *116:15 *364:79 0
*RES
1 res_ready *116:7 48.2673 
2 *116:7 *116:15 40.7606 
3 *116:15 *441:A 17.2 
*END

*D_NET *117 0.00338123
*CONN
*I *633:B I *D OA21x2_ASAP7_75t_R
*I *652:A I *D AND2x2_ASAP7_75t_R
*I *590:A I *D AND2x2_ASAP7_75t_R
*I *603:A I *D AND2x2_ASAP7_75t_R
*I *597:A I *D AND2x2_ASAP7_75t_R
*I *647:C I *D OA211x2_ASAP7_75t_R
*I *609:A I *D AND2x2_ASAP7_75t_R
*I *649:C I *D OA211x2_ASAP7_75t_R
*I *625:A I *D AND3x1_ASAP7_75t_R
*I *444:A I *D NAND2x1_ASAP7_75t_R
*I *446:A1 I *D AO21x1_ASAP7_75t_R
*I *615:A I *D AND2x2_ASAP7_75t_R
*I *451:A I *D AND2x2_ASAP7_75t_R
*I *442:Y O *D INVx1_ASAP7_75t_R
*CAP
1 *633:B 0
2 *652:A 1.38965e-05
3 *590:A 0
4 *603:A 0
5 *597:A 1.10656e-05
6 *647:C 0
7 *609:A 7.63873e-06
8 *649:C 1.20549e-05
9 *625:A 0
10 *444:A 0
11 *446:A1 2.32184e-06
12 *615:A 0
13 *451:A 4.13668e-05
14 *442:Y 0
15 *117:214 4.18565e-05
16 *117:210 6.12523e-05
17 *117:178 2.02336e-05
18 *117:170 8.01632e-05
19 *117:168 7.09952e-05
20 *117:166 2.22785e-05
21 *117:164 2.90145e-05
22 *117:160 1.14392e-05
23 *117:149 1.50854e-05
24 *117:141 7.16209e-05
25 *117:139 5.65355e-05
26 *117:112 5.75361e-05
27 *117:110 5.95907e-05
28 *117:106 1.41095e-05
29 *117:104 3.81471e-05
30 *117:84 3.8446e-05
31 *117:78 6.66183e-05
32 *117:74 9.09358e-05
33 *117:65 2.0812e-05
34 *117:54 7.3418e-05
35 *117:50 9.75499e-05
36 *117:46 6.69813e-05
37 *117:44 6.84547e-05
38 *117:42 9.68193e-05
39 *117:40 3.6724e-05
40 *117:38 2.42092e-05
41 *117:32 5.85398e-05
42 *117:30 5.50319e-05
43 *117:28 0.000234169
44 *117:26 0.000234169
45 *117:24 4.01641e-05
46 *117:16 5.85256e-05
47 *117:12 0.000106242
48 *117:10 0.000135828
49 *117:6 1.46551e-05
50 *446:A1 *121:10 5.62196e-06
51 *446:A1 *121:14 6.7842e-07
52 *451:A *118:89 2.76607e-05
53 *597:A *603:B 5.34278e-06
54 *597:A *252:22 5.25794e-06
55 *649:C *649:B 3.89037e-06
56 *649:C *388:86 9.62348e-06
57 *652:A *571:A2 1.07377e-06
58 *652:A *652:B 1.40419e-08
59 *652:A *156:64 3.42518e-07
60 *117:10 *118:238 3.02266e-05
61 *117:12 *156:64 3.73144e-06
62 *117:16 *156:64 3.99766e-06
63 *117:24 *118:45 5.71404e-06
64 *117:24 *230:20 2.19448e-07
65 *117:28 *577:B 1.26378e-06
66 *117:28 *582:A2 6.7842e-07
67 *117:28 *390:70 0
68 *117:28 *390:123 0
69 *117:32 *188:141 0.000172157
70 *117:32 *324:12 8.93996e-06
71 *117:38 *607:A2 6.7842e-07
72 *117:38 *188:145 2.03526e-06
73 *117:40 *188:141 8.06436e-06
74 *117:40 *188:156 6.30218e-06
75 *117:40 *261:8 2.73885e-05
76 *117:42 *188:156 3.16603e-06
77 *117:42 *266:10 4.00374e-05
78 *117:44 *266:10 0.000106359
79 *117:54 *118:83 0
80 *117:54 *118:89 0
81 *117:54 *388:94 0
82 *117:65 *118:83 0
83 *117:65 *388:94 0
84 *117:84 *118:106 3.02222e-05
85 *117:84 *119:10 3.80537e-06
86 *117:84 *121:10 8.06436e-06
87 *117:84 *126:12 0
88 *117:104 *229:48 9.0319e-06
89 *117:104 *344:66 2.465e-05
90 *117:110 *388:86 2.11564e-06
91 *117:112 *229:48 1.30524e-05
92 *117:141 *390:12 8.87763e-06
93 *117:141 *390:14 0.000102591
94 *117:149 *291:12 3.46317e-06
95 *117:149 *292:10 2.35211e-06
96 *117:164 *589:B 5.01773e-06
97 *117:164 *590:B 1.52651e-06
98 *117:166 *588:A2 1.48032e-05
99 *117:166 *188:98 1.10101e-05
100 *117:170 *390:87 1.41964e-05
101 *117:178 *603:B 2.96818e-06
102 *117:214 *118:238 0
103 *117:214 *118:255 0
104 *117:214 *391:127 3.01597e-06
105 *117:214 *391:146 4.7909e-06
106 *117:214 *391:159 5.37866e-07
107 *571:A1 *652:A 0
108 *571:A1 *117:16 0
109 *588:A1 *117:166 3.64592e-05
110 *18:229 *117:12 4.24286e-05
111 *18:229 *117:210 6.84893e-06
112 *19:32 *117:10 3.05199e-05
113 *19:32 *117:214 0
114 *26:8 *117:44 2.22736e-06
115 *26:25 *117:42 3.3563e-06
116 *26:25 *117:44 2.32195e-05
117 *26:46 *117:32 0
118 *27:10 *117:42 1.07573e-06
119 *27:23 *117:42 5.37866e-07
120 *27:42 *117:32 4.22193e-05
121 *27:42 *117:160 2.63526e-06
122 *27:42 *117:166 3.01489e-05
123 *28:33 *117:166 9.78415e-06
124 *31:64 *117:166 3.86392e-05
125 *101:10 *117:28 1.76928e-06
126 *103:10 *117:170 2.66797e-07
127 *104:10 *609:A 3.81627e-06
128 *112:8 *117:149 2.22736e-06
*RES
1 *442:Y *117:6 34.4 
2 *117:6 *117:10 40.2898 
3 *117:10 *117:12 50.8084 
4 *117:12 *117:16 20.8606 
5 *117:16 *117:24 48.0146 
6 *117:24 *117:26 17.2 
7 *117:26 *117:28 105.361 
8 *117:28 *117:30 17.2 
9 *117:30 *117:32 62.5114 
10 *117:32 *117:38 37.0741 
11 *117:38 *117:40 17.4581 
12 *117:40 *117:42 19.7108 
13 *117:42 *117:44 69.2694 
14 *117:44 *117:46 17.2 
15 *117:46 *117:50 41.2671 
16 *117:50 *117:54 40.853 
17 *117:54 *451:A 46.6154 
18 *117:50 *117:65 33.5318 
19 *117:65 *615:A 17.2 
20 *117:46 *117:74 29.501 
21 *117:74 *117:78 39.7266 
22 *117:78 *117:84 40.8777 
23 *117:84 *446:A1 36.0045 
24 *117:78 *444:A 17.2 
25 *117:74 *117:104 44.9862 
26 *117:104 *117:106 17.2 
27 *117:106 *117:110 18.8895 
28 *117:110 *117:112 33.1591 
29 *117:112 *625:A 17.2 
30 *117:106 *649:C 44.4803 
31 *117:42 *609:A 39.2134 
32 *117:40 *117:139 17.2 
33 *117:139 *117:141 33.694 
34 *117:141 *117:149 46.733 
35 *117:149 *647:C 17.2 
36 *117:30 *117:160 21.0855 
37 *117:160 *117:164 21.4786 
38 *117:164 *117:166 33.2268 
39 *117:166 *117:168 17.2 
40 *117:168 *117:170 45.4601 
41 *117:170 *117:178 40.9029 
42 *117:178 *597:A 27.3617 
43 *117:178 *603:A 17.2 
44 *117:160 *590:A 17.2 
45 *117:16 *652:A 42.2258 
46 *117:10 *117:210 26.292 
47 *117:210 *117:214 48.1741 
48 *117:214 *633:B 17.2 
*END

*D_NET *118 0.00359154
*CONN
*I *633:A1 I *D OA21x2_ASAP7_75t_R
*I *489:B I *D OR2x2_ASAP7_75t_R
*I *515:B I *D NOR2x1_ASAP7_75t_R
*I *571:B I *D AO21x1_ASAP7_75t_R
*I *589:A1 I *D AO21x1_ASAP7_75t_R
*I *602:A1 I *D AO21x1_ASAP7_75t_R
*I *596:A1 I *D AO21x1_ASAP7_75t_R
*I *647:A2 I *D OA211x2_ASAP7_75t_R
*I *620:A1 I *D AOI21x1_ASAP7_75t_R
*I *646:B I *D NAND2x1_ASAP7_75t_R
*I *608:A1 I *D AO21x1_ASAP7_75t_R
*I *614:A1 I *D AO21x1_ASAP7_75t_R
*I *444:B I *D NAND2x1_ASAP7_75t_R
*I *446:A2 I *D AO21x1_ASAP7_75t_R
*I *451:B I *D AND2x2_ASAP7_75t_R
*I *582:A1 I *D OA21x2_ASAP7_75t_R
*I *443:Y O *D AND3x1_ASAP7_75t_R
*CAP
1 *633:A1 0
2 *489:B 0
3 *515:B 0
4 *571:B 0
5 *589:A1 0
6 *602:A1 0
7 *596:A1 0
8 *647:A2 2.1211e-05
9 *620:A1 0
10 *646:B 0
11 *608:A1 0
12 *614:A1 0
13 *444:B 0
14 *446:A2 0
15 *451:B 0
16 *582:A1 3.9114e-06
17 *443:Y 1.49597e-05
18 *118:255 2.13713e-05
19 *118:238 4.39229e-05
20 *118:236 4.39229e-05
21 *118:234 3.24626e-05
22 *118:227 4.34966e-05
23 *118:203 1.94249e-05
24 *118:195 2.31522e-05
25 *118:189 5.70516e-05
26 *118:185 9.39209e-05
27 *118:179 4.85984e-05
28 *118:157 4.1843e-05
29 *118:155 8.52966e-05
30 *118:146 6.08403e-05
31 *118:142 4.90663e-05
32 *118:138 3.65247e-05
33 *118:117 4.00081e-05
34 *118:106 1.62966e-05
35 *118:98 0.000135249
36 *118:96 7.89445e-05
37 *118:89 4.0301e-05
38 *118:83 0.000106192
39 *118:81 0.000110663
40 *118:79 6.45139e-05
41 *118:75 3.1327e-05
42 *118:67 3.76408e-05
43 *118:65 8.76641e-05
44 *118:63 9.49243e-05
45 *118:55 1.5262e-05
46 *118:53 5.54528e-05
47 *118:51 5.79768e-05
48 *118:45 2.44673e-05
49 *118:30 4.6204e-05
50 *118:28 3.65978e-05
51 *118:20 1.62485e-05
52 *118:18 5.82078e-05
53 *118:12 7.21407e-05
54 *118:8 6.12979e-05
55 *582:A1 *582:A2 2.03526e-06
56 *647:A2 *292:10 0
57 *118:8 *229:8 9.80483e-06
58 *118:12 *229:8 8.30335e-06
59 *118:12 *391:139 5.63702e-07
60 *118:18 *188:82 4.24332e-05
61 *118:18 *230:14 3.38221e-06
62 *118:28 *571:A2 8.3281e-06
63 *118:28 *230:14 9.425e-07
64 *118:28 *230:89 1.13383e-05
65 *118:28 *240:8 6.7842e-07
66 *118:30 *582:A2 3.48165e-06
67 *118:30 *240:8 0
68 *118:45 *230:20 8.95733e-06
69 *118:45 *234:8 9.22307e-06
70 *118:51 *188:90 4.94008e-06
71 *118:53 *188:92 0.000330498
72 *118:53 *188:98 1.711e-05
73 *118:53 *230:24 0.000363607
74 *118:53 *243:14 9.08513e-06
75 *118:63 *230:28 5.52807e-07
76 *118:65 *230:28 5.9334e-05
77 *118:65 *230:34 1.77396e-05
78 *118:65 *261:20 7.19438e-05
79 *118:65 *336:59 2.30409e-05
80 *118:65 *365:118 3.3448e-05
81 *118:75 *260:10 3.16603e-06
82 *118:75 *268:6 2.27479e-06
83 *118:75 *336:113 1.62312e-05
84 *118:79 *608:A2 3.56648e-06
85 *118:79 *260:10 1.4417e-05
86 *118:81 *265:14 0
87 *118:81 *334:40 2.71272e-05
88 *118:83 *265:14 0
89 *118:83 *267:8 0
90 *118:89 *125:10 2.03526e-06
91 *118:106 *121:10 5.0551e-07
92 *118:106 *126:6 3.89037e-06
93 *118:117 *388:86 0
94 *118:138 *268:6 1.29186e-05
95 *118:138 *336:113 0.000114494
96 *118:142 *646:A 1.12894e-06
97 *118:146 *646:A 2.88806e-06
98 *118:146 *292:10 3.05302e-06
99 *118:155 *292:10 3.05302e-06
100 *118:157 *270:18 3.76935e-06
101 *118:179 *243:22 5.32229e-06
102 *118:185 *601:B1 1.38701e-06
103 *118:185 *188:104 1.01102e-06
104 *118:185 *230:56 5.39162e-06
105 *118:185 *251:12 5.3219e-06
106 *118:189 *252:8 2.9678e-06
107 *118:195 *255:10 1.59725e-05
108 *118:227 *364:40 1.49313e-05
109 *118:234 *180:79 7.15161e-06
110 *118:234 *364:40 2.71274e-05
111 *118:238 *364:42 5.75386e-05
112 *118:238 *364:44 3.95007e-06
113 *118:255 *180:79 9.16563e-06
114 *451:A *118:89 2.76607e-05
115 *571:A1 *118:28 2.63006e-07
116 *19:8 *118:255 0
117 *19:32 *118:238 2.52593e-06
118 *19:38 *118:238 0
119 *21:21 *118:157 5.38457e-05
120 *45:8 *118:106 0
121 *117:10 *118:238 3.02266e-05
122 *117:24 *118:45 5.71404e-06
123 *117:54 *118:83 0
124 *117:54 *118:89 0
125 *117:65 *118:83 0
126 *117:84 *118:106 3.02222e-05
127 *117:214 *118:238 0
128 *117:214 *118:255 0
*RES
1 *443:Y *118:8 48.4791 
2 *118:8 *118:12 29.5897 
3 *118:12 *118:18 47.9684 
4 *118:18 *118:20 17.2 
5 *118:20 *118:28 45.2949 
6 *118:28 *118:30 9.09202 
7 *118:30 *582:A1 18.8045 
8 *118:30 *118:45 43.3125 
9 *118:45 *118:51 36.1834 
10 *118:51 *118:53 112.848 
11 *118:53 *118:55 17.2 
12 *118:55 *118:63 39.89 
13 *118:63 *118:65 99.6804 
14 *118:65 *118:67 17.2 
15 *118:67 *118:75 45.9714 
16 *118:75 *118:79 33.7796 
17 *118:79 *118:81 35.4795 
18 *118:81 *118:83 52.3744 
19 *118:83 *118:89 46.9555 
20 *118:89 *451:B 17.2 
21 *118:83 *118:96 17.2 
22 *118:96 *118:98 36.9029 
23 *118:98 *118:106 48.4225 
24 *118:106 *446:A2 17.2 
25 *118:98 *118:117 37.2153 
26 *118:117 *444:B 34.4 
27 *118:81 *614:A1 34.4 
28 *118:75 *608:A1 17.2 
29 *118:67 *118:138 34.7636 
30 *118:138 *118:142 23.958 
31 *118:142 *118:146 28.9662 
32 *118:146 *646:B 17.2 
33 *118:146 *118:155 45.0109 
34 *118:155 *118:157 41.6743 
35 *118:157 *620:A1 34.4 
36 *118:142 *647:A2 47.6326 
37 *118:55 *118:179 22.8317 
38 *118:179 *118:185 46.1692 
39 *118:185 *118:189 46.6154 
40 *118:189 *118:195 40.0317 
41 *118:195 *118:203 46.9844 
42 *118:203 *596:A1 17.2 
43 *118:195 *602:A1 17.2 
44 *118:179 *589:A1 17.2 
45 *118:20 *571:B 17.2 
46 *118:8 *118:227 34.8492 
47 *118:227 *515:B 17.2 
48 *118:227 *118:234 9.09202 
49 *118:234 *118:236 17.2 
50 *118:236 *118:238 48.9954 
51 *118:238 *489:B 34.4 
52 *118:234 *118:255 48.1107 
53 *118:255 *633:A1 17.2 
*END

*D_NET *119 0.000487566
*CONN
*I *453:A2 I *D AO21x1_ASAP7_75t_R
*I *447:A2 I *D OA21x2_ASAP7_75t_R
*I *485:A2 I *D AO21x1_ASAP7_75t_R
*I *487:C I *D OR4x1_ASAP7_75t_R
*I *444:Y O *D NAND2x1_ASAP7_75t_R
*CAP
1 *453:A2 0
2 *447:A2 1.15589e-05
3 *485:A2 1.98703e-06
4 *487:C 0
5 *444:Y 2.73765e-06
6 *119:47 7.46139e-06
7 *119:18 2.71036e-05
8 *119:14 7.17957e-05
9 *119:12 6.73301e-05
10 *119:10 6.12035e-05
11 *119:6 5.83364e-05
12 *447:A2 *121:14 9.67251e-06
13 *447:A2 *126:6 7.58265e-07
14 *485:A2 *485:B 6.7842e-07
15 *485:A2 *388:51 5.41446e-06
16 *119:14 *152:10 0.000115715
17 *119:14 *388:57 1.33022e-05
18 *119:18 *125:54 0
19 *119:18 *152:10 8.06436e-06
20 *119:18 *343:16 1.67815e-06
21 *119:18 *343:57 1.12894e-06
22 *1:23 *119:47 6.79293e-06
23 *8:6 *485:A2 7.58265e-07
24 *45:8 *119:47 0
25 *83:8 *119:12 8.23168e-06
26 *83:8 *119:14 2.05045e-06
27 *117:84 *119:10 3.80537e-06
*RES
1 *444:Y *119:6 18.8045 
2 *119:6 *119:10 46.6154 
3 *119:10 *119:12 9.01066 
4 *119:12 *119:14 47.8691 
5 *119:14 *119:18 34.6581 
6 *119:18 *487:C 17.2 
7 *119:14 *485:A2 36.5393 
8 *119:12 *447:A2 42.9572 
9 *119:6 *119:47 40.0317 
10 *119:47 *453:A2 17.2 
*END

*D_NET *120 0.000196564
*CONN
*P opn_valid I
*I *445:A I *D BUFx2_ASAP7_75t_R
*CAP
1 opn_valid 3.56845e-05
2 *445:A 0
3 *120:15 1.15669e-06
4 *120:9 3.68412e-05
5 *120:9 res_valid 3.74229e-05
6 *120:15 *826:A 6.40127e-07
7 *116:7 *120:9 8.39081e-05
8 *116:15 *120:9 9.10106e-07
*RES
1 opn_valid *120:9 45.711 
2 *120:9 *120:15 35.2447 
3 *120:15 *445:A 17.2 
*END

*D_NET *121 0.000130698
*CONN
*I *447:B I *D OA21x2_ASAP7_75t_R
*I *446:Y O *D AO21x1_ASAP7_75t_R
*CAP
1 *447:B 0
2 *446:Y 2.01984e-05
3 *121:14 1.79215e-05
4 *121:10 3.81198e-05
5 *121:10 *453:B 1.52651e-06
6 *121:10 *126:6 0
7 *121:14 *126:6 2.62991e-05
8 *446:A1 *121:10 5.62196e-06
9 *446:A1 *121:14 6.7842e-07
10 *447:A2 *121:14 9.67251e-06
11 *1:12 *121:10 2.0895e-06
12 *117:84 *121:10 8.06436e-06
13 *118:106 *121:10 5.0551e-07
*RES
1 *446:Y *121:10 45.8297 
2 *121:10 *121:14 35.9189 
3 *121:14 *447:B 17.2 
*END

*D_NET *122 0.00124916
*CONN
*I *452:A2 I *D OA211x2_ASAP7_75t_R
*I *450:B I *D NAND2x1_ASAP7_75t_R
*I *456:C I *D AND3x1_ASAP7_75t_R
*I *455:A2 I *D AOI21x1_ASAP7_75t_R
*I *461:B I *D AND3x1_ASAP7_75t_R
*I *460:A1 I *D AOI21x1_ASAP7_75t_R
*I *476:B I *D AND3x1_ASAP7_75t_R
*I *475:A1 I *D AOI21x1_ASAP7_75t_R
*I *471:B I *D AND3x1_ASAP7_75t_R
*I *470:A1 I *D AOI21x1_ASAP7_75t_R
*I *465:A1 I *D AOI21x1_ASAP7_75t_R
*I *466:B I *D AND3x1_ASAP7_75t_R
*I *448:Y O *D NAND2x1_ASAP7_75t_R
*CAP
1 *452:A2 2.69376e-06
2 *450:B 1.78977e-06
3 *456:C 0
4 *455:A2 3.95655e-06
5 *461:B 1.01845e-05
6 *460:A1 0
7 *476:B 3.0665e-06
8 *475:A1 3.35467e-06
9 *471:B 2.98022e-06
10 *470:A1 0
11 *465:A1 0
12 *466:B 2.62769e-05
13 *448:Y 3.30717e-05
14 *122:114 1.01845e-05
15 *122:92 6.42117e-06
16 *122:90 5.95258e-05
17 *122:81 1.4351e-05
18 *122:75 7.4808e-05
19 *122:61 2.12672e-05
20 *122:46 6.44282e-05
21 *122:44 3.26974e-05
22 *122:40 5.4109e-05
23 *122:38 5.17866e-05
24 *122:34 5.7417e-05
25 *122:28 4.39712e-05
26 *122:26 2.37759e-05
27 *122:20 6.60575e-05
28 *122:18 4.59784e-05
29 *122:14 1.8775e-05
30 *122:10 7.24233e-05
31 *122:8 8.95127e-05
32 *452:A2 *337:19 1.40419e-08
33 *455:A2 *337:23 5.52807e-07
34 *461:B *461:A 1.94746e-05
35 *461:B *461:C 3.6466e-06
36 *461:B *340:32 2.03526e-06
37 *466:B *466:C 1.89933e-05
38 *466:B *137:10 2.90269e-07
39 *471:B *139:27 2.03526e-06
40 *475:A1 *125:62 0
41 *475:A1 *143:16 4.96929e-06
42 *475:A1 *143:24 9.67723e-06
43 *475:A1 *143:37 9.67723e-06
44 *476:B *476:C 3.90258e-06
45 *476:B *143:24 4.83862e-06
46 *476:B *143:37 3.22574e-06
47 *122:8 *448:B 9.08513e-06
48 *122:8 *365:35 4.39365e-05
49 *122:10 *365:31 0
50 *122:14 *338:43 4.45472e-06
51 *122:20 *338:17 7.03708e-06
52 *122:20 *338:43 3.79494e-06
53 *122:20 *339:17 1.20741e-05
54 *122:26 *339:17 1.51765e-05
55 *122:26 *339:19 1.47844e-05
56 *122:34 *338:17 1.09842e-06
57 *122:34 *343:12 1.15793e-05
58 *122:38 *461:A 4.83862e-06
59 *122:38 *131:12 2.83449e-06
60 *122:38 *147:8 0
61 *122:38 *344:27 1.64348e-06
62 *122:40 *461:A 8.06436e-06
63 *122:40 *131:12 7.84037e-07
64 *122:40 *132:8 1.09842e-06
65 *122:40 *139:23 0
66 *122:40 *147:8 0
67 *122:40 *343:37 0
68 *122:44 *139:23 0
69 *122:44 *139:40 7.17991e-06
70 *122:44 *342:23 3.79371e-05
71 *122:61 *466:C 0
72 *122:61 *135:12 0
73 *122:61 *136:8 2.98814e-07
74 *122:61 *139:27 5.41446e-06
75 *122:61 *342:23 0
76 *122:61 *342:61 0
77 *122:75 *343:29 2.03526e-06
78 *122:81 *139:40 8.33296e-06
79 *122:90 *476:A 2.20964e-06
80 *122:90 *343:29 4.02027e-05
81 *67:8 *122:14 0
82 *67:8 *122:20 0
83 *67:23 *122:20 2.98532e-06
84 *67:23 *122:26 9.93746e-06
85 *67:29 *122:26 3.61852e-06
86 *67:42 *455:A2 6.33206e-07
87 *67:42 *122:26 7.89622e-06
*RES
1 *448:Y *122:8 49.9099 
2 *122:8 *122:10 43.9269 
3 *122:10 *122:14 27.337 
4 *122:14 *122:18 18.8045 
5 *122:18 *122:20 36.6058 
6 *122:20 *122:26 35.3594 
7 *122:26 *122:28 17.2 
8 *122:28 *122:34 36.0889 
9 *122:34 *122:38 29.5897 
10 *122:38 *122:40 28.1583 
11 *122:40 *122:44 38.6003 
12 *122:44 *122:46 8.02238 
13 *122:46 *466:B 31.1054 
14 *122:46 *122:61 48.1674 
15 *122:61 *465:A1 17.2 
16 *122:44 *470:A1 17.2 
17 *122:40 *122:75 18.8045 
18 *122:75 *122:81 49.6055 
19 *122:81 *471:B 18.8045 
20 *122:75 *122:90 33.694 
21 *122:90 *122:92 17.2 
22 *122:92 *475:A1 38.9053 
23 *122:92 *476:B 38.7636 
24 *122:38 *122:114 17.2 
25 *122:114 *460:A1 17.2 
26 *122:114 *461:B 25.7572 
27 *122:28 *455:A2 37.2158 
28 *122:20 *456:C 34.4 
29 *122:14 *450:B 18.2696 
30 *122:10 *452:A2 35.4697 
*END

*D_NET *123 0.000136246
*CONN
*P divisor[7] I
*I *449:A I *D BUFx2_ASAP7_75t_R
*CAP
1 divisor[7] 6.81229e-05
2 *449:A 0
3 *123:9 6.81229e-05
*RES
1 divisor[7] *123:9 47.3975 
2 *123:9 *449:A 34.4 
*END

*D_NET *124 6.24727e-05
*CONN
*I *452:B I *D OA211x2_ASAP7_75t_R
*I *450:Y O *D NAND2x1_ASAP7_75t_R
*CAP
1 *452:B 1.84973e-06
2 *450:Y 2.30989e-05
3 *124:10 2.49486e-05
4 *452:B *452:C 3.68287e-06
5 *452:B *337:19 8.87763e-06
6 *124:10 *338:43 1.49407e-08
*RES
1 *450:Y *124:10 44.7884 
2 *124:10 *452:B 37.0741 
*END

*D_NET *125 0.00178304
*CONN
*I *484:C I *D OA211x2_ASAP7_75t_R
*I *457:B I *D OAI21x1_ASAP7_75t_R
*I *458:A2 I *D OA21x2_ASAP7_75t_R
*I *488:A2 I *D OA21x2_ASAP7_75t_R
*I *463:A2 I *D OA21x2_ASAP7_75t_R
*I *478:A2 I *D OA21x2_ASAP7_75t_R
*I *473:A2 I *D OA21x2_ASAP7_75t_R
*I *477:B I *D OAI21x1_ASAP7_75t_R
*I *468:A2 I *D OA21x2_ASAP7_75t_R
*I *467:B I *D OAI21x1_ASAP7_75t_R
*I *472:B I *D OAI21x1_ASAP7_75t_R
*I *462:B I *D OAI21x1_ASAP7_75t_R
*I *452:C I *D OA211x2_ASAP7_75t_R
*I *451:Y O *D AND2x2_ASAP7_75t_R
*CAP
1 *484:C 2.52259e-06
2 *457:B 2.98184e-06
3 *458:A2 6.37171e-06
4 *488:A2 0
5 *463:A2 0
6 *478:A2 0
7 *473:A2 1.14385e-05
8 *477:B 0
9 *468:A2 0
10 *467:B 0
11 *472:B 6.16458e-06
12 *462:B 1.51594e-05
13 *452:C 9.67935e-06
14 *451:Y 7.77557e-06
15 *125:187 3.54272e-05
16 *125:172 1.80673e-05
17 *125:166 3.22667e-05
18 *125:155 3.44795e-05
19 *125:144 4.19884e-05
20 *125:133 2.14029e-05
21 *125:118 6.75745e-05
22 *125:114 0.000144202
23 *125:112 6.74805e-05
24 *125:93 2.59424e-05
25 *125:78 7.57851e-05
26 *125:72 4.52612e-05
27 *125:68 3.55111e-05
28 *125:62 6.11274e-05
29 *125:58 3.83112e-05
30 *125:56 3.12004e-05
31 *125:54 8.31064e-05
32 *125:52 4.91094e-05
33 *125:50 5.59507e-05
34 *125:37 7.75546e-05
35 *125:33 5.5639e-05
36 *125:27 0.000115446
37 *125:25 5.3387e-05
38 *125:12 2.67377e-05
39 *125:10 7.77557e-06
40 *452:C *447:A1 6.53938e-06
41 *452:C *126:6 2.0895e-06
42 *452:C *337:19 4.41457e-06
43 *457:B *129:10 3.73144e-06
44 *458:A2 *130:6 6.70433e-06
45 *462:B *344:37 5.52807e-07
46 *125:10 *147:21 1.96231e-05
47 *125:10 *344:12 1.96231e-05
48 *125:25 *447:A1 5.68657e-06
49 *125:25 *126:6 1.07377e-06
50 *125:25 *151:8 1.98771e-05
51 *125:25 *344:12 1.12894e-06
52 *125:27 *344:27 4.7807e-05
53 *125:33 *344:27 1.17904e-05
54 *125:50 *134:12 0
55 *125:50 *343:12 1.15213e-05
56 *125:50 *343:57 4.23705e-06
57 *125:54 *143:37 0
58 *125:54 *343:57 0
59 *125:56 *143:37 0
60 *125:58 *477:A2 5.52807e-07
61 *125:58 *143:24 0
62 *125:58 *143:37 0
63 *125:62 *477:A2 1.49407e-08
64 *125:62 *143:16 0
65 *125:62 *144:10 3.61852e-06
66 *125:78 *472:A2 1.53963e-06
67 *125:93 *472:A1 1.54891e-05
68 *125:93 *138:6 1.71053e-05
69 *125:114 *145:8 3.16328e-06
70 *125:118 *146:12 3.73351e-06
71 *125:133 *478:B 6.78815e-05
72 *125:144 *389:46 0
73 *125:155 *488:B 1.55843e-05
74 *125:166 *388:51 8.1022e-06
75 *125:172 *388:10 0
76 *125:172 *388:12 0
77 *125:187 *129:10 1.40551e-06
78 *125:187 *130:6 0
79 *125:187 *337:23 1.12894e-06
80 *125:187 *338:17 1.34466e-06
81 *452:B *452:C 3.68287e-06
82 *475:A1 *125:62 0
83 *3:28 *125:172 2.01457e-05
84 *4:20 *125:144 1.67815e-06
85 *5:20 *125:72 6.20163e-07
86 *5:20 *125:78 4.34114e-06
87 *5:27 *473:A2 5.82745e-07
88 *6:20 *473:A2 3.89037e-06
89 *7:20 *125:133 1.61096e-06
90 *8:6 *125:166 6.10326e-05
91 *38:14 *125:144 8.31096e-06
92 *38:55 *125:144 0
93 *39:10 *125:172 5.21648e-06
94 *118:89 *125:10 2.03526e-06
95 *119:18 *125:54 0
*RES
1 *451:Y *125:10 42.7625 
2 *125:10 *125:12 17.2 
3 *125:12 *452:C 25.7572 
4 *125:12 *125:25 31.0241 
5 *125:25 *125:27 36.6058 
6 *125:27 *125:33 44.9295 
7 *125:33 *125:37 20.579 
8 *125:37 *462:B 44.537 
9 *125:37 *125:50 43.4064 
10 *125:50 *125:52 17.2 
11 *125:52 *125:54 20.8371 
12 *125:54 *125:56 16.3318 
13 *125:56 *125:58 7.88432 
14 *125:58 *125:62 39.1635 
15 *125:62 *125:68 32.9367 
16 *125:68 *125:72 18.2696 
17 *125:72 *125:78 40.3392 
18 *125:78 *472:B 38.7636 
19 *125:78 *125:93 38.0582 
20 *125:93 *467:B 17.2 
21 *125:72 *468:A2 17.2 
22 *125:58 *477:B 34.4 
23 *125:56 *125:112 17.2 
24 *125:112 *125:114 40.1119 
25 *125:114 *125:118 44.232 
26 *125:118 *473:A2 42.2276 
27 *125:118 *125:133 34.3144 
28 *125:133 *478:A2 17.2 
29 *125:114 *125:144 45.8328 
30 *125:144 *463:A2 34.4 
31 *125:54 *125:155 40.1975 
32 *125:155 *488:A2 17.2 
33 *125:52 *125:166 40.4242 
34 *125:166 *125:172 45.6633 
35 *125:172 *458:A2 22.0134 
36 *125:27 *125:187 49.5168 
37 *125:187 *457:B 37.0741 
38 *125:25 *484:C 35.4697 
*END

*D_NET *126 0.000366458
*CONN
*I *453:B I *D AO21x1_ASAP7_75t_R
*I *452:Y O *D OA211x2_ASAP7_75t_R
*CAP
1 *453:B 1.09388e-05
2 *452:Y 0
3 *126:12 1.75319e-05
4 *126:6 0.00013457
5 *126:4 0.000127976
6 *126:6 *447:A1 0
7 *447:A2 *126:6 7.58265e-07
8 *452:C *126:6 2.0895e-06
9 *1:12 *453:B 1.96943e-05
10 *1:12 *126:6 3.73144e-06
11 *1:23 *453:B 1.05206e-05
12 *2:23 *453:B 5.22376e-06
13 *45:8 *126:12 6.33206e-07
14 *117:84 *126:12 0
15 *118:106 *126:6 3.89037e-06
16 *121:10 *453:B 1.52651e-06
17 *121:10 *126:6 0
18 *121:14 *126:6 2.62991e-05
19 *125:25 *126:6 1.07377e-06
*RES
1 *452:Y *126:4 17.2 
2 *126:4 *126:6 60.4352 
3 *126:6 *126:12 38.3422 
4 *126:12 *453:B 30.0358 
*END

*D_NET *127 0.00016079
*CONN
*P divisor[6] I
*I *454:A I *D BUFx2_ASAP7_75t_R
*CAP
1 divisor[6] 3.0192e-05
2 *454:A 0
3 *127:13 4.35455e-05
4 *127:9 7.37375e-05
5 *127:9 *168:9 1.33146e-05
*RES
1 divisor[6] *127:9 40.597 
2 *127:9 *127:13 45.5457 
3 *127:13 *454:A 17.2 
*END

*D_NET *128 3.12865e-05
*CONN
*I *457:A1 I *D OAI21x1_ASAP7_75t_R
*I *455:Y O *D AOI21x1_ASAP7_75t_R
*CAP
1 *457:A1 0
2 *455:Y 3.84203e-06
3 *128:8 3.84203e-06
4 *128:8 *147:8 6.94376e-06
5 *128:8 *337:23 1.66587e-05
*RES
1 *455:Y *128:8 40.0317 
2 *128:8 *457:A1 34.4 
*END

*D_NET *129 4.37194e-05
*CONN
*I *457:A2 I *D OAI21x1_ASAP7_75t_R
*I *456:Y O *D AND3x1_ASAP7_75t_R
*CAP
1 *457:A2 0
2 *456:Y 1.49977e-05
3 *129:10 1.49977e-05
4 *129:10 *337:23 8.58704e-06
5 *129:10 *338:17 0
6 *457:B *129:10 3.73144e-06
7 *125:187 *129:10 1.40551e-06
*RES
1 *456:Y *129:10 45.2382 
2 *129:10 *457:A2 34.4 
*END

*D_NET *130 0.000368023
*CONN
*I *458:B I *D OA21x2_ASAP7_75t_R
*I *457:Y O *D OAI21x1_ASAP7_75t_R
*CAP
1 *458:B 0
2 *457:Y 0
3 *130:12 2.98268e-06
4 *130:6 0.000179561
5 *130:4 0.000176578
6 *130:12 *388:10 2.19685e-06
7 *458:A2 *130:6 6.70433e-06
8 *39:10 *130:6 0
9 *125:187 *130:6 0
*RES
1 *457:Y *130:4 17.2 
2 *130:4 *130:6 75.4103 
3 *130:6 *130:12 37.2158 
4 *130:12 *458:B 17.2 
*END

*D_NET *131 0.000103868
*CONN
*I *461:C I *D AND3x1_ASAP7_75t_R
*I *460:A2 I *D AOI21x1_ASAP7_75t_R
*I *459:Y O *D OR3x1_ASAP7_75t_R
*CAP
1 *461:C 1.58935e-05
2 *460:A2 0
3 *459:Y 1.67292e-05
4 *131:12 3.21623e-06
5 *131:6 3.58389e-05
6 *461:C *461:A 1.94746e-05
7 *461:C *340:32 7.58265e-07
8 *131:6 *460:B 2.66992e-06
9 *131:6 *340:32 2.02204e-06
10 *131:12 *147:8 0
11 *461:B *461:C 3.6466e-06
12 *122:38 *131:12 2.83449e-06
13 *122:40 *131:12 7.84037e-07
*RES
1 *459:Y *131:6 27.3617 
2 *131:6 *131:12 37.2158 
3 *131:12 *460:A2 17.2 
4 *131:6 *461:C 29.501 
*END

*D_NET *132 0.000102129
*CONN
*I *462:A1 I *D OAI21x1_ASAP7_75t_R
*I *460:Y O *D AOI21x1_ASAP7_75t_R
*CAP
1 *462:A1 6.40713e-06
2 *460:Y 6.09462e-06
3 *132:14 4.3079e-05
4 *132:8 4.27665e-05
5 *462:A1 *343:16 0
6 *462:A1 *344:37 7.84037e-07
7 *132:8 *461:A 1.89962e-06
8 *122:40 *132:8 1.09842e-06
*RES
1 *460:Y *132:8 38.9053 
2 *132:8 *132:14 49.9099 
3 *132:14 *462:A1 38.9053 
*END

*D_NET *133 2.83106e-05
*CONN
*I *462:A2 I *D OAI21x1_ASAP7_75t_R
*I *461:Y O *D AND3x1_ASAP7_75t_R
*CAP
1 *462:A2 1.38161e-05
2 *461:Y 1.38161e-05
3 *462:A2 *487:B 6.7842e-07
*RES
1 *461:Y *462:A2 42.4224 
*END

*D_NET *134 0.000358672
*CONN
*I *463:B I *D OA21x2_ASAP7_75t_R
*I *462:Y O *D OAI21x1_ASAP7_75t_R
*CAP
1 *463:B 0
2 *462:Y 5.67045e-06
3 *134:18 1.78642e-05
4 *134:12 0.00016643
5 *134:10 0.000148566
6 *134:8 5.67045e-06
7 *134:8 *343:16 5.49212e-07
8 *134:8 *344:37 0
9 *134:12 *343:12 5.09299e-06
10 *134:12 *343:57 8.82914e-06
11 *134:18 *389:46 0
12 *8:27 *134:12 0
13 *125:50 *134:12 0
*RES
1 *462:Y *134:8 37.779 
2 *134:8 *134:10 17.2 
3 *134:10 *134:12 70.0621 
4 *134:12 *134:18 48.4791 
5 *134:18 *463:B 17.2 
*END

*D_NET *135 0.000257713
*CONN
*I *474:C I *D OR3x1_ASAP7_75t_R
*I *465:A2 I *D AOI21x1_ASAP7_75t_R
*I *466:C I *D AND3x1_ASAP7_75t_R
*I *464:Y O *D OR3x1_ASAP7_75t_R
*CAP
1 *474:C 2.62297e-06
2 *465:A2 0
3 *466:C 1.84661e-05
4 *464:Y 1.23475e-05
5 *135:12 3.03808e-05
6 *135:10 5.66933e-05
7 *135:8 5.45031e-05
8 *466:C *136:8 6.10236e-07
9 *466:C *137:10 3.10081e-06
10 *466:C *341:17 0
11 *466:C *341:32 0
12 *135:8 *459:A 1.47071e-05
13 *135:8 *459:B 2.28976e-06
14 *135:8 *464:B 8.87763e-06
15 *135:10 *469:D 3.3563e-06
16 *135:10 *139:12 0
17 *135:10 *139:23 0
18 *135:10 *337:23 1.07573e-06
19 *135:10 *337:42 1.36943e-05
20 *135:10 *340:22 5.52807e-07
21 *135:10 *340:26 5.52264e-06
22 *135:10 *341:36 0
23 *135:10 *342:29 5.52807e-07
24 *135:10 *342:43 6.00889e-06
25 *135:12 *139:23 0
26 *135:12 *143:8 1.64764e-06
27 *135:12 *341:32 0
28 *135:12 *341:36 0
29 *135:12 *342:29 1.07573e-06
30 *135:12 *342:43 6.33206e-07
31 *466:B *466:C 1.89933e-05
32 *122:61 *466:C 0
33 *122:61 *135:12 0
*RES
1 *464:Y *135:8 43.492 
2 *135:8 *135:10 34.3531 
3 *135:10 *135:12 10.137 
4 *135:12 *466:C 48.2241 
5 *135:12 *465:A2 34.4 
6 *135:10 *474:C 35.4697 
*END

*D_NET *136 4.21637e-05
*CONN
*I *467:A1 I *D OAI21x1_ASAP7_75t_R
*I *465:Y O *D AOI21x1_ASAP7_75t_R
*CAP
1 *467:A1 0
2 *465:Y 1.7993e-05
3 *136:8 1.7993e-05
4 *136:8 *137:10 5.26853e-06
5 *466:C *136:8 6.10236e-07
6 *122:61 *136:8 2.98814e-07
*RES
1 *465:Y *136:8 47.3528 
2 *136:8 *467:A1 34.4 
*END

*D_NET *137 3.70816e-05
*CONN
*I *467:A2 I *D OAI21x1_ASAP7_75t_R
*I *466:Y O *D AND3x1_ASAP7_75t_R
*CAP
1 *467:A2 0
2 *466:Y 1.4211e-05
3 *137:10 1.4211e-05
4 *466:B *137:10 2.90269e-07
5 *466:C *137:10 3.10081e-06
6 *136:8 *137:10 5.26853e-06
*RES
1 *466:Y *137:10 43.7754 
2 *137:10 *467:A2 34.4 
*END

*D_NET *138 0.000329256
*CONN
*I *468:B I *D OA21x2_ASAP7_75t_R
*I *467:Y O *D OAI21x1_ASAP7_75t_R
*CAP
1 *468:B 0
2 *467:Y 4.29076e-05
3 *138:20 8.09989e-06
4 *138:14 9.44536e-05
5 *138:12 9.06788e-05
6 *138:6 4.72327e-05
7 *138:12 *342:10 9.48786e-06
8 *138:14 *142:12 0
9 *138:14 *342:8 6.5975e-06
10 *5:20 *138:20 1.26923e-05
11 *125:93 *138:6 1.71053e-05
*RES
1 *467:Y *138:6 36.9885 
2 *138:6 *138:12 37.779 
3 *138:12 *138:14 33.694 
4 *138:14 *138:20 41.158 
5 *138:20 *468:B 17.2 
*END

*D_NET *139 0.000222983
*CONN
*I *470:A2 I *D AOI21x1_ASAP7_75t_R
*I *471:C I *D AND3x1_ASAP7_75t_R
*I *479:C I *D OR3x1_ASAP7_75t_R
*I *469:Y O *D OR5x1_ASAP7_75t_R
*CAP
1 *470:A2 0
2 *471:C 0
3 *479:C 0
4 *469:Y 6.83425e-06
5 *139:40 1.26792e-05
6 *139:27 3.35655e-05
7 *139:23 4.2567e-05
8 *139:12 3.54255e-05
9 *139:8 2.0579e-05
10 *139:8 *337:27 0
11 *139:12 *147:8 1.73253e-05
12 *139:12 *340:26 3.79923e-06
13 *139:23 *147:8 8.58704e-06
14 *139:23 *342:29 1.23194e-05
15 *139:23 *342:61 0
16 *139:23 *343:37 5.85387e-06
17 *139:40 *472:A2 0
18 *139:40 *342:23 4.84697e-07
19 *471:B *139:27 2.03526e-06
20 *122:40 *139:23 0
21 *122:44 *139:23 0
22 *122:44 *139:40 7.17991e-06
23 *122:61 *139:27 5.41446e-06
24 *122:81 *139:40 8.33296e-06
25 *135:10 *139:12 0
26 *135:10 *139:23 0
27 *135:12 *139:23 0
*RES
1 *469:Y *139:8 37.0741 
2 *139:8 *139:12 31.2792 
3 *139:12 *479:C 17.2 
4 *139:12 *139:23 35.1363 
5 *139:23 *139:27 27.8965 
6 *139:27 *471:C 17.2 
7 *139:27 *139:40 45.6066 
8 *139:40 *470:A2 17.2 
*END

*D_NET *140 5.79114e-05
*CONN
*I *472:A1 I *D OAI21x1_ASAP7_75t_R
*I *470:Y O *D AOI21x1_ASAP7_75t_R
*CAP
1 *472:A1 1.40582e-05
2 *470:Y 4.55007e-06
3 *140:8 1.86082e-05
4 *140:8 *342:10 5.2059e-06
5 *125:93 *472:A1 1.54891e-05
*RES
1 *470:Y *140:8 38.9053 
2 *140:8 *472:A1 43.492 
*END

*D_NET *141 5.49515e-05
*CONN
*I *472:A2 I *D OAI21x1_ASAP7_75t_R
*I *471:Y O *D AND3x1_ASAP7_75t_R
*CAP
1 *472:A2 1.83753e-05
2 *471:Y 8.33064e-06
3 *141:8 2.67059e-05
4 *125:78 *472:A2 1.53963e-06
5 *139:40 *472:A2 0
*RES
1 *471:Y *141:8 38.1438 
2 *141:8 *472:A2 48.4791 
*END

*D_NET *142 0.000397559
*CONN
*I *473:B I *D OA21x2_ASAP7_75t_R
*I *472:Y O *D OAI21x1_ASAP7_75t_R
*CAP
1 *473:B 0
2 *472:Y 1.31578e-05
3 *142:20 2.0511e-05
4 *142:12 0.000152994
5 *142:10 0.000132483
6 *142:8 1.31578e-05
7 *142:12 *397:CLK 3.28582e-06
8 *5:12 *142:12 5.87706e-05
9 *5:27 *142:20 2.30405e-06
10 *6:20 *142:20 6.49184e-07
11 *88:10 *142:20 2.45021e-07
12 *138:14 *142:12 0
*RES
1 *472:Y *142:8 43.4107 
2 *142:8 *142:10 17.2 
3 *142:10 *142:12 70.0621 
4 *142:12 *142:20 47.2678 
5 *142:20 *473:B 17.2 
*END

*D_NET *143 0.00035118
*CONN
*I *475:A2 I *D AOI21x1_ASAP7_75t_R
*I *487:D I *D OR4x1_ASAP7_75t_R
*I *476:C I *D AND3x1_ASAP7_75t_R
*I *474:Y O *D OR3x1_ASAP7_75t_R
*CAP
1 *475:A2 0
2 *487:D 1.88119e-06
3 *476:C 3.78304e-06
4 *474:Y 2.70287e-06
5 *143:37 4.04583e-05
6 *143:24 1.70706e-05
7 *143:16 5.68174e-05
8 *143:12 7.51411e-05
9 *143:10 7.01884e-05
10 *143:8 2.70287e-06
11 *487:D *487:B 4.49469e-06
12 *487:D *154:6 4.49469e-06
13 *143:8 *342:29 8.33296e-06
14 *143:12 *342:23 2.03526e-06
15 *143:12 *342:29 1.25606e-05
16 *143:16 *475:B 8.06799e-07
17 *143:37 *475:B 5.52807e-07
18 *143:37 *343:16 9.21843e-06
19 *475:A1 *143:16 4.96929e-06
20 *475:A1 *143:24 9.67723e-06
21 *475:A1 *143:37 9.67723e-06
22 *476:B *476:C 3.90258e-06
23 *476:B *143:24 4.83862e-06
24 *476:B *143:37 3.22574e-06
25 *125:54 *143:37 0
26 *125:56 *143:37 0
27 *125:58 *143:24 0
28 *125:58 *143:37 0
29 *125:62 *143:16 0
30 *135:12 *143:8 1.64764e-06
*RES
1 *474:Y *143:8 37.2158 
2 *143:8 *143:10 17.2 
3 *143:10 *143:12 45.4601 
4 *143:12 *143:16 21.1422 
5 *143:16 *143:24 42.7058 
6 *143:24 *476:C 36.5393 
7 *143:16 *143:37 49.3005 
8 *143:37 *487:D 20.409 
9 *143:12 *475:A2 17.2 
*END

*D_NET *144 3.13127e-05
*CONN
*I *477:A1 I *D OAI21x1_ASAP7_75t_R
*I *475:Y O *D AOI21x1_ASAP7_75t_R
*CAP
1 *477:A1 0
2 *475:Y 1.35305e-05
3 *144:10 1.35305e-05
4 *144:10 *477:A2 6.33206e-07
5 *125:62 *144:10 3.61852e-06
*RES
1 *475:Y *144:10 43.0989 
2 *144:10 *477:A1 34.4 
*END

*D_NET *145 6.62791e-05
*CONN
*I *477:A2 I *D OAI21x1_ASAP7_75t_R
*I *476:Y O *D AND3x1_ASAP7_75t_R
*CAP
1 *477:A2 9.17459e-06
2 *476:Y 2.17828e-05
3 *145:8 3.09574e-05
4 *125:58 *477:A2 5.52807e-07
5 *125:62 *477:A2 1.49407e-08
6 *125:114 *145:8 3.16328e-06
7 *144:10 *477:A2 6.33206e-07
*RES
1 *476:Y *145:8 44.5617 
2 *145:8 *477:A2 40.0317 
*END

*D_NET *146 0.000287387
*CONN
*I *478:B I *D OA21x2_ASAP7_75t_R
*I *477:Y O *D OAI21x1_ASAP7_75t_R
*CAP
1 *478:B 3.43997e-05
2 *477:Y 5.52281e-05
3 *146:12 5.2658e-05
4 *146:6 7.34864e-05
5 *146:12 *388:20 0
6 *125:118 *146:12 3.73351e-06
7 *125:133 *478:B 6.78815e-05
*RES
1 *477:Y *146:6 43.4064 
2 *146:6 *146:12 48.4791 
3 *146:12 *478:B 40.1975 
*END

*D_NET *147 0.000380748
*CONN
*I *482:A I *D INVx1_ASAP7_75t_R
*I *484:A2 I *D OA211x2_ASAP7_75t_R
*I *479:Y O *D OR3x1_ASAP7_75t_R
*CAP
1 *482:A 0
2 *484:A2 2.11982e-06
3 *479:Y 0
4 *147:21 2.56881e-05
5 *147:8 0.000111207
6 *147:6 8.3399e-05
7 *147:8 *337:23 3.70413e-05
8 *147:8 *340:26 2.1664e-06
9 *147:8 *343:37 3.76935e-06
10 *147:8 *344:27 3.64616e-05
11 *147:21 *337:23 4.94291e-06
12 *147:21 *338:43 0
13 *147:21 *344:12 2.1443e-05
14 *147:21 *344:27 3.05118e-08
15 *122:38 *147:8 0
16 *122:40 *147:8 0
17 *125:10 *147:21 1.96231e-05
18 *128:8 *147:8 6.94376e-06
19 *131:12 *147:8 0
20 *139:12 *147:8 1.73253e-05
21 *139:23 *147:8 8.58704e-06
*RES
1 *479:Y *147:6 34.4 
2 *147:6 *147:8 85.0381 
3 *147:8 *484:A2 35.4697 
4 *147:8 *147:21 41.9793 
5 *147:21 *482:A 17.2 
*END

*D_NET *148 1.34692e-05
*CONN
*I *483:A I *D OR3x1_ASAP7_75t_R
*I *480:Y O *D INVx1_ASAP7_75t_R
*CAP
1 *483:A 5.84998e-06
2 *480:Y 5.84998e-06
3 *483:A *480:A 1.76928e-06
*RES
1 *480:Y *483:A 38.1438 
*END

*D_NET *149 0.000119543
*CONN
*P divisor[5] I
*I *481:A I *D BUFx2_ASAP7_75t_R
*CAP
1 divisor[5] 4.84942e-05
2 *481:A 0
3 *149:15 1.12771e-05
4 *149:9 5.97713e-05
*RES
1 divisor[5] *149:9 37.5659 
2 *149:9 *149:15 43.3168 
3 *149:15 *481:A 17.2 
*END

*D_NET *150 9.07592e-05
*CONN
*I *483:C I *D OR3x1_ASAP7_75t_R
*I *482:Y O *D INVx1_ASAP7_75t_R
*CAP
1 *483:C 0
2 *482:Y 4.70556e-06
3 *150:12 1.45784e-05
4 *150:8 1.92839e-05
5 *150:12 *344:10 1.35579e-05
6 *150:12 *344:12 3.54456e-05
7 *150:12 *365:43 3.18788e-06
*RES
1 *482:Y *150:8 36.0045 
2 *150:8 *150:12 33.5318 
3 *150:12 *483:C 17.2 
*END

*D_NET *151 0.000148173
*CONN
*I *484:B I *D OA211x2_ASAP7_75t_R
*I *483:Y O *D OR3x1_ASAP7_75t_R
*CAP
1 *484:B 0
2 *483:Y 0
3 *151:8 3.89247e-05
4 *151:6 3.89247e-05
5 *151:8 *344:10 1.908e-06
6 *151:8 *344:12 4.85382e-05
7 *125:25 *151:8 1.98771e-05
*RES
1 *483:Y *151:6 34.4 
2 *151:6 *151:8 39.4216 
3 *151:8 *484:B 34.4 
*END

*D_NET *152 0.000334026
*CONN
*I *485:B I *D AO21x1_ASAP7_75t_R
*I *484:Y O *D OA211x2_ASAP7_75t_R
*CAP
1 *485:B 2.64954e-06
2 *484:Y 6.40622e-05
3 *152:10 3.69718e-05
4 *152:8 3.43223e-05
5 *152:6 6.40622e-05
6 *485:A2 *485:B 6.7842e-07
7 *8:6 *485:B 2.12481e-06
8 *90:10 *152:10 5.37569e-06
9 *119:14 *152:10 0.000115715
10 *119:18 *152:10 8.06436e-06
*RES
1 *484:Y *152:6 47.685 
2 *152:6 *152:8 17.2 
3 *152:8 *152:10 40.548 
4 *152:10 *485:B 36.0045 
*END

*D_NET *153 0.000105461
*CONN
*I *488:A1 I *D OA21x2_ASAP7_75t_R
*I *486:Y O *D INVx1_ASAP7_75t_R
*CAP
1 *488:A1 1.7544e-05
2 *486:Y 2.49939e-05
3 *153:8 4.25379e-05
4 *488:A1 *488:B 8.39579e-06
5 *488:A1 *154:12 0
6 *488:A1 *388:12 8.33296e-06
7 *38:55 *153:8 3.65663e-06
*RES
1 *486:Y *153:8 49.9099 
2 *153:8 *488:A1 45.2382 
*END

*D_NET *154 0.000221534
*CONN
*I *488:B I *D OA21x2_ASAP7_75t_R
*I *487:Y O *D OR4x1_ASAP7_75t_R
*CAP
1 *488:B 5.09887e-06
2 *487:Y 7.65806e-05
3 *154:12 1.95561e-05
4 *154:6 9.10378e-05
5 *154:6 *487:B 7.86349e-07
6 *154:12 *388:12 0
7 *487:D *154:6 4.49469e-06
8 *488:A1 *488:B 8.39579e-06
9 *488:A1 *154:12 0
10 *125:155 *488:B 1.55843e-05
*RES
1 *487:Y *154:6 49.8243 
2 *154:6 *154:12 45.6633 
3 *154:12 *488:B 24.1527 
*END

*D_NET *155 0.00116312
*CONN
*I *644:A I *D NOR2x1_ASAP7_75t_R
*I *506:A I *D NOR2x1_ASAP7_75t_R
*I *567:C I *D AOI221x1_ASAP7_75t_R
*I *552:C I *D AOI221x1_ASAP7_75t_R
*I *489:Y O *D OR2x2_ASAP7_75t_R
*CAP
1 *644:A 0
2 *506:A 5.14206e-05
3 *567:C 0
4 *552:C 1.3854e-05
5 *489:Y 0
6 *155:33 6.37574e-05
7 *155:31 0.000112515
8 *155:20 6.26117e-05
9 *155:18 0.000168359
10 *155:16 0.000168359
11 *155:14 8.94135e-05
12 *155:12 4.58743e-05
13 *155:6 7.10027e-05
14 *155:4 6.31213e-05
15 *506:A *506:B 2.7803e-06
16 *506:A *156:195 4.02536e-05
17 *552:C *213:6 7.58265e-07
18 *155:12 *156:101 1.08414e-05
19 *155:12 *156:111 3.76984e-06
20 *155:12 *188:70 1.1787e-05
21 *155:14 *156:195 6.05413e-05
22 *155:14 *391:101 2.88806e-06
23 *155:18 *658:B 0
24 *155:18 *668:B 0
25 *155:18 *297:44 0
26 *155:18 *304:18 1.34329e-05
27 *155:18 *391:45 0
28 *155:31 *213:6 8.369e-06
29 *155:33 *213:14 0
30 *155:33 *218:8 0
31 *155:33 *389:98 6.32327e-05
32 *16:14 *155:18 0
33 *32:34 *155:33 0
34 *33:10 *155:33 0
35 *96:8 *155:18 3.41776e-05
*RES
1 *489:Y *155:4 17.2 
2 *155:4 *155:6 37.9726 
3 *155:6 *155:12 44.537 
4 *155:12 *155:14 18.7189 
5 *155:14 *155:16 17.2 
6 *155:16 *155:18 131.218 
7 *155:18 *155:20 17.2 
8 *155:20 *552:C 24.1527 
9 *155:20 *155:31 48.7547 
10 *155:31 *155:33 60.8219 
11 *155:33 *567:C 34.4 
12 *155:14 *506:A 44.4761 
13 *155:6 *644:A 17.2 
*END

*D_NET *156 0.00295004
*CONN
*I *505:A1 I *D OA21x2_ASAP7_75t_R
*I *524:B I *D NAND2x1_ASAP7_75t_R
*I *546:A1 I *D OA21x2_ASAP7_75t_R
*I *508:B I *D AND2x2_ASAP7_75t_R
*I *523:A1 I *D OA21x2_ASAP7_75t_R
*I *627:A1 I *D OA21x2_ASAP7_75t_R
*I *623:B I *D OA21x2_ASAP7_75t_R
*I *638:B I *D AND3x1_ASAP7_75t_R
*I *631:B I *D AND3x1_ASAP7_75t_R
*I *570:B I *D OR3x1_ASAP7_75t_R
*I *571:A2 I *D AO21x1_ASAP7_75t_R
*I *576:B I *D AND3x1_ASAP7_75t_R
*I *634:A1 I *D OAI22x1_ASAP7_75t_R
*I *643:A2 I *D OA21x2_ASAP7_75t_R
*I *490:Y O *D INVx1_ASAP7_75t_R
*CAP
1 *505:A1 0
2 *524:B 5.21695e-06
3 *546:A1 0
4 *508:B 0
5 *523:A1 0
6 *627:A1 5.63484e-06
7 *623:B 2.61971e-05
8 *638:B 3.42214e-05
9 *631:B 0
10 *570:B 0
11 *571:A2 6.51261e-06
12 *576:B 0
13 *634:A1 0
14 *643:A2 2.22261e-06
15 *490:Y 3.07659e-06
16 *156:195 2.37167e-05
17 *156:158 4.78491e-05
18 *156:147 7.94752e-05
19 *156:145 2.05209e-05
20 *156:139 4.72697e-05
21 *156:137 9.41895e-05
22 *156:135 6.04339e-05
23 *156:127 6.39437e-06
24 *156:123 2.48311e-05
25 *156:117 2.41788e-05
26 *156:113 0.000100954
27 *156:111 0.000121646
28 *156:101 6.39849e-05
29 *156:64 3.96666e-05
30 *156:58 9.88881e-05
31 *156:56 6.75866e-05
32 *156:52 0.000104299
33 *156:50 0.000101475
34 *156:39 8.22422e-06
35 *156:33 0.000100362
36 *156:31 9.21381e-05
37 *156:29 5.15315e-05
38 *156:27 3.94771e-05
39 *156:25 4.05317e-05
40 *156:10 2.99836e-05
41 *156:6 4.76347e-05
42 *571:A2 *652:B 6.19506e-06
43 *571:A2 *230:14 1.87993e-05
44 *638:B *638:A 1.04475e-06
45 *638:B *188:74 1.29877e-05
46 *638:B *188:183 6.50892e-05
47 *156:10 *643:B 2.20128e-06
48 *156:10 *188:70 2.87926e-05
49 *156:10 *290:12 0
50 *156:25 *643:B 6.31894e-06
51 *156:25 *188:70 6.70283e-06
52 *156:25 *188:74 5.85387e-06
53 *156:29 *643:B 2.24923e-05
54 *156:29 *188:80 1.54163e-06
55 *156:29 *281:8 1.89962e-06
56 *156:33 *327:14 2.11853e-06
57 *156:39 *180:94 0
58 *156:50 *281:8 3.32524e-06
59 *156:52 *569:A 2.20493e-06
60 *156:52 *347:14 8.23084e-06
61 *156:56 *569:A 1.22121e-05
62 *156:56 *570:A 5.34278e-06
63 *156:101 *188:70 1.64348e-06
64 *156:101 *391:101 0
65 *156:111 *188:70 1.66294e-05
66 *156:113 *188:8 0.000230929
67 *156:113 *188:70 1.22048e-05
68 *156:117 *180:46 6.19506e-06
69 *156:123 *180:46 3.9754e-05
70 *156:123 *200:8 0
71 *156:137 *173:6 3.22907e-06
72 *156:139 *172:85 2.0461e-05
73 *156:139 *172:91 2.62709e-05
74 *156:139 *173:6 2.9366e-06
75 *156:158 *188:22 0
76 *156:158 *277:10 6.99318e-06
77 *156:158 *278:8 0
78 *156:158 *387:13 3.77861e-06
79 *156:195 *391:101 2.01266e-05
80 *506:A *156:195 4.02536e-05
81 *571:A1 *156:64 0
82 *576:A *156:64 4.60953e-05
83 *627:A2 *627:A1 2.0895e-06
84 *628:A *156:145 5.95881e-06
85 *631:A *156:52 6.78917e-06
86 *631:C *156:50 1.75355e-05
87 *652:A *571:A2 1.07377e-06
88 *652:A *156:64 3.42518e-07
89 *667:B *156:113 5.52652e-06
90 *13:39 *156:137 3.1244e-06
91 *13:39 *156:139 1.88951e-06
92 *18:10 *156:195 1.04475e-06
93 *18:20 *156:10 5.52807e-07
94 *18:20 *156:101 6.33206e-07
95 *18:24 *156:6 2.20493e-06
96 *18:24 *156:101 3.56648e-06
97 *18:28 *156:113 0
98 *18:28 *156:123 7.35909e-06
99 *18:28 *156:135 4.7643e-07
100 *18:40 *156:135 3.21173e-06
101 *18:46 *156:137 3.38269e-05
102 *18:83 *156:145 5.63702e-07
103 *18:229 *156:64 2.98641e-05
104 *18:259 *156:52 5.39412e-05
105 *19:60 *156:137 6.96712e-05
106 *19:60 *156:139 7.34846e-05
107 *19:66 *156:139 7.3315e-05
108 *19:79 *156:158 0
109 *19:130 *156:127 8.13414e-06
110 *19:130 *156:135 3.89037e-06
111 *19:130 *156:137 1.26391e-06
112 *20:12 *156:50 1.56713e-06
113 *20:12 *156:52 3.13426e-06
114 *20:16 *156:52 1.5207e-05
115 *25:12 *156:29 3.43688e-05
116 *25:19 *156:29 4.20278e-05
117 *25:19 *156:50 1.66587e-05
118 *31:8 *156:58 1.70866e-06
119 *34:44 *156:113 0
120 *35:10 *156:113 8.54172e-06
121 *36:53 *156:113 0
122 *50:10 *156:145 6.51659e-06
123 *50:14 *156:139 6.10829e-07
124 *111:10 *156:101 5.97901e-06
125 *117:12 *156:64 3.73144e-06
126 *117:16 *156:64 3.99766e-06
127 *118:28 *571:A2 8.3281e-06
128 *155:12 *156:101 1.08414e-05
129 *155:12 *156:111 3.76984e-06
130 *155:14 *156:195 6.05413e-05
*RES
1 *490:Y *156:6 18.8045 
2 *156:6 *156:10 39.1635 
3 *156:10 *643:A2 35.4697 
4 *156:10 *156:25 24.4361 
5 *156:25 *156:27 17.2 
6 *156:27 *156:29 38.8585 
7 *156:29 *156:31 17.2 
8 *156:31 *156:33 34.7636 
9 *156:33 *156:39 40.0317 
10 *156:39 *634:A1 17.2 
11 *156:29 *156:50 29.7844 
12 *156:50 *156:52 72.7362 
13 *156:52 *156:56 31.1054 
14 *156:56 *156:58 40.548 
15 *156:58 *156:64 49.7996 
16 *156:64 *576:B 17.2 
17 *156:58 *571:A2 40.8179 
18 *156:52 *570:B 17.2 
19 *156:50 *631:B 17.2 
20 *156:25 *638:B 41.8019 
21 *156:6 *156:101 36.2059 
22 *156:101 *156:111 44.102 
23 *156:111 *156:113 104.186 
24 *156:113 *156:117 18.8045 
25 *156:117 *156:123 34.1197 
26 *156:123 *156:127 19.3393 
27 *156:127 *156:135 38.2855 
28 *156:135 *156:137 40.1119 
29 *156:137 *156:139 41.1815 
30 *156:139 *156:145 44.537 
31 *156:145 *156:147 5.88308 
32 *156:147 *623:B 30.5706 
33 *156:147 *156:158 49.3005 
34 *156:158 *627:A1 37.0741 
35 *156:137 *523:A1 17.2 
36 *156:127 *508:B 17.2 
37 *156:117 *546:A1 17.2 
38 *156:111 *524:B 37.0741 
39 *156:101 *156:195 45.5457 
40 *156:195 *505:A1 17.2 
*END

*D_NET *157 0.000106622
*CONN
*P divisor[4] I
*I *491:A I *D BUFx2_ASAP7_75t_R
*CAP
1 divisor[4] 4.20338e-05
2 *491:A 0
3 *157:15 1.12771e-05
4 *157:9 5.33109e-05
*RES
1 divisor[4] *157:9 34.4275 
2 *157:9 *157:15 43.3168 
3 *157:15 *491:A 17.2 
*END

*D_NET *158 0.000246703
*CONN
*I *539:A1 I *D OA21x2_ASAP7_75t_R
*I *561:A1 I *D OA211x2_ASAP7_75t_R
*I *495:A I *D OR3x2_ASAP7_75t_R
*I *492:Y O *D AO211x2_ASAP7_75t_R
*CAP
1 *539:A1 3.62703e-06
2 *561:A1 1.87569e-05
3 *495:A 0
4 *492:Y 4.45493e-05
5 *158:25 3.23495e-05
6 *158:14 1.42701e-05
7 *158:6 4.88539e-05
8 *539:A1 *539:A2 6.7842e-07
9 *561:A1 *561:A2 2.62668e-05
10 *158:6 *161:6 1.04475e-05
11 *158:14 *161:6 3.90258e-06
12 *158:25 *561:A2 8.46363e-06
13 *158:25 *159:10 6.71283e-06
14 *158:25 *159:12 1.86635e-05
15 *158:25 *161:6 3.90258e-06
16 *492:B *158:6 5.25794e-06
*RES
1 *492:Y *158:6 47.685 
2 *158:6 *158:14 38.2855 
3 *158:14 *495:A 17.2 
4 *158:14 *158:25 29.533 
5 *158:25 *561:A1 48.7022 
6 *158:25 *539:A1 36.0045 
*END

*D_NET *159 0.000551109
*CONN
*I *495:B I *D OR3x2_ASAP7_75t_R
*I *539:A2 I *D OA21x2_ASAP7_75t_R
*I *561:A2 I *D OA211x2_ASAP7_75t_R
*I *493:Y O *D OA211x2_ASAP7_75t_R
*CAP
1 *495:B 0
2 *539:A2 4.17357e-06
3 *561:A2 1.77661e-05
4 *493:Y 0
5 *159:12 2.79034e-05
6 *159:10 4.7765e-05
7 *159:6 0.000202482
8 *159:4 0.000160681
9 *561:A2 *164:23 0
10 *539:A1 *539:A2 6.7842e-07
11 *561:A1 *561:A2 2.62668e-05
12 *35:56 *561:A2 0
13 *35:56 *159:10 0
14 *35:56 *159:12 0
15 *38:14 *539:A2 1.25483e-05
16 *38:20 *159:12 1.12894e-06
17 *60:34 *159:6 2.66797e-07
18 *61:32 *159:6 1.56089e-05
19 *158:25 *561:A2 8.46363e-06
20 *158:25 *159:10 6.71283e-06
21 *158:25 *159:12 1.86635e-05
*RES
1 *493:Y *159:4 17.2 
2 *159:4 *159:6 76.48 
3 *159:6 *159:10 49.3005 
4 *159:10 *159:12 6.75799 
5 *159:12 *561:A2 48.929 
6 *159:12 *539:A2 38.1438 
7 *159:10 *495:B 34.4 
*END

*D_NET *160 0.000292797
*CONN
*I *499:B2 I *D OA22x2_ASAP7_75t_R
*I *495:C I *D OR3x2_ASAP7_75t_R
*I *494:Y O *D OR4x1_ASAP7_75t_R
*CAP
1 *499:B2 0
2 *495:C 1.32037e-05
3 *494:Y 4.90038e-05
4 *160:20 1.90009e-05
5 *160:14 2.26755e-05
6 *160:12 2.29761e-05
7 *160:6 5.51015e-05
8 *495:C *161:6 1.03895e-05
9 *495:C *162:20 1.23408e-05
10 *160:12 *541:A 5.06565e-06
11 *160:12 *162:16 6.33206e-07
12 *160:12 *163:14 4.83862e-06
13 *160:14 *499:B1 2.90209e-08
14 *160:14 *163:14 5.25839e-05
15 *160:20 *162:26 3.05118e-08
16 *160:20 *163:22 4.97654e-06
17 *160:20 *164:34 1.61287e-05
18 *38:22 *495:C 3.81941e-06
19 *38:22 *160:6 0
*RES
1 *494:Y *160:6 36.9885 
2 *160:6 *160:12 38.9053 
3 *160:12 *160:14 15.5099 
4 *160:14 *160:20 40.0317 
5 *160:20 *495:C 28.9662 
6 *160:14 *499:B2 17.2 
*END

*D_NET *161 0.000393021
*CONN
*I *621:B I *D AND3x1_ASAP7_75t_R
*I *500:A I *D NAND2x1_ASAP7_75t_R
*I *555:A1 I *D AO21x1_ASAP7_75t_R
*I *507:A I *D AND2x4_ASAP7_75t_R
*I *495:Y O *D OR3x2_ASAP7_75t_R
*CAP
1 *621:B 0
2 *500:A 1.09988e-05
3 *555:A1 0
4 *507:A 0
5 *495:Y 3.50806e-05
6 *161:47 3.24583e-05
7 *161:32 5.19955e-05
8 *161:23 2.9401e-05
9 *161:12 2.9401e-05
10 *161:10 5.30941e-05
11 *161:8 4.45557e-05
12 *161:6 3.50806e-05
13 *500:A *500:B 5.09299e-06
14 *500:A *389:77 0
15 *161:10 *165:10 1.9375e-05
16 *161:10 *195:8 0
17 *161:23 *166:10 1.49407e-08
18 *161:23 *166:18 2.35211e-06
19 *161:23 *172:6 0
20 *161:32 *165:10 2.19685e-06
21 *161:32 *165:19 4.3937e-06
22 *161:47 *621:C 7.32035e-06
23 *161:47 *273:6 1.56713e-06
24 *495:C *161:6 1.03895e-05
25 *158:6 *161:6 1.04475e-05
26 *158:14 *161:6 3.90258e-06
27 *158:25 *161:6 3.90258e-06
*RES
1 *495:Y *161:6 34.8492 
2 *161:6 *161:8 17.2 
3 *161:8 *161:10 37.169 
4 *161:10 *161:12 17.2 
5 *161:12 *507:A 17.2 
6 *161:12 *161:23 36.429 
7 *161:23 *555:A1 34.4 
8 *161:10 *161:32 9.01066 
9 *161:32 *500:A 39.7482 
10 *161:32 *161:47 37.0205 
11 *161:47 *621:B 17.2 
*END

*D_NET *162 0.00034371
*CONN
*I *541:A I *D NOR2x1_ASAP7_75t_R
*I *499:A1 I *D OA22x2_ASAP7_75t_R
*I *496:Y O *D OA211x2_ASAP7_75t_R
*CAP
1 *541:A 1.04364e-05
2 *499:A1 0
3 *496:Y 4.11482e-06
4 *162:26 5.38975e-06
5 *162:20 4.36043e-05
6 *162:16 6.14954e-05
7 *162:12 5.88003e-05
8 *162:8 5.00706e-05
9 *541:A *541:B 1.09842e-06
10 *541:A *163:14 5.55315e-06
11 *541:A *202:10 1.57573e-05
12 *162:12 *202:8 7.63254e-07
13 *162:12 *221:18 1.81701e-05
14 *162:16 *202:10 1.60505e-05
15 *162:26 *163:22 3.92018e-06
16 *495:C *162:20 1.23408e-05
17 *16:36 *162:16 0
18 *35:56 *162:26 7.09459e-06
19 *38:22 *162:20 0
20 *51:12 *162:8 6.79293e-06
21 *56:55 *162:8 1.6528e-05
22 *160:12 *541:A 5.06565e-06
23 *160:12 *162:16 6.33206e-07
24 *160:20 *162:26 3.05118e-08
*RES
1 *496:Y *162:8 40.0317 
2 *162:8 *162:12 46.6154 
3 *162:12 *162:16 29.5897 
4 *162:16 *162:20 33.7796 
5 *162:20 *162:26 40.0317 
6 *162:26 *499:A1 17.2 
7 *162:16 *541:A 47.3528 
*END

*D_NET *163 0.000325882
*CONN
*I *541:B I *D NOR2x1_ASAP7_75t_R
*I *499:A2 I *D OA22x2_ASAP7_75t_R
*I *497:Y O *D AO21x1_ASAP7_75t_R
*CAP
1 *541:B 2.9936e-06
2 *499:A2 0
3 *497:Y 6.74468e-05
4 *163:22 4.90114e-06
5 *163:14 4.87618e-05
6 *163:8 4.68543e-05
7 *163:6 6.74468e-05
8 *541:B *202:10 0
9 *163:22 *164:34 4.55339e-06
10 *497:A1 *163:6 8.87763e-06
11 *541:A *541:B 1.09842e-06
12 *541:A *163:14 5.55315e-06
13 *16:36 *541:B 0
14 *16:36 *163:14 0
15 *17:16 *163:6 0
16 *35:56 *163:22 1.07573e-06
17 *160:12 *163:14 4.83862e-06
18 *160:14 *163:14 5.25839e-05
19 *160:20 *163:22 4.97654e-06
20 *162:26 *163:22 3.92018e-06
*RES
1 *497:Y *163:6 46.0806 
2 *163:6 *163:8 17.2 
3 *163:8 *163:14 43.8599 
4 *163:14 *163:22 40.5381 
5 *163:22 *499:A2 17.2 
6 *163:8 *541:B 37.2158 
*END

*D_NET *164 0.000273441
*CONN
*I *499:B1 I *D OA22x2_ASAP7_75t_R
*I *539:B I *D OA21x2_ASAP7_75t_R
*I *561:B I *D OA211x2_ASAP7_75t_R
*I *498:Y O *D OA21x2_ASAP7_75t_R
*CAP
1 *499:B1 2.72889e-06
2 *539:B 0
3 *561:B 3.38542e-06
4 *498:Y 4.67221e-05
5 *164:34 3.91535e-05
6 *164:23 4.97468e-05
7 *164:10 2.50671e-05
8 *164:6 5.50815e-05
9 *164:34 *540:B 6.86929e-06
10 *561:A2 *164:23 0
11 *15:48 *164:34 0
12 *35:56 *164:10 1.00883e-05
13 *35:56 *164:23 1.38875e-05
14 *35:56 *164:34 0
15 *160:14 *499:B1 2.90209e-08
16 *160:20 *164:34 1.61287e-05
17 *163:22 *164:34 4.55339e-06
*RES
1 *498:Y *164:6 45.5457 
2 *164:6 *164:10 25.0843 
3 *164:10 *561:B 36.0045 
4 *164:10 *164:23 28.4633 
5 *164:23 *539:B 17.2 
6 *164:23 *164:34 44.8765 
7 *164:34 *499:B1 35.4697 
*END

*D_NET *165 0.000354714
*CONN
*I *621:C I *D AND3x1_ASAP7_75t_R
*I *555:A2 I *D AO21x1_ASAP7_75t_R
*I *500:B I *D NAND2x1_ASAP7_75t_R
*I *507:B I *D AND2x4_ASAP7_75t_R
*I *499:Y O *D OA22x2_ASAP7_75t_R
*CAP
1 *621:C 1.53994e-05
2 *555:A2 7.35239e-06
3 *500:B 4.65782e-06
4 *507:B 0
5 *499:Y 3.49457e-05
6 *165:30 2.5919e-05
7 *165:19 1.59785e-05
8 *165:10 4.49433e-05
9 *165:8 3.67897e-05
10 *165:6 3.49457e-05
11 *555:A2 *166:10 5.0551e-07
12 *555:A2 *166:18 2.31575e-05
13 *555:A2 *166:22 1.40419e-08
14 *555:A2 *389:77 4.93388e-05
15 *621:C *273:6 9.08513e-06
16 *165:10 *195:8 0
17 *500:A *500:B 5.09299e-06
18 *12:30 *621:C 3.3563e-06
19 *12:30 *165:10 5.79724e-07
20 *12:30 *165:19 7.17027e-06
21 *12:30 *165:30 2.19685e-06
22 *161:10 *165:10 1.9375e-05
23 *161:32 *165:10 2.19685e-06
24 *161:32 *165:19 4.3937e-06
25 *161:47 *621:C 7.32035e-06
*RES
1 *499:Y *165:6 36.9885 
2 *165:6 *165:8 17.2 
3 *165:8 *165:10 33.2268 
4 *165:10 *507:B 34.4 
5 *165:10 *165:19 9.01066 
6 *165:19 *500:B 39.7482 
7 *165:19 *165:30 2.81583 
8 *165:30 *555:A2 49.3751 
9 *165:30 *621:C 47.1544 
*END

*D_NET *166 0.00109423
*CONN
*I *551:C I *D OR3x1_ASAP7_75t_R
*I *504:A I *D NAND2x1_ASAP7_75t_R
*I *556:B I *D OR3x1_ASAP7_75t_R
*I *525:A1 I *D AO21x1_ASAP7_75t_R
*I *514:A1 I *D AO32x1_ASAP7_75t_R
*I *522:A2 I *D OA21x2_ASAP7_75t_R
*I *622:A2 I *D AO21x1_ASAP7_75t_R
*I *534:C I *D OA211x2_ASAP7_75t_R
*I *500:Y O *D NAND2x1_ASAP7_75t_R
*CAP
1 *551:C 4.15434e-06
2 *504:A 0
3 *556:B 0
4 *525:A1 1.54302e-05
5 *514:A1 0
6 *522:A2 0
7 *622:A2 1.58661e-05
8 *534:C 4.0118e-06
9 *500:Y 1.01828e-05
10 *166:121 2.45627e-05
11 *166:110 3.21583e-05
12 *166:106 7.05994e-05
13 *166:104 5.88495e-05
14 *166:95 1.01394e-05
15 *166:87 8.47226e-05
16 *166:69 8.11339e-06
17 *166:51 3.28389e-05
18 *166:49 3.69389e-05
19 *166:45 3.24372e-05
20 *166:41 4.97292e-05
21 *166:26 6.15696e-05
22 *166:22 9.55175e-05
23 *166:18 1.82273e-05
24 *166:10 2.04586e-05
25 *525:A1 *172:62 2.3659e-06
26 *525:A1 *176:37 2.48762e-06
27 *622:A2 *622:B 2.2085e-05
28 *166:18 *188:46 2.05045e-06
29 *166:22 *188:59 2.20493e-06
30 *166:22 *389:77 0
31 *166:26 *188:46 5.53373e-05
32 *166:26 *215:10 4.87478e-05
33 *166:41 *178:14 0
34 *166:41 *188:46 4.00301e-05
35 *166:41 *215:10 4.1643e-05
36 *166:45 *172:62 1.12894e-06
37 *166:49 *178:14 7.97634e-06
38 *166:69 *514:B1 4.70769e-06
39 *166:69 *176:29 2.98961e-07
40 *166:69 *177:23 0
41 *166:69 *178:10 3.47607e-06
42 *166:69 *186:10 1.40354e-06
43 *166:87 *188:59 3.249e-05
44 *166:87 *188:63 3.80537e-06
45 *166:95 *188:63 1.59893e-05
46 *166:95 *204:10 4.43244e-06
47 *166:106 *204:10 0
48 *166:110 *169:12 1.17156e-05
49 *166:121 *169:12 9.75263e-06
50 *166:121 *211:33 4.48523e-06
51 *555:A2 *166:10 5.0551e-07
52 *555:A2 *166:18 2.31575e-05
53 *555:A2 *166:22 1.40419e-08
54 *556:A *166:87 6.06859e-06
55 *556:A *166:95 1.02586e-05
56 *12:24 *525:A1 2.20493e-06
57 *12:28 *525:A1 8.2174e-07
58 *12:30 *525:A1 3.73518e-07
59 *12:30 *166:45 1.34466e-06
60 *16:14 *166:121 1.15587e-05
61 *16:20 *166:121 2.68731e-05
62 *16:32 *166:87 3.56177e-06
63 *19:160 *166:106 0
64 *35:56 *166:26 0
65 *161:23 *166:10 1.49407e-08
66 *161:23 *166:18 2.35211e-06
*RES
1 *500:Y *166:10 39.9466 
2 *166:10 *166:18 45.2949 
3 *166:18 *166:22 20.9438 
4 *166:22 *166:26 38.0371 
5 *166:26 *534:C 36.0045 
6 *166:26 *166:41 47.8587 
7 *166:41 *166:45 21.1422 
8 *166:45 *166:49 25.2224 
9 *166:49 *166:51 10.1617 
10 *166:51 *622:A2 27.3617 
11 *166:51 *522:A2 17.2 
12 *166:49 *166:69 41.158 
13 *166:69 *514:A1 17.2 
14 *166:45 *525:A1 45.0151 
15 *166:22 *166:87 39.0422 
16 *166:87 *166:95 42.6208 
17 *166:95 *556:B 17.2 
18 *166:95 *166:104 17.2 
19 *166:104 *166:106 40.548 
20 *166:106 *166:110 24.6875 
21 *166:110 *504:A 17.2 
22 *166:110 *166:121 37.0772 
23 *166:121 *551:C 36.0045 
*END

*D_NET *167 0.000111282
*CONN
*P divisor[3] I
*I *501:A I *D BUFx2_ASAP7_75t_R
*CAP
1 divisor[3] 5.56412e-05
2 *501:A 0
3 *167:9 5.56412e-05
*RES
1 divisor[3] *167:9 44.1509 
2 *167:9 *501:A 34.4 
*END

*D_NET *168 0.000156273
*CONN
*P divisor[2] I
*I *502:A I *D BUFx2_ASAP7_75t_R
*CAP
1 divisor[2] 4.0501e-05
2 *502:A 0
3 *168:13 3.0978e-05
4 *168:9 7.1479e-05
5 *127:9 *168:9 1.33146e-05
*RES
1 divisor[2] *168:9 39.9966 
2 *168:9 *168:13 33.7796 
3 *168:13 *502:A 17.2 
*END

*D_NET *169 0.000411126
*CONN
*I *514:A2 I *D AO32x1_ASAP7_75t_R
*I *504:B I *D NAND2x1_ASAP7_75t_R
*I *503:Y O *D NOR2x1_ASAP7_75t_R
*CAP
1 *514:A2 0
2 *504:B 0
3 *503:Y 0
4 *169:31 6.00306e-06
5 *169:23 0.000134513
6 *169:21 0.000132112
7 *169:12 3.92857e-05
8 *169:6 4.28876e-05
9 *169:31 *179:8 3.68287e-06
10 *169:31 *179:10 3.79923e-06
11 *169:31 *186:10 5.67735e-06
12 *15:31 *169:12 4.97654e-06
13 *15:31 *169:21 1.34257e-05
14 *19:150 *169:12 1.64764e-06
15 *19:150 *169:21 1.64764e-06
16 *166:110 *169:12 1.17156e-05
17 *166:121 *169:12 9.75263e-06
*RES
1 *503:Y *169:6 34.4 
2 *169:6 *169:12 42.4218 
3 *169:12 *504:B 17.2 
4 *169:6 *169:21 21.7053 
5 *169:21 *169:23 57.2263 
6 *169:23 *169:31 39.975 
7 *169:31 *514:A2 17.2 
*END

*D_NET *170 0.000485281
*CONN
*I *505:B I *D OA21x2_ASAP7_75t_R
*I *553:A1 I *D OA211x2_ASAP7_75t_R
*I *504:Y O *D NAND2x1_ASAP7_75t_R
*CAP
1 *505:B 0
2 *553:A1 0
3 *504:Y 1.96798e-05
4 *170:25 0.000187288
5 *170:23 0.000191389
6 *170:14 7.12844e-06
7 *170:6 3.09089e-05
8 *170:14 *211:33 0
9 *170:25 *658:B 0
10 *170:25 *212:10 8.33296e-06
11 *170:25 *306:12 2.74052e-05
12 *16:14 *170:25 0
13 *16:59 *170:25 9.89635e-06
14 *33:20 *170:25 0
15 *34:10 *170:25 3.2524e-06
*RES
1 *504:Y *170:6 25.2224 
2 *170:6 *170:14 39.975 
3 *170:14 *553:A1 17.2 
4 *170:6 *170:23 18.8045 
5 *170:23 *170:25 150.365 
6 *170:25 *505:B 34.4 
*END

*D_NET *171 2.5123e-05
*CONN
*I *506:B I *D NOR2x1_ASAP7_75t_R
*I *505:Y O *D OA21x2_ASAP7_75t_R
*CAP
1 *506:B 1.11714e-05
2 *505:Y 1.11714e-05
3 *506:A *506:B 2.7803e-06
*RES
1 *505:Y *506:B 42.4224 
*END

*D_NET *172 0.00158746
*CONN
*I *544:B I *D NAND2x1_ASAP7_75t_R
*I *536:A1 I *D AO21x1_ASAP7_75t_R
*I *510:A2 I *D OA211x2_ASAP7_75t_R
*I *509:B I *D NAND2x1_ASAP7_75t_R
*I *628:C I *D OR3x1_ASAP7_75t_R
*I *526:A2 I *D AO21x1_ASAP7_75t_R
*I *513:A2 I *D AO21x1_ASAP7_75t_R
*I *521:B I *D OR3x1_ASAP7_75t_R
*I *545:A1 I *D OA211x2_ASAP7_75t_R
*I *542:A2 I *D AOI22x1_ASAP7_75t_R
*I *507:Y O *D AND2x4_ASAP7_75t_R
*CAP
1 *544:B 0
2 *536:A1 5.7716e-06
3 *510:A2 0
4 *509:B 5.6497e-06
5 *628:C 0
6 *526:A2 2.57395e-06
7 *513:A2 0
8 *521:B 1.03139e-05
9 *545:A1 2.17092e-06
10 *542:A2 1.03224e-05
11 *507:Y 0
12 *172:128 2.86537e-05
13 *172:126 3.43097e-05
14 *172:106 1.57363e-05
15 *172:91 2.11902e-05
16 *172:85 4.41003e-05
17 *172:83 2.35341e-05
18 *172:77 6.548e-05
19 *172:73 7.2682e-05
20 *172:62 4.70791e-05
21 *172:60 3.80202e-05
22 *172:46 3.63109e-05
23 *172:44 6.35992e-05
24 *172:42 4.90476e-05
25 *172:29 3.21302e-05
26 *172:23 4.24543e-05
27 *172:8 3.42628e-05
28 *172:6 8.9714e-05
29 *172:4 8.9714e-05
30 *509:B *174:10 3.77e-06
31 *509:B *174:27 8.75221e-07
32 *521:B *513:A1 2.12481e-06
33 *521:B *184:20 7.35354e-06
34 *521:B *185:10 2.0895e-06
35 *542:A2 *203:10 7.84037e-07
36 *172:23 *215:45 9.07421e-06
37 *172:29 *206:8 0
38 *172:29 *215:45 6.70433e-06
39 *172:46 *178:10 2.27479e-06
40 *172:62 *176:37 2.98961e-07
41 *172:62 *188:31 5.26269e-05
42 *172:73 *187:8 8.20723e-06
43 *172:73 *188:31 3.37895e-05
44 *172:77 *527:A2 2.55563e-06
45 *172:83 *177:23 5.63702e-07
46 *172:85 *173:6 6.32346e-06
47 *172:91 *174:10 7.64042e-07
48 *172:106 *174:27 2.90269e-07
49 *172:126 *187:8 1.23208e-05
50 *172:126 *188:31 1.37752e-05
51 *172:128 *188:31 9.68847e-05
52 *525:A1 *172:62 2.3659e-06
53 *542:A1 *542:A2 5.51814e-06
54 *12:10 *172:128 1.25912e-05
55 *12:18 *172:73 9.14482e-06
56 *12:24 *172:62 1.93758e-05
57 *12:24 *172:73 1.56807e-06
58 *12:28 *172:62 0
59 *12:30 *172:62 0
60 *13:45 *172:83 0
61 *15:31 *542:A2 7.54709e-06
62 *15:31 *172:23 5.85806e-06
63 *15:46 *172:6 0
64 *16:32 *172:23 2.64666e-05
65 *18:75 *172:91 2.26397e-06
66 *18:140 *172:42 0
67 *18:166 *172:44 8.4204e-05
68 *19:50 *536:A1 7.63254e-07
69 *19:66 *172:91 1.95615e-05
70 *19:79 *172:91 8.06923e-06
71 *19:104 *521:B 3.50727e-05
72 *19:104 *172:46 7.14604e-06
73 *19:112 *172:46 3.68287e-06
74 *46:33 *172:106 0
75 *50:14 *172:85 4.18905e-06
76 *50:14 *172:91 2.54734e-05
77 *50:22 *172:106 4.83654e-06
78 *94:8 *172:128 0.000125625
79 *156:139 *172:85 2.0461e-05
80 *156:139 *172:91 2.62709e-05
81 *161:23 *172:6 0
82 *166:45 *172:62 1.12894e-06
*RES
1 *507:Y *172:4 17.2 
2 *172:4 *172:6 39.0422 
3 *172:6 *172:8 17.2 
4 *172:8 *542:A2 44.537 
5 *172:8 *172:23 38.2319 
6 *172:23 *172:29 32.1504 
7 *172:29 *545:A1 35.4697 
8 *172:29 *172:42 23.958 
9 *172:42 *172:44 33.694 
10 *172:44 *172:46 17.6492 
11 *172:46 *521:B 27.3617 
12 *172:46 *513:A2 17.2 
13 *172:44 *172:60 17.2 
14 *172:60 *172:62 36.6058 
15 *172:62 *526:A2 35.4697 
16 *172:62 *172:73 11.2633 
17 *172:73 *172:77 36.9885 
18 *172:77 *172:83 41.158 
19 *172:83 *172:85 12.301 
20 *172:85 *172:91 41.7206 
21 *172:91 *628:C 34.4 
22 *172:85 *172:106 42.2276 
23 *172:106 *509:B 20.9438 
24 *172:106 *510:A2 17.2 
25 *172:73 *172:126 41.1061 
26 *172:126 *172:128 42.3313 
27 *172:128 *536:A1 37.0741 
28 *172:23 *544:B 17.2 
*END

*D_NET *173 0.000567579
*CONN
*I *552:B1 I *D AOI221x1_ASAP7_75t_R
*I *510:B I *D OA211x2_ASAP7_75t_R
*I *508:Y O *D AND2x2_ASAP7_75t_R
*CAP
1 *552:B1 1.94376e-05
2 *510:B 0
3 *508:Y 0
4 *173:23 4.28085e-05
5 *173:14 1.51207e-05
6 *173:6 0.000153684
7 *173:4 0.000161934
8 *552:B1 *204:27 9.25306e-06
9 *173:14 *174:27 5.84952e-07
10 *173:14 *174:35 4.26607e-06
11 *552:A2 *552:B1 5.41446e-06
12 *12:16 *173:6 9.30483e-06
13 *13:39 *173:6 2.01215e-05
14 *15:31 *173:23 0
15 *18:28 *173:23 6.01196e-06
16 *18:32 *173:23 4.83654e-06
17 *18:46 *173:6 1.35684e-06
18 *18:134 *173:23 3.64849e-06
19 *18:192 *173:23 1.22511e-06
20 *19:130 *173:6 9.50085e-05
21 *19:138 *173:23 0
22 *19:150 *552:B1 1.07377e-06
23 *156:137 *173:6 3.22907e-06
24 *156:139 *173:6 2.9366e-06
25 *172:85 *173:6 6.32346e-06
*RES
1 *508:Y *173:4 17.2 
2 *173:4 *173:6 58.2959 
3 *173:6 *173:14 43.7188 
4 *173:14 *510:B 17.2 
5 *173:4 *173:23 36.9108 
6 *173:23 *552:B1 46.701 
*END

*D_NET *174 0.000169152
*CONN
*I *510:C I *D OA211x2_ASAP7_75t_R
*I *629:A1 I *D AO21x1_ASAP7_75t_R
*I *509:Y O *D NAND2x1_ASAP7_75t_R
*CAP
1 *510:C 0
2 *629:A1 6.06565e-06
3 *509:Y 0
4 *174:35 6.58856e-06
5 *174:27 3.20762e-05
6 *174:10 2.9523e-05
7 *174:4 4.8945e-05
8 *174:10 *279:10 1.18885e-05
9 *509:B *174:10 3.77e-06
10 *509:B *174:27 8.75221e-07
11 *18:75 *174:10 2.25481e-06
12 *19:79 *174:10 2.63456e-06
13 *46:18 *174:27 4.7643e-07
14 *46:22 *174:10 1.63028e-05
15 *50:22 *174:27 1.36155e-06
16 *50:22 *174:35 4.84697e-07
17 *172:91 *174:10 7.64042e-07
18 *172:106 *174:27 2.90269e-07
19 *173:14 *174:27 5.84952e-07
20 *173:14 *174:35 4.26607e-06
*RES
1 *509:Y *174:4 17.2 
2 *174:4 *174:10 34.063 
3 *174:10 *629:A1 37.0741 
4 *174:4 *174:27 45.2382 
5 *174:27 *174:35 39.4118 
6 *174:35 *510:C 17.2 
*END

*D_NET *175 4.02082e-05
*CONN
*I *516:A1 I *D OA21x2_ASAP7_75t_R
*I *510:Y O *D OA211x2_ASAP7_75t_R
*CAP
1 *516:A1 2.01041e-05
2 *510:Y 2.01041e-05
*RES
1 *510:Y *516:A1 42.9572 
*END

*D_NET *176 0.000457066
*CONN
*I *525:A2 I *D AO21x1_ASAP7_75t_R
*I *514:A3 I *D AO32x1_ASAP7_75t_R
*I *511:Y O *D XNOR2x2_ASAP7_75t_R
*CAP
1 *525:A2 0
2 *514:A3 0
3 *511:Y 3.27773e-05
4 *176:37 4.22321e-06
5 *176:29 3.01045e-05
6 *176:14 4.35129e-05
7 *176:10 4.8679e-05
8 *176:8 6.38247e-05
9 *176:10 *177:23 8.85176e-06
10 *176:10 *273:10 6.68814e-05
11 *176:14 *179:8 1.51653e-06
12 *176:29 *186:10 2.48464e-06
13 *525:A1 *176:37 2.48762e-06
14 *12:34 *176:8 6.34696e-06
15 *13:57 *176:10 2.96996e-05
16 *13:59 *176:10 0.000111451
17 *73:22 *176:10 3.6269e-06
18 *166:69 *176:29 2.98961e-07
19 *172:62 *176:37 2.98961e-07
*RES
1 *511:Y *176:8 49.9099 
2 *176:8 *176:10 46.7428 
3 *176:10 *176:14 27.3617 
4 *176:14 *514:A3 17.2 
5 *176:14 *176:29 43.7752 
6 *176:29 *176:37 36.8492 
7 *176:37 *525:A2 17.2 
*END

*D_NET *177 0.000577929
*CONN
*I *513:A1 I *D AO21x1_ASAP7_75t_R
*I *533:A I *D OR2x2_ASAP7_75t_R
*I *623:A1 I *D OA21x2_ASAP7_75t_R
*I *512:Y O *D INVx1_ASAP7_75t_R
*CAP
1 *513:A1 1.51306e-06
2 *533:A 1.55e-05
3 *623:A1 0
4 *512:Y 0
5 *177:23 6.7891e-05
6 *177:21 9.05683e-05
7 *177:12 1.0968e-05
8 *177:6 0.000119937
9 *177:4 0.000148659
10 *513:A1 *185:10 5.62196e-06
11 *533:A *273:10 2.29795e-05
12 *177:12 *363:10 3.44699e-05
13 *177:23 *185:10 4.45472e-06
14 *177:23 *186:10 0
15 *177:23 *273:10 2.18965e-05
16 *512:A *177:6 0
17 *521:B *513:A1 2.12481e-06
18 *11:33 *177:6 1.3988e-05
19 *11:35 *177:12 2.99938e-06
20 *13:45 *177:23 0
21 *13:53 *177:23 0
22 *13:57 *177:23 4.94291e-06
23 *18:83 *177:6 0
24 *19:98 *177:23 0
25 *19:112 *533:A 0
26 *166:69 *177:23 0
27 *172:83 *177:23 5.63702e-07
28 *176:10 *177:23 8.85176e-06
*RES
1 *512:Y *177:4 17.2 
2 *177:4 *177:6 40.1119 
3 *177:6 *177:12 46.2265 
4 *177:12 *623:A1 17.2 
5 *177:4 *177:21 31.6403 
6 *177:21 *177:23 45.0533 
7 *177:23 *533:A 44.9585 
8 *177:23 *513:A1 36.0045 
*END

*D_NET *178 0.000600738
*CONN
*I *514:B1 I *D AO32x1_ASAP7_75t_R
*I *537:B I *D NAND2x1_ASAP7_75t_R
*I *567:A2 I *D AOI221x1_ASAP7_75t_R
*I *513:Y O *D AO21x1_ASAP7_75t_R
*CAP
1 *514:B1 7.25796e-06
2 *537:B 6.79024e-06
3 *567:A2 0
4 *513:Y 1.69492e-05
5 *178:26 4.7926e-05
6 *178:24 4.7926e-05
7 *178:22 9.00741e-05
8 *178:20 9.37662e-05
9 *178:16 1.04824e-05
10 *178:14 7.19945e-05
11 *178:10 9.62017e-05
12 *514:B1 *186:10 0
13 *178:10 *185:10 0
14 *178:26 *211:33 0
15 *12:28 *514:B1 6.7631e-06
16 *12:30 *514:B1 1.31604e-05
17 *12:30 *178:10 2.65972e-05
18 *19:156 *178:22 3.58867e-05
19 *32:21 *178:26 2.68933e-07
20 *32:34 *178:26 1.89747e-06
21 *35:39 *537:B 0
22 *35:54 *537:B 4.74248e-06
23 *35:54 *178:20 3.61852e-06
24 *166:41 *178:14 0
25 *166:49 *178:14 7.97634e-06
26 *166:69 *514:B1 4.70769e-06
27 *166:69 *178:10 3.47607e-06
28 *172:46 *178:10 2.27479e-06
*RES
1 *513:Y *178:10 48.2241 
2 *178:10 *178:14 47.685 
3 *178:14 *178:16 17.2 
4 *178:16 *178:20 20.0158 
5 *178:20 *178:22 56.1566 
6 *178:22 *178:24 17.2 
7 *178:24 *178:26 35.4795 
8 *178:26 *567:A2 34.4 
9 *178:16 *537:B 40.0317 
10 *178:10 *514:B1 42.2276 
*END

*D_NET *179 0.000174197
*CONN
*I *516:A2 I *D OA21x2_ASAP7_75t_R
*I *514:Y O *D AO32x1_ASAP7_75t_R
*CAP
1 *516:A2 2.5525e-06
2 *514:Y 1.97125e-05
3 *179:10 5.19108e-05
4 *179:8 6.90707e-05
5 *179:10 *523:B 5.33881e-07
6 *179:10 *186:10 5.37866e-07
7 *12:18 *179:10 0
8 *12:24 *179:10 0
9 *12:28 *179:10 6.33206e-07
10 *13:33 *179:10 6.09588e-06
11 *13:45 *179:10 1.4151e-05
12 *18:58 *179:10 0
13 *169:31 *179:8 3.68287e-06
14 *169:31 *179:10 3.79923e-06
15 *176:14 *179:8 1.51653e-06
*RES
1 *514:Y *179:8 42.4224 
2 *179:8 *179:10 38.2953 
3 *179:10 *516:A2 35.4697 
*END

*D_NET *180 0.00171481
*CONN
*I *635:A I *D AND2x2_ASAP7_75t_R
*I *641:A I *D AND2x2_ASAP7_75t_R
*I *627:B I *D OA21x2_ASAP7_75t_R
*I *538:B I *D OA211x2_ASAP7_75t_R
*I *546:B I *D OA21x2_ASAP7_75t_R
*I *523:B I *D OA21x2_ASAP7_75t_R
*I *516:B I *D OA21x2_ASAP7_75t_R
*I *515:Y O *D NOR2x1_ASAP7_75t_R
*CAP
1 *635:A 0
2 *641:A 1.94554e-05
3 *627:B 0
4 *538:B 0
5 *546:B 0
6 *523:B 6.49344e-06
7 *516:B 0
8 *515:Y 0
9 *180:94 3.30661e-05
10 *180:81 5.25216e-05
11 *180:79 0.000180717
12 *180:72 7.79604e-05
13 *180:70 7.79604e-05
14 *180:63 1.75354e-05
15 *180:55 7.08609e-05
16 *180:46 6.59363e-05
17 *180:44 6.59363e-05
18 *180:42 3.19391e-05
19 *180:23 4.20458e-05
20 *180:14 2.78265e-05
21 *180:10 8.28971e-05
22 *180:8 0.000152518
23 *180:6 0.00014716
24 *180:4 0.000180717
25 *180:8 *364:42 5.4793e-05
26 *180:8 *364:44 9.59753e-06
27 *180:8 *364:48 7.2538e-06
28 *180:8 *391:18 0
29 *180:8 *391:33 2.22736e-06
30 *180:8 *391:37 1.15945e-05
31 *180:55 *188:12 0
32 *180:55 *188:14 0
33 *180:55 *215:16 6.7842e-07
34 *180:63 *197:20 1.35684e-06
35 *420:A *180:8 8.33296e-06
36 *13:33 *523:B 7.30305e-06
37 *13:33 *180:8 1.82715e-05
38 *13:33 *180:10 1.51765e-05
39 *13:33 *180:14 8.83215e-05
40 *15:22 *180:46 6.19506e-06
41 *18:58 *523:B 8.71118e-06
42 *18:67 *180:14 3.18377e-06
43 *19:8 *180:8 3.7685e-05
44 *19:54 *180:42 1.93482e-06
45 *19:54 *180:63 0
46 *35:39 *180:63 7.90851e-06
47 *37:24 *180:8 1.20741e-05
48 *74:40 *180:8 1.09842e-06
49 *93:10 *180:8 6.79803e-06
50 *93:10 *180:10 1.09067e-06
51 *93:10 *180:14 6.87273e-06
52 *118:234 *180:79 7.15161e-06
53 *118:255 *180:79 9.16563e-06
54 *156:39 *180:94 0
55 *156:117 *180:46 6.19506e-06
56 *156:123 *180:46 3.9754e-05
57 *179:10 *523:B 5.33881e-07
*RES
1 *515:Y *180:4 17.2 
2 *180:4 *180:6 17.2 
3 *180:6 *180:8 134.597 
4 *180:8 *180:10 5.63166 
5 *180:10 *180:14 46.4846 
6 *180:14 *516:B 17.2 
7 *180:14 *180:23 18.8045 
8 *180:23 *523:B 42.2843 
9 *180:23 *180:42 43.931 
10 *180:42 *180:44 17.2 
11 *180:44 *180:46 37.9726 
12 *180:46 *546:B 17.2 
13 *180:10 *180:55 38.0582 
14 *180:55 *180:63 45.9714 
15 *180:63 *538:B 17.2 
16 *180:8 *180:70 17.2 
17 *180:70 *180:72 47.5994 
18 *180:72 *627:B 17.2 
19 *180:4 *180:79 95.7337 
20 *180:79 *180:81 17.2 
21 *180:81 *641:A 48.4791 
22 *180:81 *180:94 43.1056 
23 *180:94 *635:A 17.2 
*END

*D_NET *181 0.000110737
*CONN
*P divisor[1] I
*I *517:A I *D BUFx2_ASAP7_75t_R
*CAP
1 divisor[1] 5.53685e-05
2 *517:A 0
3 *181:9 5.53685e-05
*RES
1 divisor[1] *181:9 43.9632 
2 *181:9 *517:A 34.4 
*END

*D_NET *182 0.00010874
*CONN
*I *519:A2 I *D OA21x2_ASAP7_75t_R
*I *518:Y O *D OA21x2_ASAP7_75t_R
*CAP
1 *519:A2 1.73585e-05
2 *518:Y 2.67729e-05
3 *182:8 4.41314e-05
4 *182:8 *389:14 6.06612e-06
5 *49:6 *519:A2 0
6 *61:21 *519:A2 1.27636e-05
7 *62:12 *519:A2 1.64764e-06
*RES
1 *518:Y *182:8 47.7706 
2 *182:8 *519:A2 48.4791 
*END

*D_NET *183 2.17917e-05
*CONN
*I *520:B I *D XOR2x2_ASAP7_75t_R
*I *519:Y O *D OA21x2_ASAP7_75t_R
*CAP
1 *520:B 6.74038e-06
2 *519:Y 6.74038e-06
3 *61:32 *520:B 8.31096e-06
*RES
1 *519:Y *520:B 40.2831 
*END

*D_NET *184 0.000153064
*CONN
*I *533:B I *D OR2x2_ASAP7_75t_R
*I *521:C I *D OR3x1_ASAP7_75t_R
*I *520:Y O *D XOR2x2_ASAP7_75t_R
*CAP
1 *533:B 0
2 *521:C 0
3 *520:Y 0
4 *184:20 1.34456e-05
5 *184:12 2.38347e-05
6 *184:10 5.14407e-05
7 *184:6 4.10516e-05
8 *521:B *184:20 7.35354e-06
9 *13:59 *184:10 0
10 *13:59 *184:20 1.23111e-05
11 *19:104 *184:20 3.6269e-06
*RES
1 *520:Y *184:6 34.4 
2 *184:6 *184:10 47.0478 
3 *184:10 *184:12 5.88308 
4 *184:12 *184:20 46.6763 
5 *184:20 *521:C 17.2 
6 *184:12 *533:B 17.2 
*END

*D_NET *185 4.35957e-05
*CONN
*I *522:B I *D OA21x2_ASAP7_75t_R
*I *521:Y O *D OR3x1_ASAP7_75t_R
*CAP
1 *522:B 0
2 *521:Y 1.57148e-05
3 *185:10 1.57148e-05
4 *513:A1 *185:10 5.62196e-06
5 *521:B *185:10 2.0895e-06
6 *12:30 *185:10 0
7 *177:23 *185:10 4.45472e-06
8 *178:10 *185:10 0
*RES
1 *521:Y *185:10 45.9714 
2 *185:10 *522:B 34.4 
*END

*D_NET *186 0.000159153
*CONN
*I *527:A2 I *D OA211x2_ASAP7_75t_R
*I *522:Y O *D OA21x2_ASAP7_75t_R
*CAP
1 *527:A2 1.53475e-05
2 *522:Y 0
3 *186:10 4.46411e-05
4 *186:6 2.92937e-05
5 *514:B1 *186:10 0
6 *12:28 *186:10 0
7 *13:45 *186:10 4.91471e-05
8 *13:53 *186:10 8.06436e-06
9 *166:69 *186:10 1.40354e-06
10 *169:31 *186:10 5.67735e-06
11 *172:77 *527:A2 2.55563e-06
12 *176:29 *186:10 2.48464e-06
13 *177:23 *186:10 0
14 *179:10 *186:10 5.37866e-07
*RES
1 *522:Y *186:6 34.4 
2 *186:6 *186:10 47.0478 
3 *186:10 *527:A2 25.7572 
*END

*D_NET *187 6.18906e-05
*CONN
*I *527:B I *D OA211x2_ASAP7_75t_R
*I *523:Y O *D OA21x2_ASAP7_75t_R
*CAP
1 *527:B 0
2 *523:Y 6.55542e-06
3 *187:8 6.55542e-06
4 *187:8 *188:31 2.37142e-06
5 *12:18 *187:8 2.58803e-05
6 *172:73 *187:8 8.20723e-06
7 *172:126 *187:8 1.23208e-05
*RES
1 *523:Y *187:8 43.4107 
2 *187:8 *527:B 34.4 
*END

*D_NET *188 0.00413621
*CONN
*I *634:B1 I *D OAI22x1_ASAP7_75t_R
*I *642:D I *D OR4x1_ASAP7_75t_R
*I *577:A2 I *D AO21x1_ASAP7_75t_R
*I *613:A2 I *D OAI22x1_ASAP7_75t_R
*I *607:A2 I *D OAI22x1_ASAP7_75t_R
*I *588:A2 I *D OAI22x1_ASAP7_75t_R
*I *601:A2 I *D OAI22x1_ASAP7_75t_R
*I *595:A2 I *D OAI22x1_ASAP7_75t_R
*I *556:C I *D OR3x1_ASAP7_75t_R
*I *555:B I *D AO21x1_ASAP7_75t_R
*I *525:B I *D AO21x1_ASAP7_75t_R
*I *630:A1 I *D OA211x2_ASAP7_75t_R
*I *524:Y O *D NAND2x1_ASAP7_75t_R
*CAP
1 *634:B1 6.37407e-06
2 *642:D 7.72187e-06
3 *577:A2 0
4 *613:A2 2.22e-06
5 *607:A2 2.80102e-06
6 *588:A2 7.37554e-06
7 *601:A2 2.07309e-05
8 *595:A2 5.70989e-06
9 *556:C 0
10 *555:B 0
11 *525:B 2.40971e-06
12 *630:A1 0
13 *524:Y 0
14 *188:185 6.15988e-05
15 *188:183 7.63192e-05
16 *188:156 1.60322e-05
17 *188:145 1.90717e-05
18 *188:141 5.72809e-05
19 *188:139 5.48224e-05
20 *188:106 3.41405e-05
21 *188:104 3.92751e-05
22 *188:98 5.61615e-05
23 *188:92 0.000130166
24 *188:90 0.000125585
25 *188:86 2.30405e-05
26 *188:82 0.000197666
27 *188:80 0.00020565
28 *188:74 4.34619e-05
29 *188:70 6.42327e-05
30 *188:63 2.00971e-05
31 *188:59 3.96293e-05
32 *188:48 1.95321e-05
33 *188:46 4.17206e-05
34 *188:44 6.08204e-05
35 *188:33 2.15096e-05
36 *188:31 4.03661e-05
37 *188:29 4.03661e-05
38 *188:22 5.24437e-06
39 *188:14 0.000114999
40 *188:12 0.000200657
41 *188:10 9.09021e-05
42 *188:8 6.91197e-05
43 *188:6 0.000121658
44 *595:A2 *230:52 5.79006e-06
45 *601:A2 *251:8 3.80102e-06
46 *613:A2 *390:14 5.62196e-06
47 *642:D *289:8 3.51063e-06
48 *188:8 *304:8 0
49 *188:12 *215:16 2.66992e-06
50 *188:14 *630:C 1.36537e-05
51 *188:22 *277:10 1.09842e-06
52 *188:31 *189:8 1.81094e-05
53 *188:31 *190:10 1.6865e-05
54 *188:46 *196:14 6.31056e-06
55 *188:46 *215:10 1.51241e-05
56 *188:59 *215:8 1.52651e-06
57 *188:59 *215:41 2.71821e-05
58 *188:59 *389:77 1.59615e-06
59 *188:63 *389:77 7.7603e-05
60 *188:70 *391:84 3.47607e-06
61 *188:80 *643:B 7.49203e-06
62 *188:82 *230:14 9.57001e-06
63 *188:82 *230:20 1.46916e-05
64 *188:82 *289:8 3.91501e-06
65 *188:82 *391:131 6.53432e-05
66 *188:90 *230:20 0
67 *188:92 *230:24 1.44167e-06
68 *188:104 *589:B 2.21222e-05
69 *188:104 *243:22 2.90209e-08
70 *188:106 *251:8 5.4438e-06
71 *188:141 *319:8 0
72 *188:156 *261:8 2.73885e-05
73 *188:183 *638:A 4.43846e-06
74 *556:A *188:63 6.06859e-06
75 *634:B2 *634:B1 5.34278e-06
76 *638:B *188:74 1.29877e-05
77 *638:B *188:183 6.50892e-05
78 *679:A *188:92 5.41446e-06
79 *12:10 *188:31 8.8252e-05
80 *12:18 *188:31 5.49212e-07
81 *16:32 *188:63 3.3921e-06
82 *18:26 *188:70 0
83 *18:28 *188:8 0
84 *18:28 *188:70 0
85 *18:225 *188:70 0
86 *18:255 *188:70 0
87 *19:201 *188:70 1.82788e-05
88 *23:27 *188:185 4.9137e-07
89 *24:16 *634:B1 2.6401e-05
90 *24:18 *188:185 2.21687e-05
91 *25:12 *642:D 4.82783e-06
92 *25:12 *188:82 2.47522e-06
93 *26:46 *188:141 0
94 *27:23 *188:156 1.90741e-05
95 *27:42 *588:A2 1.61443e-05
96 *27:42 *188:98 3.19091e-05
97 *28:33 *188:98 3.80699e-06
98 *28:33 *188:106 0
99 *30:20 *601:A2 0
100 *31:100 *188:86 5.10958e-06
101 *81:10 *188:185 0
102 *94:8 *188:31 4.49185e-06
103 *117:32 *188:141 0.000172157
104 *117:38 *607:A2 6.7842e-07
105 *117:38 *188:145 2.03526e-06
106 *117:40 *188:141 8.06436e-06
107 *117:40 *188:156 6.30218e-06
108 *117:42 *188:156 3.16603e-06
109 *117:166 *588:A2 1.48032e-05
110 *117:166 *188:98 1.10101e-05
111 *118:18 *188:82 4.24332e-05
112 *118:51 *188:90 4.94008e-06
113 *118:53 *188:92 0.000330498
114 *118:53 *188:98 1.711e-05
115 *118:185 *188:104 1.01102e-06
116 *155:12 *188:70 1.1787e-05
117 *156:10 *188:70 2.87926e-05
118 *156:25 *188:70 6.70283e-06
119 *156:25 *188:74 5.85387e-06
120 *156:29 *188:80 1.54163e-06
121 *156:101 *188:70 1.64348e-06
122 *156:111 *188:70 1.66294e-05
123 *156:113 *188:8 0.000230929
124 *156:113 *188:70 1.22048e-05
125 *156:158 *188:22 0
126 *166:18 *188:46 2.05045e-06
127 *166:22 *188:59 2.20493e-06
128 *166:26 *188:46 5.53373e-05
129 *166:41 *188:46 4.00301e-05
130 *166:87 *188:59 3.249e-05
131 *166:87 *188:63 3.80537e-06
132 *166:95 *188:63 1.59893e-05
133 *172:62 *188:31 5.26269e-05
134 *172:73 *188:31 3.37895e-05
135 *172:126 *188:31 1.37752e-05
136 *172:128 *188:31 9.68847e-05
137 *180:55 *188:12 0
138 *180:55 *188:14 0
139 *187:8 *188:31 2.37142e-06
*RES
1 *524:Y *188:6 34.4 
2 *188:6 *188:8 76.5906 
3 *188:8 *188:10 17.2 
4 *188:10 *188:12 40.1119 
5 *188:12 *188:14 51.878 
6 *188:14 *188:22 38.2855 
7 *188:22 *630:A1 17.2 
8 *188:12 *188:29 17.2 
9 *188:29 *188:31 64.7641 
10 *188:31 *188:33 17.2 
11 *188:33 *525:B 18.2696 
12 *188:33 *188:44 28.4313 
13 *188:44 *188:46 43.9269 
14 *188:46 *188:48 17.2 
15 *188:48 *555:B 17.2 
16 *188:48 *188:59 44.083 
17 *188:59 *188:63 39.1278 
18 *188:63 *556:C 17.2 
19 *188:6 *188:70 53.5008 
20 *188:70 *188:74 24.1527 
21 *188:74 *188:80 43.4107 
22 *188:80 *188:82 122.475 
23 *188:82 *188:86 26.2107 
24 *188:86 *188:90 25.0843 
25 *188:90 *188:92 100.012 
26 *188:92 *188:98 33.2767 
27 *188:98 *188:104 46.701 
28 *188:104 *188:106 5.63166 
29 *188:106 *595:A2 38.1438 
30 *188:106 *601:A2 48.1674 
31 *188:98 *588:A2 41.6361 
32 *188:92 *188:139 17.2 
33 *188:139 *188:141 59.6956 
34 *188:141 *188:145 18.8045 
35 *188:145 *607:A2 18.8045 
36 *188:145 *188:156 34.6581 
37 *188:156 *613:A2 36.0045 
38 *188:86 *577:A2 34.4 
39 *188:80 *642:D 22.5483 
40 *188:74 *188:183 35.9189 
41 *188:183 *188:185 43.9269 
42 *188:185 *634:B1 42.4224 
*END

*D_NET *189 5.43308e-05
*CONN
*I *526:B I *D AO21x1_ASAP7_75t_R
*I *525:Y O *D AO21x1_ASAP7_75t_R
*CAP
1 *526:B 2.66185e-06
2 *525:Y 1.49265e-05
3 *189:8 1.75883e-05
4 *526:B *190:10 1.04475e-06
5 *189:8 *215:10 0
6 *188:31 *189:8 1.81094e-05
*RES
1 *525:Y *189:8 48.4791 
2 *189:8 *526:B 36.0045 
*END

*D_NET *190 5.52042e-05
*CONN
*I *527:C I *D OA211x2_ASAP7_75t_R
*I *526:Y O *D AO21x1_ASAP7_75t_R
*CAP
1 *527:C 5.10112e-06
2 *526:Y 1.35461e-05
3 *190:10 1.86472e-05
4 *526:B *190:10 1.04475e-06
5 *188:31 *190:10 1.6865e-05
*RES
1 *526:Y *190:10 43.2406 
2 *190:10 *527:C 36.5393 
*END

*D_NET *191 2.37871e-05
*CONN
*I *529:A1 I *D OA211x2_ASAP7_75t_R
*I *528:Y O *D INVx1_ASAP7_75t_R
*CAP
1 *529:A1 1.77541e-06
2 *528:Y 6.86557e-06
3 *191:8 8.64097e-06
4 *529:A2 *191:8 1.09067e-06
5 *529:C *191:8 0
6 *38:14 *529:A1 5.41446e-06
*RES
1 *528:Y *191:8 38.9053 
2 *191:8 *529:A1 36.0045 
*END

*D_NET *192 0.000165589
*CONN
*I *531:A I *D OR2x2_ASAP7_75t_R
*I *548:A2 I *D OA31x2_ASAP7_75t_R
*I *529:Y O *D OA211x2_ASAP7_75t_R
*CAP
1 *531:A 2.73765e-06
2 *548:A2 0
3 *529:Y 2.17148e-05
4 *192:20 1.56151e-05
5 *192:14 3.04293e-05
6 *192:10 3.37914e-05
7 *192:20 *193:14 4.16855e-05
8 *529:B *192:10 9.83747e-06
9 *59:18 *192:10 9.77825e-06
*RES
1 *529:Y *192:10 49.237 
2 *192:10 *192:14 23.0831 
3 *192:14 *192:20 49.6055 
4 *192:20 *548:A2 17.2 
5 *192:14 *531:A 18.8045 
*END

*D_NET *193 0.000154531
*CONN
*I *531:B I *D OR2x2_ASAP7_75t_R
*I *548:A3 I *D OA31x2_ASAP7_75t_R
*I *530:Y O *D AND2x2_ASAP7_75t_R
*CAP
1 *531:B 0
2 *548:A3 0
3 *530:Y 4.10633e-06
4 *193:14 2.23407e-05
5 *193:8 2.6447e-05
6 *193:8 *194:8 0
7 *193:14 *194:8 0
8 *548:A1 *193:14 9.30244e-06
9 *7:27 *193:14 3.12564e-05
10 *59:18 *193:8 3.32524e-06
11 *59:18 *193:14 1.60673e-05
12 *192:20 *193:14 4.16855e-05
*RES
1 *530:Y *193:8 37.779 
2 *193:8 *193:14 43.8069 
3 *193:14 *548:A3 17.2 
4 *193:8 *531:B 34.4 
*END

*D_NET *194 1.39668e-05
*CONN
*I *532:B I *D XOR2x2_ASAP7_75t_R
*I *531:Y O *D OR2x2_ASAP7_75t_R
*CAP
1 *532:B 0
2 *531:Y 6.9834e-06
3 *194:8 6.9834e-06
4 *58:30 *194:8 0
5 *59:12 *194:8 0
6 *59:18 *194:8 0
7 *193:8 *194:8 0
8 *193:14 *194:8 0
*RES
1 *531:Y *194:8 38.9053 
2 *194:8 *532:B 34.4 
*END

*D_NET *195 0.000408594
*CONN
*I *534:A2 I *D OA211x2_ASAP7_75t_R
*I *545:A2 I *D OA211x2_ASAP7_75t_R
*I *532:Y O *D XOR2x2_ASAP7_75t_R
*CAP
1 *534:A2 0
2 *545:A2 0
3 *532:Y 0
4 *195:31 1.25247e-05
5 *195:20 1.76042e-05
6 *195:12 8.23158e-05
7 *195:8 0.000172612
8 *195:6 9.53754e-05
9 *195:12 *196:6 0
10 *195:12 *196:14 3.46317e-06
11 *195:31 *196:6 6.85247e-06
12 *12:30 *195:8 1.43711e-05
13 *35:54 *195:20 3.47607e-06
14 *58:41 *195:8 0
15 *73:22 *195:8 0
16 *161:10 *195:8 0
17 *165:10 *195:8 0
*RES
1 *532:Y *195:6 34.4 
2 *195:6 *195:8 74.3379 
3 *195:8 *195:12 49.8243 
4 *195:12 *195:20 45.773 
5 *195:20 *545:A2 17.2 
6 *195:8 *195:31 35.4691 
7 *195:31 *534:A2 17.2 
*END

*D_NET *196 0.000163543
*CONN
*I *534:B I *D OA211x2_ASAP7_75t_R
*I *533:Y O *D OR2x2_ASAP7_75t_R
*CAP
1 *534:B 0
2 *533:Y 6.35049e-05
3 *196:14 5.72537e-06
4 *196:6 6.92303e-05
5 *18:172 *196:14 8.45637e-06
6 *188:46 *196:14 6.31056e-06
7 *195:12 *196:6 0
8 *195:12 *196:14 3.46317e-06
9 *195:31 *196:6 6.85247e-06
*RES
1 *533:Y *196:6 46.6154 
2 *196:6 *196:14 40.5381 
3 *196:14 *534:B 17.2 
*END

*D_NET *197 0.000634261
*CONN
*I *538:A1 I *D OA211x2_ASAP7_75t_R
*I *534:Y O *D OA211x2_ASAP7_75t_R
*CAP
1 *538:A1 0
2 *534:Y 0
3 *197:20 1.50269e-05
4 *197:14 2.12975e-05
5 *197:8 5.56741e-05
6 *197:6 4.94035e-05
7 *197:8 *215:10 0.000247421
8 *197:20 *200:8 0
9 *197:20 *215:22 8.52021e-06
10 *35:39 *197:8 0.000184463
11 *35:39 *197:20 4.5406e-05
12 *35:54 *197:8 5.69241e-06
13 *180:63 *197:20 1.35684e-06
*RES
1 *534:Y *197:6 34.4 
2 *197:6 *197:8 82.7854 
3 *197:8 *197:14 37.0741 
4 *197:14 *197:20 33.4751 
5 *197:20 *538:A1 17.2 
*END

*D_NET *198 6.96904e-05
*CONN
*I *536:A2 I *D AO21x1_ASAP7_75t_R
*I *535:Y O *D NAND2x1_ASAP7_75t_R
*CAP
1 *536:A2 3.47719e-06
2 *535:Y 1.30264e-05
3 *198:8 1.65036e-05
4 *536:B *536:A2 5.62196e-06
5 *13:10 *198:8 1.13631e-05
6 *18:112 *198:8 1.57955e-05
7 *19:50 *536:A2 3.90258e-06
*RES
1 *535:Y *198:8 47.3528 
2 *198:8 *536:A2 36.5393 
*END

*D_NET *199 8.32088e-06
*CONN
*I *538:A2 I *D OA211x2_ASAP7_75t_R
*I *536:Y O *D AO21x1_ASAP7_75t_R
*CAP
1 *538:A2 4.16044e-06
2 *536:Y 4.16044e-06
*RES
1 *536:Y *538:A2 37.0741 
*END

*D_NET *200 0.000210925
*CONN
*I *538:C I *D OA211x2_ASAP7_75t_R
*I *537:Y O *D NAND2x1_ASAP7_75t_R
*CAP
1 *538:C 5.8767e-06
2 *537:Y 0
3 *200:8 0.000102086
4 *200:6 9.62097e-05
5 *200:8 *215:22 5.55315e-06
6 *18:28 *200:8 0
7 *18:40 *200:8 1.19921e-06
8 *35:39 *200:8 0
9 *156:123 *200:8 0
10 *197:20 *200:8 0
*RES
1 *537:Y *200:6 34.4 
2 *200:6 *200:8 73.2116 
3 *200:8 *538:C 37.609 
*END

*D_NET *201 2.16668e-05
*CONN
*I *540:B I *D XOR2x2_ASAP7_75t_R
*I *539:Y O *D OA21x2_ASAP7_75t_R
*CAP
1 *540:B 7.39874e-06
2 *539:Y 7.39874e-06
3 *164:34 *540:B 6.86929e-06
*RES
1 *539:Y *540:B 40.2831 
*END

*D_NET *202 0.000178213
*CONN
*I *542:B1 I *D AOI22x1_ASAP7_75t_R
*I *540:Y O *D XOR2x2_ASAP7_75t_R
*CAP
1 *542:B1 1.00488e-05
2 *540:Y 6.0268e-06
3 *202:10 5.20864e-05
4 *202:8 4.80644e-05
5 *202:10 *203:10 0
6 *541:A *202:10 1.57573e-05
7 *541:B *202:10 0
8 *15:48 *202:10 2.7064e-05
9 *56:29 *202:10 2.35211e-06
10 *162:12 *202:8 7.63254e-07
11 *162:16 *202:10 1.60505e-05
*RES
1 *540:Y *202:8 37.0741 
2 *202:8 *202:10 43.9269 
3 *202:10 *542:B1 40.2831 
*END

*D_NET *203 4.35166e-05
*CONN
*I *542:B2 I *D AOI22x1_ASAP7_75t_R
*I *541:Y O *D NOR2x1_ASAP7_75t_R
*CAP
1 *542:B2 0
2 *541:Y 0
3 *203:10 2.10974e-05
4 *203:6 2.10974e-05
5 *542:A1 *203:10 5.37866e-07
6 *542:A2 *203:10 7.84037e-07
7 *15:48 *203:10 0
8 *16:36 *203:10 0
9 *202:10 *203:10 0
*RES
1 *541:Y *203:6 34.4 
2 *203:6 *203:10 33.5318 
3 *203:10 *542:B2 17.2 
*END

*D_NET *204 0.000443123
*CONN
*I *543:B I *D NOR2x1_ASAP7_75t_R
*I *552:B2 I *D AOI221x1_ASAP7_75t_R
*I *542:Y O *D AOI22x1_ASAP7_75t_R
*CAP
1 *543:B 2.65841e-06
2 *552:B2 8.0359e-06
3 *542:Y 4.80049e-06
4 *204:27 2.80041e-05
5 *204:10 0.000112403
6 *204:8 8.38221e-05
7 *204:10 *207:10 0.000121789
8 *204:27 *207:10 6.8435e-06
9 *552:A2 *543:B 9.94583e-06
10 *552:B1 *204:27 9.25306e-06
11 *15:31 *204:10 1.12894e-06
12 *16:36 *204:10 1.77993e-05
13 *18:134 *543:B 1.71432e-05
14 *18:153 *204:10 1.29228e-05
15 *19:142 *543:B 2.14084e-06
16 *166:95 *204:10 4.43244e-06
17 *166:106 *204:10 0
*RES
1 *542:Y *204:8 36.0045 
2 *204:8 *204:10 74.3379 
3 *204:10 *552:B2 38.1438 
4 *204:10 *204:27 46.3079 
5 *204:27 *543:B 40.0317 
*END

*D_NET *205 3.71279e-05
*CONN
*I *547:A2 I *D OA31x2_ASAP7_75t_R
*I *543:Y O *D NOR2x1_ASAP7_75t_R
*CAP
1 *547:A2 0
2 *543:Y 8.77046e-06
3 *205:8 8.77046e-06
4 *15:31 *205:8 1.64164e-06
5 *18:196 *205:8 2.58173e-06
6 *19:138 *205:8 5.87576e-06
7 *19:142 *205:8 9.48786e-06
*RES
1 *543:Y *205:8 42.2843 
2 *205:8 *547:A2 34.4 
*END

*D_NET *206 3.0559e-05
*CONN
*I *545:B I *D OA211x2_ASAP7_75t_R
*I *544:Y O *D NAND2x1_ASAP7_75t_R
*CAP
1 *545:B 6.73276e-06
2 *544:Y 6.29941e-06
3 *206:8 1.30322e-05
4 *545:C *545:B 4.49469e-06
5 *15:31 *206:8 0
6 *16:32 *206:8 0
7 *172:29 *206:8 0
*RES
1 *544:Y *206:8 38.9053 
2 *206:8 *545:B 39.2134 
*END

*D_NET *207 0.000319048
*CONN
*I *547:A3 I *D OA31x2_ASAP7_75t_R
*I *545:Y O *D OA211x2_ASAP7_75t_R
*CAP
1 *547:A3 0
2 *545:Y 1.60602e-05
3 *207:10 3.93864e-05
4 *207:8 5.54465e-05
5 *15:31 *207:10 6.98541e-05
6 *18:153 *207:8 9.6678e-06
7 *204:10 *207:10 0.000121789
8 *204:27 *207:10 6.8435e-06
*RES
1 *545:Y *207:8 42.4224 
2 *207:8 *207:10 55.1903 
3 *207:10 *547:A3 34.4 
*END

*D_NET *208 3.57065e-05
*CONN
*I *547:B1 I *D OA31x2_ASAP7_75t_R
*I *546:Y O *D OA21x2_ASAP7_75t_R
*CAP
1 *547:B1 6.10192e-06
2 *546:Y 8.02124e-06
3 *208:8 1.41232e-05
4 *15:8 *208:8 4.77454e-07
5 *15:12 *547:B1 5.92989e-06
6 *15:31 *208:8 1.05282e-06
*RES
1 *546:Y *208:8 40.0317 
2 *208:8 *547:B1 38.1438 
*END

*D_NET *209 0.000246322
*CONN
*I *549:A2 I *D OA21x2_ASAP7_75t_R
*I *548:Y O *D OA31x2_ASAP7_75t_R
*CAP
1 *549:A2 1.10429e-05
2 *548:Y 4.53266e-05
3 *209:12 1.67555e-05
4 *209:6 5.10391e-05
5 *424:A *549:A2 4.88558e-05
6 *7:27 *209:6 0
7 *7:33 *209:12 9.63398e-06
8 *7:35 *549:A2 5.9327e-05
9 *56:20 *549:A2 4.34114e-06
*RES
1 *548:Y *209:6 35.9189 
2 *209:6 *209:12 38.9053 
3 *209:12 *549:A2 33.2448 
*END

*D_NET *210 0.000147267
*CONN
*I *550:B I *D XOR2x2_ASAP7_75t_R
*I *549:Y O *D OA21x2_ASAP7_75t_R
*CAP
1 *550:B 0
2 *549:Y 3.66746e-05
3 *210:12 1.88938e-05
4 *210:6 5.55684e-05
5 *7:39 *210:12 3.05074e-06
6 *55:25 *210:6 1.42583e-05
7 *56:20 *210:6 1.88216e-05
*RES
1 *549:Y *210:6 34.8492 
2 *210:6 *210:12 47.916 
3 *210:12 *550:B 17.2 
*END

*D_NET *211 0.000692634
*CONN
*I *553:A2 I *D OA211x2_ASAP7_75t_R
*I *568:A1 I *D OA211x2_ASAP7_75t_R
*I *550:Y O *D XOR2x2_ASAP7_75t_R
*CAP
1 *553:A2 5.51146e-06
2 *568:A1 2.82831e-06
3 *550:Y 3.82472e-05
4 *211:33 8.64362e-05
5 *211:31 8.09247e-05
6 *211:20 3.10472e-05
7 *211:14 3.05215e-05
8 *211:10 8.38562e-05
9 *211:8 0.000119801
10 *553:A2 *212:10 2.11853e-06
11 *568:A1 *568:B 5.85387e-06
12 *211:10 *565:A2 1.31716e-05
13 *211:10 *221:18 1.50385e-05
14 *211:10 *221:24 2.73812e-05
15 *211:10 *222:14 1.182e-05
16 *211:33 *227:10 1.12901e-05
17 *211:33 *389:85 4.61668e-06
18 *407:D *211:14 2.03526e-06
19 *407:D *211:20 6.7842e-07
20 *550:A *211:8 1.39477e-06
21 *565:C *211:10 8.2174e-07
22 *16:14 *211:33 6.33206e-07
23 *16:20 *211:33 9.21843e-06
24 *17:8 *211:10 2.83874e-07
25 *17:16 *211:10 0
26 *32:14 *211:10 0
27 *32:21 *211:33 0
28 *38:33 *211:10 0
29 *38:42 *211:10 0
30 *38:42 *211:20 4.88858e-05
31 *38:42 *211:33 0
32 *51:20 *211:10 0
33 *51:26 *211:8 0
34 *51:26 *211:10 6.10236e-07
35 *52:8 *211:10 1.49732e-05
36 *52:31 *211:10 2.43534e-06
37 *56:40 *211:10 0
38 *56:55 *211:10 0
39 *98:8 *211:33 3.57142e-05
40 *166:121 *211:33 4.48523e-06
41 *170:14 *211:33 0
42 *178:26 *211:33 0
*RES
1 *550:Y *211:8 49.9099 
2 *211:8 *211:10 71.5221 
3 *211:10 *211:14 18.8045 
4 *211:14 *211:20 40.4845 
5 *211:20 *568:A1 36.0045 
6 *211:14 *211:31 17.2 
7 *211:31 *211:33 65.8904 
8 *211:33 *553:A2 37.609 
*END

*D_NET *212 4.5608e-05
*CONN
*I *553:B I *D OA211x2_ASAP7_75t_R
*I *551:Y O *D OR3x1_ASAP7_75t_R
*CAP
1 *553:B 0
2 *551:Y 1.6553e-05
3 *212:10 1.6553e-05
4 *212:10 *213:14 2.05045e-06
5 *553:A2 *212:10 2.11853e-06
6 *170:25 *212:10 8.33296e-06
*RES
1 *551:Y *212:10 45.2382 
2 *212:10 *553:B 34.4 
*END

*D_NET *213 0.000124815
*CONN
*I *553:C I *D OA211x2_ASAP7_75t_R
*I *552:Y O *D AOI221x1_ASAP7_75t_R
*CAP
1 *553:C 0
2 *552:Y 4.55265e-05
3 *213:14 1.12923e-05
4 *213:6 5.68188e-05
5 *552:C *213:6 7.58265e-07
6 *155:31 *213:6 8.369e-06
7 *155:33 *213:14 0
8 *212:10 *213:14 2.05045e-06
*RES
1 *552:Y *213:6 39.1278 
2 *213:6 *213:14 41.1013 
3 *213:14 *553:C 17.2 
*END

*D_NET *214 9.08507e-05
*CONN
*P divisor[0] I
*I *554:A I *D BUFx2_ASAP7_75t_R
*CAP
1 divisor[0] 4.54254e-05
2 *554:A 0
3 *214:9 4.54254e-05
*RES
1 divisor[0] *214:9 41.1229 
2 *214:9 *554:A 34.4 
*END

*D_NET *215 0.00146553
*CONN
*I *568:A2 I *D OA211x2_ASAP7_75t_R
*I *574:A1 I *D AOI21x1_ASAP7_75t_R
*I *555:Y O *D AO21x1_ASAP7_75t_R
*CAP
1 *568:A2 0
2 *574:A1 0
3 *555:Y 0
4 *215:51 8.07914e-06
5 *215:45 7.06868e-05
6 *215:41 7.89229e-05
7 *215:30 7.87338e-05
8 *215:28 7.87338e-05
9 *215:26 7.2408e-05
10 *215:24 7.2408e-05
11 *215:22 2.30665e-05
12 *215:16 3.40785e-05
13 *215:10 0.000104781
14 *215:8 9.45154e-05
15 *215:4 1.70614e-05
16 *215:8 *389:77 3.89037e-06
17 *215:26 *391:78 4.83862e-06
18 *215:30 *364:50 6.31851e-05
19 *215:30 *391:8 1.04475e-06
20 *215:30 *391:18 3.0511e-05
21 *215:30 *391:78 1.2768e-05
22 *215:30 *391:84 2.03526e-06
23 *215:41 *389:77 6.31914e-05
24 *13:10 *215:22 0
25 *13:10 *215:26 0
26 *16:24 *215:45 0
27 *18:157 *215:45 2.55358e-05
28 *19:38 *215:26 0
29 *19:54 *215:10 0
30 *19:58 *215:10 0
31 *35:37 *215:22 1.88129e-06
32 *35:39 *215:10 1.07131e-05
33 *35:39 *215:22 2.22736e-06
34 *35:54 *215:10 0
35 *35:56 *215:10 0
36 *37:10 *215:26 3.00674e-05
37 *37:16 *215:22 8.33296e-06
38 *37:16 *215:26 4.44767e-05
39 *37:20 *215:22 2.20493e-06
40 *38:42 *215:51 5.49212e-07
41 *74:44 *215:22 9.75645e-06
42 *95:10 *215:22 0
43 *166:26 *215:10 4.87478e-05
44 *166:41 *215:10 4.1643e-05
45 *172:23 *215:45 9.07421e-06
46 *172:29 *215:45 6.70433e-06
47 *180:55 *215:16 6.7842e-07
48 *188:12 *215:16 2.66992e-06
49 *188:46 *215:10 1.51241e-05
50 *188:59 *215:8 1.52651e-06
51 *188:59 *215:41 2.71821e-05
52 *189:8 *215:10 0
53 *197:8 *215:10 0.000247421
54 *197:20 *215:22 8.52021e-06
55 *200:8 *215:22 5.55315e-06
*RES
1 *555:Y *215:4 17.2 
2 *215:4 *215:8 18.2696 
3 *215:8 *215:10 109.254 
4 *215:10 *215:16 40.2831 
5 *215:16 *215:22 38.4586 
6 *215:22 *215:24 17.2 
7 *215:24 *215:26 65.8904 
8 *215:26 *215:28 17.2 
9 *215:28 *215:30 66.8531 
10 *215:30 *574:A1 17.2 
11 *215:4 *215:41 40.959 
12 *215:41 *215:45 47.685 
13 *215:45 *215:51 38.9053 
14 *215:51 *568:A2 17.2 
*END

*D_NET *216 3.69581e-05
*CONN
*I *568:B I *D OA211x2_ASAP7_75t_R
*I *556:Y O *D OR3x1_ASAP7_75t_R
*CAP
1 *568:B 1.42738e-05
2 *556:Y 1.42738e-05
3 *568:B *389:77 2.52755e-06
4 *568:B *389:94 2.90209e-08
5 *568:A1 *568:B 5.85387e-06
*RES
1 *556:Y *568:B 42.9572 
*END

*D_NET *217 5.93739e-05
*CONN
*I *558:A I *D INVx1_ASAP7_75t_R
*I *557:Y O *D OR3x1_ASAP7_75t_R
*CAP
1 *558:A 2.96869e-05
2 *557:Y 2.96869e-05
*RES
1 *557:Y *558:A 47.7706 
*END

*D_NET *218 2.65459e-05
*CONN
*I *567:B1 I *D AOI221x1_ASAP7_75t_R
*I *558:Y O *D INVx1_ASAP7_75t_R
*CAP
1 *567:B1 0
2 *558:Y 8.85544e-06
3 *218:8 8.85544e-06
4 *218:8 *226:10 0
5 *32:21 *218:8 7.84037e-07
6 *32:34 *218:8 8.05096e-06
7 *155:33 *218:8 0
*RES
1 *558:Y *218:8 41.158 
2 *218:8 *567:B1 34.4 
*END

*D_NET *219 9.46396e-06
*CONN
*I *566:A1 I *D AO21x1_ASAP7_75t_R
*I *559:Y O *D INVx1_ASAP7_75t_R
*CAP
1 *566:A1 4.73198e-06
2 *559:Y 4.73198e-06
*RES
1 *559:Y *566:A1 37.0741 
*END

*D_NET *220 0.000334697
*CONN
*I *562:B1 I *D AO22x1_ASAP7_75t_R
*I *561:C I *D OA211x2_ASAP7_75t_R
*I *560:Y O *D AND2x2_ASAP7_75t_R
*CAP
1 *562:B1 8.92314e-06
2 *561:C 0
3 *560:Y 1.40548e-05
4 *220:20 4.48742e-05
5 *220:18 4.48742e-05
6 *220:16 2.31365e-05
7 *220:10 3.20597e-05
8 *220:8 1.40548e-05
9 *220:20 *221:6 4.2389e-05
10 *550:A *220:8 1.59026e-05
11 *562:A1 *562:B1 1.95129e-06
12 *562:A1 *220:16 7.80516e-06
13 *562:A2 *562:B1 2.80323e-06
14 *562:A2 *220:16 2.03526e-06
15 *562:B2 *562:B1 5.41446e-06
16 *7:39 *220:16 5.37866e-07
17 *16:36 *220:16 0
18 *51:20 *220:8 1.95276e-05
19 *53:6 *220:16 1.04206e-05
20 *53:14 *220:8 8.05573e-06
21 *54:10 *220:8 8.33296e-06
22 *55:36 *220:16 1.96686e-05
23 *55:44 *220:16 4.64191e-07
24 *56:40 *562:B1 1.56713e-06
25 *56:40 *220:16 5.84421e-06
*RES
1 *560:Y *220:8 49.6055 
2 *220:8 *220:10 17.2 
3 *220:10 *220:16 35.3027 
4 *220:16 *220:18 17.2 
5 *220:18 *220:20 34.2288 
6 *220:20 *561:C 17.2 
7 *220:10 *562:B1 23.6179 
*END

*D_NET *221 0.000396465
*CONN
*I *565:A1 I *D OA211x2_ASAP7_75t_R
*I *563:A I *D NOR2x1_ASAP7_75t_R
*I *561:Y O *D OA211x2_ASAP7_75t_R
*CAP
1 *565:A1 2.54534e-06
2 *563:A 0
3 *561:Y 5.92012e-05
4 *221:24 1.57552e-05
5 *221:18 6.8441e-05
6 *221:12 5.62168e-05
7 *221:6 6.52776e-05
8 *221:24 *222:8 6.7842e-07
9 *221:24 *222:14 2.42422e-05
10 *221:24 *224:8 0
11 *565:C *221:18 1.12894e-06
12 *16:36 *221:12 0
13 *162:12 *221:18 1.81701e-05
14 *211:10 *221:18 1.50385e-05
15 *211:10 *221:24 2.73812e-05
16 *220:20 *221:6 4.2389e-05
*RES
1 *561:Y *221:6 47.685 
2 *221:6 *221:12 37.779 
3 *221:12 *221:18 42.6202 
4 *221:18 *221:24 33.6982 
5 *221:24 *563:A 17.2 
6 *221:18 *565:A1 35.4697 
*END

*D_NET *222 0.000121147
*CONN
*I *565:A2 I *D OA211x2_ASAP7_75t_R
*I *563:B I *D NOR2x1_ASAP7_75t_R
*I *562:Y O *D AO22x1_ASAP7_75t_R
*CAP
1 *565:A2 5.63314e-06
2 *563:B 0
3 *562:Y 7.09138e-06
4 *222:14 2.18022e-05
5 *222:8 3.45267e-05
6 *56:55 *565:A2 1.35961e-06
7 *56:55 *222:14 8.2174e-07
8 *211:10 *565:A2 1.31716e-05
9 *211:10 *222:14 1.182e-05
10 *221:24 *222:8 6.7842e-07
11 *221:24 *222:14 2.42422e-05
*RES
1 *562:Y *222:8 37.0741 
2 *222:8 *222:14 33.978 
3 *222:14 *563:B 17.2 
4 *222:8 *565:A2 39.975 
*END

*D_NET *223 6.33588e-05
*CONN
*I *566:A2 I *D AO21x1_ASAP7_75t_R
*I *563:Y O *D NOR2x1_ASAP7_75t_R
*CAP
1 *566:A2 0
2 *563:Y 3.33813e-06
3 *223:14 2.43574e-05
4 *223:8 2.76955e-05
5 *223:14 *566:B 7.14604e-06
6 *223:14 *224:8 0
7 *223:14 *225:8 8.2174e-07
8 *565:C *223:14 0
*RES
1 *563:Y *223:8 36.0045 
2 *223:8 *223:14 34.5448 
3 *223:14 *566:A2 17.2 
*END

*D_NET *224 2.63321e-05
*CONN
*I *565:B I *D OA211x2_ASAP7_75t_R
*I *564:Y O *D INVx1_ASAP7_75t_R
*CAP
1 *565:B 5.89256e-06
2 *564:Y 6.51026e-06
3 *224:8 1.24028e-05
4 *565:C *565:B 1.52651e-06
5 *221:24 *224:8 0
6 *223:14 *224:8 0
*RES
1 *564:Y *224:8 38.9053 
2 *224:8 *565:B 38.1438 
*END

*D_NET *225 3.76743e-05
*CONN
*I *566:B I *D AO21x1_ASAP7_75t_R
*I *565:Y O *D OA211x2_ASAP7_75t_R
*CAP
1 *566:B 7.82308e-06
2 *565:Y 6.48482e-06
3 *225:8 1.43079e-05
4 *565:C *225:8 1.09067e-06
5 *223:14 *566:B 7.14604e-06
6 *223:14 *225:8 8.2174e-07
*RES
1 *565:Y *225:8 38.9053 
2 *225:8 *566:B 39.2134 
*END

*D_NET *226 0.000151668
*CONN
*I *567:B2 I *D AOI221x1_ASAP7_75t_R
*I *566:Y O *D AO21x1_ASAP7_75t_R
*CAP
1 *567:B2 0
2 *566:Y 1.97486e-06
3 *226:10 7.38593e-05
4 *226:8 7.58342e-05
5 *32:14 *226:10 0
6 *32:21 *226:10 0
7 *218:8 *226:10 0
*RES
1 *566:Y *226:8 35.4697 
2 *226:8 *226:10 59.6956 
3 *226:10 *567:B2 34.4 
*END

*D_NET *227 0.000118207
*CONN
*I *568:C I *D OA211x2_ASAP7_75t_R
*I *567:Y O *D AOI221x1_ASAP7_75t_R
*CAP
1 *568:C 5.46505e-06
2 *567:Y 2.65171e-05
3 *227:10 3.19821e-05
4 *568:C *389:94 5.08828e-06
5 *227:10 *389:94 3.78646e-05
6 *211:33 *227:10 1.12901e-05
*RES
1 *567:Y *227:10 49.5735 
2 *227:10 *568:C 38.1438 
*END

*D_NET *228 1.32129e-05
*CONN
*I *570:A I *D OR3x1_ASAP7_75t_R
*I *569:Y O *D INVx1_ASAP7_75t_R
*CAP
1 *570:A 3.93508e-06
2 *569:Y 3.93508e-06
3 *156:56 *570:A 5.34278e-06
*RES
1 *569:Y *570:A 38.1438 
*END

*D_NET *229 0.00149439
*CONN
*I *573:A2 I *D OA22x2_ASAP7_75t_R
*I *581:A I *D OR3x1_ASAP7_75t_R
*I *619:C I *D AND3x1_ASAP7_75t_R
*I *648:B I *D NAND2x1_ASAP7_75t_R
*I *649:A2 I *D OA211x2_ASAP7_75t_R
*I *570:Y O *D OR3x1_ASAP7_75t_R
*CAP
1 *573:A2 6.07941e-06
2 *581:A 0
3 *619:C 2.59572e-06
4 *648:B 0
5 *649:A2 2.19134e-06
6 *570:Y 0
7 *229:86 1.88859e-05
8 *229:75 6.95592e-05
9 *229:73 6.95592e-05
10 *229:48 5.13366e-05
11 *229:42 5.99583e-05
12 *229:34 0.000100158
13 *229:32 0.000102741
14 *229:28 6.77398e-05
15 *229:26 5.83188e-05
16 *229:20 9.25335e-05
17 *229:18 0.000129379
18 *229:12 0.000141519
19 *229:10 8.52956e-05
20 *229:8 8.65869e-05
21 *229:6 8.65869e-05
22 *573:A2 *232:6 2.85598e-05
23 *573:A2 *239:14 1.51653e-06
24 *619:C *271:8 1.06092e-05
25 *649:A2 *388:90 2.90269e-07
26 *229:8 *443:A 5.51814e-06
27 *229:8 *345:10 6.33206e-07
28 *229:18 *365:187 0
29 *229:20 *291:51 1.12894e-06
30 *229:20 *295:8 0
31 *229:20 *299:12 0
32 *229:20 *365:187 0
33 *229:20 *365:189 0
34 *229:20 *365:197 0
35 *229:28 *299:12 5.37866e-07
36 *229:28 *363:10 8.41163e-06
37 *229:32 *363:10 2.08703e-06
38 *229:42 *293:8 3.37709e-06
39 *229:48 *344:74 4.83654e-06
40 *229:75 *237:6 6.92634e-06
41 *229:75 *239:6 4.90078e-05
42 *229:75 *239:14 2.61342e-05
43 *229:75 *390:36 3.13426e-06
44 *443:C *229:8 0
45 *573:B2 *573:A2 1.07377e-06
46 *619:B *619:C 1.44167e-06
47 *19:89 *229:28 0
48 *21:14 *229:34 2.8275e-05
49 *21:14 *229:42 3.24655e-06
50 *37:34 *229:28 5.04414e-06
51 *69:31 *229:12 1.46265e-05
52 *70:68 *229:86 0
53 *73:42 *229:32 4.7643e-07
54 *73:50 *229:32 5.21031e-06
55 *73:50 *229:34 1.88951e-06
56 *73:63 *619:C 3.56648e-06
57 *73:65 *229:28 0
58 *74:12 *229:20 0
59 *74:18 *229:26 5.19552e-07
60 *77:38 *573:A2 5.09299e-06
61 *117:104 *229:48 9.0319e-06
62 *117:112 *229:48 1.30524e-05
63 *118:8 *229:8 9.80483e-06
64 *118:12 *229:8 8.30335e-06
*RES
1 *570:Y *229:6 34.4 
2 *229:6 *229:8 68.1431 
3 *229:8 *229:10 17.2 
4 *229:10 *229:12 41.1815 
5 *229:12 *229:18 43.6368 
6 *229:18 *229:20 61.9483 
7 *229:20 *229:26 37.0741 
8 *229:26 *229:28 39.4216 
9 *229:28 *229:32 27.337 
10 *229:32 *229:34 51.3432 
11 *229:34 *229:42 42.171 
12 *229:42 *229:48 39.3546 
13 *229:48 *649:A2 35.4697 
14 *229:34 *648:B 17.2 
15 *229:28 *619:C 37.609 
16 *229:18 *229:73 17.2 
17 *229:73 *229:75 57.2263 
18 *229:75 *581:A 17.2 
19 *229:12 *229:86 47.3528 
20 *229:86 *573:A2 25.7572 
*END

*D_NET *230 0.00176256
*CONN
*I *652:B I *D AND2x2_ASAP7_75t_R
*I *573:B1 I *D OA22x2_ASAP7_75t_R
*I *588:B1 I *D OAI22x1_ASAP7_75t_R
*I *601:B1 I *D OAI22x1_ASAP7_75t_R
*I *595:B1 I *D OAI22x1_ASAP7_75t_R
*I *607:B1 I *D OAI22x1_ASAP7_75t_R
*I *613:B1 I *D OAI22x1_ASAP7_75t_R
*I *571:Y O *D AO21x1_ASAP7_75t_R
*CAP
1 *652:B 6.37002e-06
2 *573:B1 1.84175e-06
3 *588:B1 4.06521e-06
4 *601:B1 1.24357e-05
5 *595:B1 0
6 *607:B1 0
7 *613:B1 0
8 *571:Y 0
9 *230:89 6.47959e-05
10 *230:87 6.29542e-05
11 *230:56 1.58108e-05
12 *230:52 4.46416e-05
13 *230:48 5.74049e-05
14 *230:34 1.57168e-05
15 *230:28 5.43856e-05
16 *230:26 5.0742e-05
17 *230:24 0.000212003
18 *230:22 0.000212003
19 *230:20 3.62129e-05
20 *230:14 6.2789e-05
21 *230:4 3.29461e-05
22 *573:B1 *232:6 5.22376e-07
23 *601:B1 *251:8 0
24 *230:20 *234:8 3.42577e-06
25 *230:28 *243:22 6.33206e-07
26 *230:28 *365:118 3.33173e-05
27 *230:34 *261:20 2.02691e-05
28 *230:34 *390:14 6.7842e-07
29 *230:34 *390:20 8.33296e-06
30 *230:48 *243:22 6.11133e-06
31 *230:56 *251:8 0
32 *230:89 *239:18 1.99132e-05
33 *230:89 *240:12 3.38221e-06
34 *230:89 *390:55 0
35 *571:A1 *230:89 1.12894e-06
36 *571:A2 *652:B 6.19506e-06
37 *571:A2 *230:14 1.87993e-05
38 *576:A *230:24 1.21211e-05
39 *588:B2 *588:B1 1.95129e-06
40 *595:A1 *230:52 2.8275e-06
41 *595:A2 *230:52 5.79006e-06
42 *595:B2 *601:B1 1.94357e-06
43 *595:B2 *230:52 1.46238e-06
44 *652:A *652:B 1.40419e-08
45 *18:233 *230:89 1.09842e-06
46 *26:46 *230:34 8.29921e-06
47 *27:27 *230:28 9.20037e-05
48 *27:27 *230:34 1.22048e-05
49 *28:33 *588:B1 1.69111e-06
50 *28:33 *230:28 3.61889e-05
51 *28:33 *230:48 1.37466e-05
52 *28:35 *230:28 2.83449e-06
53 *30:39 *230:56 0
54 *117:24 *230:20 2.19448e-07
55 *118:18 *230:14 3.38221e-06
56 *118:28 *230:14 9.425e-07
57 *118:28 *230:89 1.13383e-05
58 *118:45 *230:20 8.95733e-06
59 *118:53 *230:24 0.000363607
60 *118:63 *230:28 5.52807e-07
61 *118:65 *230:28 5.9334e-05
62 *118:65 *230:34 1.77396e-05
63 *118:185 *601:B1 1.38701e-06
64 *118:185 *230:56 5.39162e-06
65 *188:82 *230:14 9.57001e-06
66 *188:82 *230:20 1.46916e-05
67 *188:90 *230:20 0
68 *188:92 *230:24 1.44167e-06
*RES
1 *571:Y *230:4 17.2 
2 *230:4 *230:14 49.0103 
3 *230:14 *230:20 38.1185 
4 *230:20 *230:22 17.2 
5 *230:22 *230:24 116.057 
6 *230:24 *230:26 17.2 
7 *230:26 *230:28 60.8219 
8 *230:28 *230:34 38.5153 
9 *230:34 *613:B1 17.2 
10 *230:28 *607:B1 34.4 
11 *230:26 *230:48 11.8265 
12 *230:48 *230:52 35.9189 
13 *230:52 *230:56 21.1422 
14 *230:56 *595:B1 34.4 
15 *230:56 *601:B1 43.8888 
16 *230:48 *588:B1 38.7636 
17 *230:14 *230:87 17.2 
18 *230:87 *230:89 48.9954 
19 *230:89 *573:B1 35.4697 
20 *230:4 *652:B 19.8741 
*END

*D_NET *231 0.000132475
*CONN
*P dividend[7] I
*I *572:A I *D BUFx2_ASAP7_75t_R
*CAP
1 dividend[7] 4.85362e-05
2 *572:A 1.77013e-05
3 *231:9 6.62375e-05
4 *231:9 result[10] 0
*RES
1 dividend[7] *231:9 44.6896 
2 *231:9 *572:A 43.492 
*END

*D_NET *232 0.000136578
*CONN
*I *574:A2 I *D AOI21x1_ASAP7_75t_R
*I *573:Y O *D OA22x2_ASAP7_75t_R
*CAP
1 *574:A2 0
2 *573:Y 4.70733e-05
3 *232:12 2.248e-06
4 *232:6 4.93213e-05
5 *232:12 *390:55 8.58704e-06
6 *573:A2 *232:6 2.85598e-05
7 *573:B1 *232:6 5.22376e-07
8 *573:B2 *232:6 2.66797e-07
*RES
1 *573:Y *232:6 38.0582 
2 *232:6 *232:12 37.2158 
3 *232:12 *574:A2 17.2 
*END

*D_NET *233 0.000146676
*CONN
*P dividend[6] I
*I *575:A I *D BUFx2_ASAP7_75t_R
*CAP
1 dividend[6] 6.56658e-05
2 *575:A 7.67201e-06
3 *233:7 7.33378e-05
4 *575:A *335:8 0
5 *575:A *372:10 0
6 *233:7 result[10] 0
*RES
1 dividend[6] *233:7 46.365 
2 *233:7 *575:A 40.3132 
*END

*D_NET *234 6.96315e-05
*CONN
*I *577:B I *D AO21x1_ASAP7_75t_R
*I *576:Y O *D AND3x1_ASAP7_75t_R
*CAP
1 *577:B 1.21436e-05
2 *576:Y 1.12986e-05
3 *234:8 2.34422e-05
4 *577:B *582:A2 7.67506e-06
5 *234:8 *239:18 1.15945e-06
6 *117:28 *577:B 1.26378e-06
7 *118:45 *234:8 9.22307e-06
8 *230:20 *234:8 3.42577e-06
*RES
1 *576:Y *234:8 42.2843 
2 *234:8 *577:B 41.8876 
*END

*D_NET *235 3.0134e-05
*CONN
*I *582:A2 I *D OA21x2_ASAP7_75t_R
*I *577:Y O *D AO21x1_ASAP7_75t_R
*CAP
1 *582:A2 8.1318e-06
2 *577:Y 8.1318e-06
3 *577:B *582:A2 7.67506e-06
4 *582:A1 *582:A2 2.03526e-06
5 *117:28 *582:A2 6.7842e-07
6 *118:30 *582:A2 3.48165e-06
*RES
1 *577:Y *582:A2 40.2831 
*END

*D_NET *236 0.000110737
*CONN
*P dividend[5] I
*I *578:A I *D BUFx2_ASAP7_75t_R
*CAP
1 dividend[5] 5.53685e-05
2 *578:A 0
3 *236:9 5.53685e-05
*RES
1 dividend[5] *236:9 43.9632 
2 *236:9 *578:A 34.4 
*END

*D_NET *237 6.43459e-05
*CONN
*I *581:B I *D OR3x1_ASAP7_75t_R
*I *579:Y O *D AOI21x1_ASAP7_75t_R
*CAP
1 *581:B 0
2 *579:Y 2.87098e-05
3 *237:6 2.87098e-05
4 *229:75 *237:6 6.92634e-06
*RES
1 *579:Y *237:6 35.384 
2 *237:6 *581:B 17.2 
*END

*D_NET *238 0.000199504
*CONN
*I *581:C I *D OR3x1_ASAP7_75t_R
*I *580:Y O *D AND3x1_ASAP7_75t_R
*CAP
1 *581:C 0
2 *580:Y 0
3 *238:12 1.14973e-05
4 *238:6 9.97522e-05
5 *238:4 8.82549e-05
6 *77:14 *238:6 0
*RES
1 *580:Y *238:4 17.2 
2 *238:4 *238:6 41.1815 
3 *238:6 *238:12 42.2843 
4 *238:12 *581:C 17.2 
*END

*D_NET *239 0.000489942
*CONN
*I *582:B I *D OA21x2_ASAP7_75t_R
*I *581:Y O *D OR3x1_ASAP7_75t_R
*CAP
1 *582:B 0
2 *581:Y 4.01991e-05
3 *239:18 5.9233e-05
4 *239:16 5.9233e-05
5 *239:14 7.37422e-05
6 *239:12 8.16661e-05
7 *239:6 4.8123e-05
8 *239:18 *390:55 0
9 *573:A2 *239:14 1.51653e-06
10 *573:B2 *239:14 8.87763e-06
11 *576:C *239:18 0
12 *70:12 *239:18 0
13 *70:68 *239:18 1.6722e-05
14 *77:38 *239:14 4.41457e-06
15 *77:38 *239:18 0
16 *229:75 *239:6 4.90078e-05
17 *229:75 *239:14 2.61342e-05
18 *230:89 *239:18 1.99132e-05
19 *234:8 *239:18 1.15945e-06
*RES
1 *581:Y *239:6 49.8243 
2 *239:6 *239:12 39.4685 
3 *239:12 *239:14 37.9726 
4 *239:14 *239:16 17.2 
5 *239:16 *239:18 45.0533 
6 *239:18 *582:B 34.4 
*END

*D_NET *240 9.9771e-05
*CONN
*I *583:B I *D NOR2x1_ASAP7_75t_R
*I *582:Y O *D OA21x2_ASAP7_75t_R
*CAP
1 *583:B 0
2 *582:Y 1.02751e-05
3 *240:12 3.75801e-05
4 *240:8 4.78552e-05
5 *118:28 *240:8 6.7842e-07
6 *118:30 *240:8 0
7 *230:89 *240:12 3.38221e-06
*RES
1 *582:Y *240:8 38.1438 
2 *240:8 *240:12 47.0478 
3 *240:12 *583:B 17.2 
*END

*D_NET *241 0.000162108
*CONN
*P dividend[4] I
*I *584:A I *D BUFx2_ASAP7_75t_R
*CAP
1 dividend[4] 6.23501e-05
2 *584:A 5.01913e-06
3 *241:9 6.73692e-05
4 *241:9 result[7] 2.73697e-05
5 *241:9 *365:25 0
*RES
1 dividend[4] *241:9 47.8591 
2 *241:9 *584:A 37.0741 
*END

*D_NET *242 4.552e-05
*CONN
*I *586:B I *D XOR2x2_ASAP7_75t_R
*I *585:Y O *D AND3x1_ASAP7_75t_R
*CAP
1 *586:B 0
2 *585:Y 0
3 *242:10 2.276e-05
4 *242:6 2.276e-05
5 *242:10 *255:10 0
*RES
1 *585:Y *242:6 34.4 
2 *242:6 *242:10 34.6581 
3 *242:10 *586:B 17.2 
*END

*D_NET *243 0.000191244
*CONN
*I *589:A2 I *D AO21x1_ASAP7_75t_R
*I *586:Y O *D XOR2x2_ASAP7_75t_R
*CAP
1 *589:A2 0
2 *586:Y 1.88229e-05
3 *243:22 8.03859e-06
4 *243:14 6.62088e-05
5 *243:8 7.69931e-05
6 *118:53 *243:14 9.08513e-06
7 *118:179 *243:22 5.32229e-06
8 *188:104 *243:22 2.90209e-08
9 *230:28 *243:22 6.33206e-07
10 *230:48 *243:22 6.11133e-06
*RES
1 *586:Y *243:8 42.4224 
2 *243:8 *243:14 45.9992 
3 *243:14 *243:22 41.1013 
4 *243:22 *589:A2 17.2 
*END

*D_NET *244 0.000149067
*CONN
*P dividend[3] I
*I *587:A I *D BUFx2_ASAP7_75t_R
*CAP
1 dividend[3] 3.34075e-05
2 *587:A 2.59805e-05
3 *244:9 5.9388e-05
4 *244:9 *250:9 3.02907e-05
*RES
1 dividend[3] *244:9 39.2457 
2 *244:9 *587:A 47.7706 
*END

*D_NET *245 0.000102389
*CONN
*I *589:B I *D AO21x1_ASAP7_75t_R
*I *588:Y O *D OAI22x1_ASAP7_75t_R
*CAP
1 *589:B 1.16963e-05
2 *588:Y 9.49489e-06
3 *245:8 2.11912e-05
4 *589:B *590:B 5.19552e-07
5 *245:8 *390:74 7.35063e-07
6 *245:8 *390:85 2.04652e-06
7 *27:42 *245:8 2.95651e-05
8 *117:164 *589:B 5.01773e-06
9 *188:104 *589:B 2.21222e-05
*RES
1 *588:Y *245:8 44.537 
2 *245:8 *589:B 42.4224 
*END

*D_NET *246 1.29947e-05
*CONN
*I *590:B I *D AND2x2_ASAP7_75t_R
*I *589:Y O *D AO21x1_ASAP7_75t_R
*CAP
1 *590:B 5.4743e-06
2 *589:Y 5.4743e-06
3 *589:B *590:B 5.19552e-07
4 *117:164 *590:B 1.52651e-06
*RES
1 *589:Y *590:B 37.0741 
*END

*D_NET *247 0.000189161
*CONN
*I *592:C I *D AND3x1_ASAP7_75t_R
*I *604:C I *D OR3x1_ASAP7_75t_R
*I *591:Y O *D OR3x1_ASAP7_75t_R
*CAP
1 *592:C 0
2 *604:C 0
3 *591:Y 4.43789e-06
4 *247:23 1.43571e-05
5 *247:14 2.1222e-05
6 *247:8 4.0017e-05
7 *247:8 *329:19 5.51397e-07
8 *247:14 *604:B 3.46317e-06
9 *247:14 *253:8 0
10 *247:14 *329:19 5.07985e-07
11 *247:14 *336:29 3.7073e-05
12 *247:14 *361:14 8.23084e-06
13 *247:23 *248:12 1.47844e-05
14 *247:23 *332:16 0
15 *247:23 *336:29 2.49916e-05
16 *247:23 *336:37 1.61287e-05
17 *247:23 *365:23 2.84286e-06
18 *247:23 *365:98 5.52807e-07
*RES
1 *591:Y *247:8 36.0045 
2 *247:8 *247:14 36.5424 
3 *247:14 *604:C 17.2 
4 *247:8 *247:23 33.5318 
5 *247:23 *592:C 17.2 
*END

*D_NET *248 0.000119684
*CONN
*I *593:B I *D XOR2x2_ASAP7_75t_R
*I *592:Y O *D AND3x1_ASAP7_75t_R
*CAP
1 *593:B 0
2 *592:Y 8.5665e-06
3 *248:12 3.13135e-05
4 *248:8 3.988e-05
5 *248:8 *592:B 3.3921e-06
6 *248:8 *336:48 1.44639e-06
7 *248:12 *593:A 0
8 *248:12 *331:10 4.87068e-06
9 *248:12 *332:8 0
10 *248:12 *332:16 0
11 *248:12 *365:23 1.54305e-05
12 *247:23 *248:12 1.47844e-05
*RES
1 *592:Y *248:8 38.1438 
2 *248:8 *248:12 44.232 
3 *248:12 *593:B 17.2 
*END

*D_NET *249 4.70363e-05
*CONN
*I *596:A2 I *D AO21x1_ASAP7_75t_R
*I *593:Y O *D XOR2x2_ASAP7_75t_R
*CAP
1 *596:A2 2.54534e-06
2 *593:Y 1.83542e-05
3 *249:8 2.08995e-05
4 *249:8 *251:18 5.23722e-06
5 *249:8 *255:10 0
*RES
1 *593:Y *249:8 49.6055 
2 *249:8 *596:A2 35.4697 
*END

*D_NET *250 9.05845e-05
*CONN
*P dividend[2] I
*I *594:A I *D BUFx2_ASAP7_75t_R
*CAP
1 dividend[2] 3.01469e-05
2 *594:A 0
3 *250:9 3.01469e-05
4 *244:9 *250:9 3.02907e-05
*RES
1 dividend[2] *250:9 37.9317 
2 *250:9 *594:A 34.4 
*END

*D_NET *251 0.000285308
*CONN
*I *596:B I *D AO21x1_ASAP7_75t_R
*I *595:Y O *D OAI22x1_ASAP7_75t_R
*CAP
1 *596:B 0
2 *595:Y 1.16317e-05
3 *251:18 5.14639e-06
4 *251:12 0.00012035
5 *251:10 0.000115204
6 *251:8 1.16317e-05
7 *251:18 *255:10 1.53963e-06
8 *595:B2 *251:8 0
9 *601:A2 *251:8 3.80102e-06
10 *601:B1 *251:8 0
11 *118:185 *251:12 5.3219e-06
12 *188:106 *251:8 5.4438e-06
13 *230:56 *251:8 0
14 *249:8 *251:18 5.23722e-06
*RES
1 *595:Y *251:8 43.4107 
2 *251:8 *251:10 17.2 
3 *251:10 *251:12 43.3208 
4 *251:12 *251:18 38.9053 
5 *251:18 *596:B 17.2 
*END

*D_NET *252 0.000153683
*CONN
*I *597:B I *D AND2x2_ASAP7_75t_R
*I *596:Y O *D AO21x1_ASAP7_75t_R
*CAP
1 *597:B 0
2 *596:Y 3.6671e-06
3 *252:22 2.19159e-05
4 *252:14 5.17494e-05
5 *252:8 3.35006e-05
6 *252:14 *255:10 3.29805e-05
7 *252:14 *257:10 1.64348e-06
8 *252:22 *257:10 0
9 *597:A *252:22 5.25794e-06
10 *118:189 *252:8 2.9678e-06
*RES
1 *596:Y *252:8 36.5393 
2 *252:8 *252:14 40.5979 
3 *252:14 *252:22 46.9844 
4 *252:22 *597:B 17.2 
*END

*D_NET *253 0.000273448
*CONN
*I *610:C I *D OR3x1_ASAP7_75t_R
*I *599:C I *D AND3x1_ASAP7_75t_R
*I *598:Y O *D OR3x1_ASAP7_75t_R
*CAP
1 *610:C 1.50489e-06
2 *599:C 0
3 *598:Y 0
4 *253:33 1.5855e-05
5 *253:22 2.16157e-05
6 *253:12 4.48582e-05
7 *253:8 4.46612e-05
8 *253:6 3.57689e-05
9 *610:C *333:29 3.89037e-06
10 *253:8 *604:B 0
11 *253:8 *255:10 2.80169e-05
12 *253:8 *258:10 0
13 *253:8 *333:12 0
14 *253:8 *333:23 1.03732e-05
15 *253:8 *333:29 1.30736e-05
16 *253:22 *600:B 1.12894e-06
17 *253:22 *336:23 1.52651e-06
18 *253:22 *336:29 2.25787e-06
19 *253:33 *600:B 5.37569e-06
20 *253:33 *333:29 4.1643e-05
21 *253:33 *336:19 1.89747e-06
22 *253:33 *336:29 0
23 *247:14 *253:8 0
*RES
1 *598:Y *253:6 34.4 
2 *253:6 *253:8 35.4795 
3 *253:8 *253:12 20.9438 
4 *253:12 *253:22 45.8581 
5 *253:22 *599:C 17.2 
6 *253:12 *253:33 49.6055 
7 *253:33 *610:C 18.2696 
*END

*D_NET *254 5.05716e-05
*CONN
*I *600:B I *D XOR2x2_ASAP7_75t_R
*I *599:Y O *D AND3x1_ASAP7_75t_R
*CAP
1 *600:B 1.58927e-05
2 *599:Y 1.94474e-06
3 *254:8 1.78374e-05
4 *600:B *333:29 6.10236e-06
5 *600:B *336:29 0
6 *254:8 *336:94 2.28976e-06
7 *253:22 *600:B 1.12894e-06
8 *253:33 *600:B 5.37569e-06
*RES
1 *599:Y *254:8 36.0045 
2 *254:8 *600:B 48.4791 
*END

*D_NET *255 0.000374174
*CONN
*I *602:A2 I *D AO21x1_ASAP7_75t_R
*I *600:Y O *D XOR2x2_ASAP7_75t_R
*CAP
1 *602:A2 5.27756e-06
2 *600:Y 4.24919e-06
3 *255:10 0.000107761
4 *255:8 0.000106733
5 *255:10 *593:A 0
6 *255:10 *604:B 0
7 *255:10 *258:10 6.62106e-06
8 *255:10 *332:16 0
9 *79:24 *255:10 1.52382e-05
10 *79:39 *255:10 4.97847e-05
11 *118:195 *255:10 1.59725e-05
12 *242:10 *255:10 0
13 *249:8 *255:10 0
14 *251:18 *255:10 1.53963e-06
15 *252:14 *255:10 3.29805e-05
16 *253:8 *255:10 2.80169e-05
*RES
1 *600:Y *255:8 36.0045 
2 *255:8 *255:10 92.3592 
3 *255:10 *602:A2 36.5393 
*END

*D_NET *256 0.000109056
*CONN
*I *602:B I *D AO21x1_ASAP7_75t_R
*I *601:Y O *D OAI22x1_ASAP7_75t_R
*CAP
1 *602:B 0
2 *601:Y 4.14762e-05
3 *256:14 1.24317e-05
4 *256:6 5.39079e-05
5 *256:14 *257:10 1.24033e-06
*RES
1 *601:Y *256:6 34.8492 
2 *256:6 *256:14 42.0293 
3 *256:14 *602:B 17.2 
*END

*D_NET *257 7.09479e-05
*CONN
*I *603:B I *D AND2x2_ASAP7_75t_R
*I *602:Y O *D AO21x1_ASAP7_75t_R
*CAP
1 *603:B 1.0563e-05
2 *602:Y 1.93135e-05
3 *257:10 2.98766e-05
4 *597:A *603:B 5.34278e-06
5 *117:178 *603:B 2.96818e-06
6 *252:14 *257:10 1.64348e-06
7 *252:22 *257:10 0
8 *256:14 *257:10 1.24033e-06
*RES
1 *602:Y *257:10 47.2961 
2 *257:10 *603:B 40.2831 
*END

*D_NET *258 0.000245681
*CONN
*I *605:C I *D AND3x1_ASAP7_75t_R
*I *616:C I *D OR3x1_ASAP7_75t_R
*I *604:Y O *D OR3x1_ASAP7_75t_R
*CAP
1 *605:C 9.68317e-06
2 *616:C 7.69807e-06
3 *604:Y 1.8201e-05
4 *258:10 6.3421e-05
5 *258:8 6.42407e-05
6 *605:C *336:98 1.42799e-05
7 *605:C *336:111 7.14604e-06
8 *616:C *263:12 0
9 *616:C *334:17 1.13463e-05
10 *616:C *334:34 2.20128e-06
11 *616:C *336:94 4.96929e-06
12 *616:C *336:111 0
13 *616:C *365:76 1.34329e-05
14 *258:8 *361:14 2.55563e-06
15 *258:10 *333:29 0
16 *258:10 *336:94 1.98844e-05
17 *253:8 *258:10 0
18 *255:10 *258:10 6.62106e-06
*RES
1 *604:Y *258:8 42.4224 
2 *258:8 *258:10 38.2953 
3 *258:10 *616:C 44.537 
4 *258:10 *605:C 41.3527 
*END

*D_NET *259 2.3488e-05
*CONN
*I *606:B I *D XOR2x2_ASAP7_75t_R
*I *605:Y O *D AND3x1_ASAP7_75t_R
*CAP
1 *606:B 1.1744e-05
2 *605:Y 1.1744e-05
*RES
1 *605:Y *606:B 41.3527 
*END

*D_NET *260 9.32956e-05
*CONN
*I *608:A2 I *D AO21x1_ASAP7_75t_R
*I *606:Y O *D XOR2x2_ASAP7_75t_R
*CAP
1 *608:A2 9.76029e-06
2 *606:Y 2.63127e-05
3 *260:10 3.6073e-05
4 *118:75 *260:10 3.16603e-06
5 *118:79 *608:A2 3.56648e-06
6 *118:79 *260:10 1.4417e-05
*RES
1 *606:Y *260:10 49.6302 
2 *260:10 *608:A2 40.2831 
*END

*D_NET *261 0.000253945
*CONN
*I *608:B I *D AO21x1_ASAP7_75t_R
*I *607:Y O *D OAI22x1_ASAP7_75t_R
*CAP
1 *608:B 0
2 *607:Y 3.78648e-06
3 *261:20 1.77335e-05
4 *261:14 4.55027e-05
5 *261:8 3.15557e-05
6 *261:20 *266:10 0
7 *261:20 *390:20 6.76305e-06
8 *26:33 *261:20 1.6136e-06
9 *104:10 *261:20 0
10 *117:40 *261:8 2.73885e-05
11 *118:65 *261:20 7.19438e-05
12 *188:156 *261:8 2.73885e-05
13 *230:34 *261:20 2.02691e-05
*RES
1 *607:Y *261:8 43.4107 
2 *261:8 *261:14 45.6313 
3 *261:14 *261:20 41.9226 
4 *261:20 *608:B 17.2 
*END

*D_NET *262 1.10087e-05
*CONN
*I *609:B I *D AND2x2_ASAP7_75t_R
*I *608:Y O *D AO21x1_ASAP7_75t_R
*CAP
1 *609:B 5.50436e-06
2 *608:Y 5.50436e-06
*RES
1 *608:Y *609:B 37.0741 
*END

*D_NET *263 9.65075e-05
*CONN
*I *611:C I *D AND3x1_ASAP7_75t_R
*I *610:Y O *D OR3x1_ASAP7_75t_R
*CAP
1 *611:C 0
2 *610:Y 0
3 *263:12 3.79803e-05
4 *263:6 3.79803e-05
5 *263:12 *612:A 5.37569e-06
6 *263:12 *616:A 1.18455e-05
7 *263:12 *334:17 3.32579e-06
8 *263:12 *334:34 0
9 *263:12 *336:19 0
10 *616:C *263:12 0
*RES
1 *610:Y *263:6 34.4 
2 *263:6 *263:12 46.1445 
3 *263:12 *611:C 17.2 
*END

*D_NET *264 1.40667e-05
*CONN
*I *612:B I *D XOR2x2_ASAP7_75t_R
*I *611:Y O *D AND3x1_ASAP7_75t_R
*CAP
1 *612:B 0
2 *611:Y 6.48799e-06
3 *264:8 6.48799e-06
4 *264:8 *612:A 0
5 *264:8 *336:10 1.09067e-06
*RES
1 *611:Y *264:8 38.9053 
2 *264:8 *612:B 34.4 
*END

*D_NET *265 0.00011515
*CONN
*I *614:A2 I *D AO21x1_ASAP7_75t_R
*I *612:Y O *D XOR2x2_ASAP7_75t_R
*CAP
1 *614:A2 0
2 *612:Y 2.97679e-05
3 *265:14 2.78073e-05
4 *265:8 5.75752e-05
5 *118:81 *265:14 0
6 *118:83 *265:14 0
*RES
1 *612:Y *265:8 48.8403 
2 *265:8 *265:14 33.4998 
3 *265:14 *614:A2 17.2 
*END

*D_NET *266 0.000337237
*CONN
*I *614:B I *D AO21x1_ASAP7_75t_R
*I *613:Y O *D OAI22x1_ASAP7_75t_R
*CAP
1 *614:B 0
2 *613:Y 4.67115e-06
3 *266:14 4.42126e-05
4 *266:10 9.00427e-05
5 *266:8 5.05013e-05
6 *26:33 *266:10 0
7 *27:10 *266:10 1.12894e-06
8 *104:10 *266:10 2.83874e-07
9 *117:42 *266:10 4.00374e-05
10 *117:44 *266:10 0.000106359
11 *261:20 *266:10 0
*RES
1 *613:Y *266:8 36.0045 
2 *266:8 *266:10 48.9954 
3 *266:10 *266:14 45.0109 
4 *266:14 *614:B 17.2 
*END

*D_NET *267 3.93014e-05
*CONN
*I *615:B I *D AND2x2_ASAP7_75t_R
*I *614:Y O *D AO21x1_ASAP7_75t_R
*CAP
1 *615:B 4.56906e-06
2 *614:Y 1.50816e-05
3 *267:8 1.96507e-05
4 *267:8 *414:CLK 0
5 *105:10 *267:8 0
6 *118:83 *267:8 0
*RES
1 *614:Y *267:8 46.2265 
2 *267:8 *615:B 36.0045 
*END

*D_NET *268 0.000376121
*CONN
*I *618:A2 I *D AO21x1_ASAP7_75t_R
*I *616:Y O *D OR3x1_ASAP7_75t_R
*CAP
1 *618:A2 0
2 *616:Y 0
3 *268:14 1.59494e-05
4 *268:6 0.00016007
5 *268:4 0.00014412
6 *268:6 *334:40 2.82404e-05
7 *268:6 *336:113 0
8 *268:14 *618:B 0
9 *268:14 *365:205 1.25483e-05
10 *118:75 *268:6 2.27479e-06
11 *118:138 *268:6 1.29186e-05
*RES
1 *616:Y *268:4 17.2 
2 *268:4 *268:6 72.2014 
3 *268:6 *268:14 44.9018 
4 *268:14 *618:A2 17.2 
*END

*D_NET *269 6.17588e-05
*CONN
*I *646:A I *D NAND2x1_ASAP7_75t_R
*I *618:B I *D AO21x1_ASAP7_75t_R
*I *617:Y O *D INVx1_ASAP7_75t_R
*CAP
1 *646:A 8.98446e-06
2 *618:B 1.64233e-05
3 *617:Y 0
4 *269:6 2.54077e-05
5 *618:B *365:205 6.92634e-06
6 *118:142 *646:A 1.12894e-06
7 *118:146 *646:A 2.88806e-06
8 *268:14 *618:B 0
*RES
1 *617:Y *269:6 34.4 
2 *269:6 *618:B 46.6763 
3 *269:6 *646:A 39.9183 
*END

*D_NET *270 0.000251167
*CONN
*I *620:A2 I *D AOI21x1_ASAP7_75t_R
*I *618:Y O *D AO21x1_ASAP7_75t_R
*CAP
1 *620:A2 0
2 *618:Y 4.83326e-05
3 *270:18 3.37e-05
4 *270:10 6.33514e-05
5 *270:6 7.7984e-05
6 *270:6 *365:205 2.40293e-05
7 *21:8 *270:18 0
8 *21:21 *270:10 0
9 *118:157 *270:18 3.76935e-06
*RES
1 *618:Y *270:6 42.3368 
2 *270:6 *270:10 37.474 
3 *270:10 *270:18 49.5168 
4 *270:18 *620:A2 34.4 
*END

*D_NET *271 0.000120015
*CONN
*I *620:B I *D AOI21x1_ASAP7_75t_R
*I *619:Y O *D AND3x1_ASAP7_75t_R
*CAP
1 *620:B 0
2 *619:Y 2.08291e-05
3 *271:14 3.07921e-05
4 *271:8 5.16212e-05
5 *271:14 *272:8 9.13667e-07
6 *619:B *271:8 1.56713e-06
7 *619:C *271:8 1.06092e-05
8 *19:89 *271:8 3.68287e-06
9 *19:89 *271:14 0
*RES
1 *619:Y *271:8 47.7706 
2 *271:8 *271:14 34.4561 
3 *271:14 *620:B 17.2 
*END

*D_NET *272 7.652e-05
*CONN
*I *625:B I *D AND3x1_ASAP7_75t_R
*I *620:Y O *D AOI21x1_ASAP7_75t_R
*CAP
1 *625:B 2.57319e-05
2 *620:Y 1.20638e-05
3 *272:8 3.77957e-05
4 *21:14 *625:B 1.49407e-08
5 *271:14 *272:8 9.13667e-07
*RES
1 *620:Y *272:8 39.2134 
2 *272:8 *625:B 48.9573 
*END

*D_NET *273 0.000295599
*CONN
*I *622:B I *D AO21x1_ASAP7_75t_R
*I *621:Y O *D AND3x1_ASAP7_75t_R
*CAP
1 *622:B 8.09352e-06
2 *621:Y 3.28737e-05
3 *273:10 2.26332e-05
4 *273:6 4.74133e-05
5 *522:A1 *622:B 2.03526e-06
6 *533:A *273:10 2.29795e-05
7 *621:C *273:6 9.08513e-06
8 *622:A2 *622:B 2.2085e-05
9 *73:14 *273:6 1.04475e-06
10 *73:22 *273:6 3.70102e-05
11 *161:47 *273:6 1.56713e-06
12 *176:10 *273:10 6.68814e-05
13 *177:23 *273:10 2.18965e-05
*RES
1 *621:Y *273:6 34.8492 
2 *273:6 *273:10 39.7266 
3 *273:10 *622:B 40.8179 
*END

*D_NET *274 0.000428724
*CONN
*I *626:A I *D INVx1_ASAP7_75t_R
*I *624:A2 I *D OAI21x1_ASAP7_75t_R
*I *622:Y O *D AO21x1_ASAP7_75t_R
*CAP
1 *626:A 0
2 *624:A2 0
3 *622:Y 4.65414e-06
4 *274:29 4.2691e-05
5 *274:16 7.81305e-05
6 *274:14 3.54395e-05
7 *274:12 4.98084e-05
8 *274:10 4.98084e-05
9 *274:8 4.65414e-06
10 *274:16 *363:10 0
11 *274:29 *275:8 1.23009e-06
12 *624:A1 *274:16 3.83687e-06
13 *624:A1 *274:29 2.34878e-06
14 *11:8 *274:16 5.15455e-06
15 *11:25 *274:16 8.06799e-07
16 *11:33 *274:16 1.48332e-05
17 *11:35 *274:16 2.29762e-05
18 *11:35 *274:29 4.0308e-05
19 *13:57 *274:8 1.67893e-05
20 *19:98 *274:8 2.77657e-06
21 *76:12 *274:12 5.24776e-05
*RES
1 *622:Y *274:8 40.0317 
2 *274:8 *274:10 17.2 
3 *274:10 *274:12 44.3905 
4 *274:12 *274:14 17.2 
5 *274:14 *274:16 35.4795 
6 *274:16 *624:A2 34.4 
7 *274:16 *274:29 44.6498 
8 *274:29 *626:A 17.2 
*END

*D_NET *275 1.55831e-05
*CONN
*I *624:B I *D OAI21x1_ASAP7_75t_R
*I *623:Y O *D OA21x2_ASAP7_75t_R
*CAP
1 *624:B 0
2 *623:Y 6.00213e-06
3 *275:8 6.00213e-06
4 *624:A1 *275:8 2.34878e-06
5 *274:29 *275:8 1.23009e-06
*RES
1 *623:Y *275:8 40.0317 
2 *275:8 *624:B 34.4 
*END

*D_NET *276 0.000134636
*CONN
*I *625:C I *D AND3x1_ASAP7_75t_R
*I *624:Y O *D OAI21x1_ASAP7_75t_R
*CAP
1 *625:C 0
2 *624:Y 0
3 *276:6 6.73182e-05
4 *276:4 6.73182e-05
*RES
1 *624:Y *276:4 17.2 
2 *276:4 *276:6 34.2288 
3 *276:6 *625:C 17.2 
*END

*D_NET *277 5.394e-05
*CONN
*I *630:A2 I *D OA211x2_ASAP7_75t_R
*I *626:Y O *D INVx1_ASAP7_75t_R
*CAP
1 *630:A2 2.11982e-06
2 *626:Y 2.08044e-05
3 *277:10 2.29242e-05
4 *19:79 *277:10 0
5 *156:158 *277:10 6.99318e-06
6 *188:22 *277:10 1.09842e-06
*RES
1 *626:Y *277:10 48.9573 
2 *277:10 *630:A2 35.4697 
*END

*D_NET *278 1.31526e-05
*CONN
*I *630:B I *D OA211x2_ASAP7_75t_R
*I *627:Y O *D OA21x2_ASAP7_75t_R
*CAP
1 *630:B 0
2 *627:Y 5.46261e-06
3 *278:8 5.46261e-06
4 *107:10 *278:8 2.22736e-06
5 *156:158 *278:8 0
*RES
1 *627:Y *278:8 38.9053 
2 *278:8 *630:B 34.4 
*END

*D_NET *279 4.72504e-05
*CONN
*I *629:A2 I *D AO21x1_ASAP7_75t_R
*I *628:Y O *D OR3x1_ASAP7_75t_R
*CAP
1 *629:A2 0
2 *628:Y 1.05831e-05
3 *279:10 1.05831e-05
4 *18:75 *279:10 1.32095e-05
5 *19:79 *279:10 9.86088e-07
6 *46:18 *279:10 0
7 *174:10 *279:10 1.18885e-05
*RES
1 *628:Y *279:10 42.7625 
2 *279:10 *629:A2 34.4 
*END

*D_NET *280 0.000100621
*CONN
*I *630:C I *D OA211x2_ASAP7_75t_R
*I *629:Y O *D AO21x1_ASAP7_75t_R
*CAP
1 *630:C 8.4098e-06
2 *629:Y 1.3077e-05
3 *280:8 2.14868e-05
4 *19:79 *280:8 0
5 *46:18 *280:8 4.2427e-05
6 *107:8 *630:C 1.56713e-06
7 *188:14 *630:C 1.36537e-05
*RES
1 *629:Y *280:8 48.4791 
2 *280:8 *630:C 44.0269 
*END

*D_NET *281 2.26974e-05
*CONN
*I *632:B I *D AO21x1_ASAP7_75t_R
*I *631:Y O *D AND3x1_ASAP7_75t_R
*CAP
1 *632:B 1.94474e-06
2 *631:Y 5.64666e-06
3 *281:8 7.5914e-06
4 *632:B *327:14 2.28976e-06
5 *18:255 *281:8 0
6 *156:29 *281:8 1.89962e-06
7 *156:50 *281:8 3.32524e-06
*RES
1 *631:Y *281:8 38.9053 
2 *281:8 *632:B 36.0045 
*END

*D_NET *282 0.000198908
*CONN
*I *633:A2 I *D OA21x2_ASAP7_75t_R
*I *632:Y O *D AO21x1_ASAP7_75t_R
*CAP
1 *633:A2 0
2 *632:Y 0
3 *282:14 9.61741e-06
4 *282:6 7.56589e-05
5 *282:4 6.60415e-05
6 *282:6 *327:14 6.86929e-06
7 *282:14 *391:159 0
8 *19:19 *282:6 4.07209e-05
*RES
1 *632:Y *282:4 17.2 
2 *282:4 *282:6 36.3681 
3 *282:6 *282:14 39.975 
4 *282:14 *633:A2 17.2 
*END

*D_NET *283 1.38422e-05
*CONN
*I *635:B I *D AND2x2_ASAP7_75t_R
*I *634:Y O *D OAI22x1_ASAP7_75t_R
*CAP
1 *635:B 5.09279e-06
2 *634:Y 5.09279e-06
3 *24:12 *635:B 3.65663e-06
*RES
1 *634:Y *635:B 38.1438 
*END

*D_NET *284 7.0226e-05
*CONN
*I *639:A2 I *D AO21x1_ASAP7_75t_R
*I *640:A2 I *D AO22x1_ASAP7_75t_R
*I *636:Y O *D INVx1_ASAP7_75t_R
*CAP
1 *639:A2 2.72971e-06
2 *640:A2 1.46263e-05
3 *636:Y 9.22352e-06
4 *284:8 2.65796e-05
5 *639:A2 *639:B 8.3281e-06
6 *640:A2 *287:10 5.68573e-06
7 *18:290 *640:A2 3.05302e-06
*RES
1 *636:Y *284:8 40.0317 
2 *284:8 *640:A2 46.0281 
3 *284:8 *639:A2 36.5393 
*END

*D_NET *285 1.73108e-05
*CONN
*I *638:A I *D AND3x1_ASAP7_75t_R
*I *637:Y O *D INVx1_ASAP7_75t_R
*CAP
1 *638:A 5.91378e-06
2 *637:Y 5.91378e-06
3 *638:B *638:A 1.04475e-06
4 *188:183 *638:A 4.43846e-06
*RES
1 *637:Y *638:A 38.1438 
*END

*D_NET *286 4.03327e-05
*CONN
*I *639:B I *D AO21x1_ASAP7_75t_R
*I *638:Y O *D AND3x1_ASAP7_75t_R
*CAP
1 *639:B 1.38693e-05
2 *638:Y 1.38693e-05
3 *639:A1 *639:B 4.26607e-06
4 *639:A2 *639:B 8.3281e-06
*RES
1 *638:Y *639:B 42.4224 
*END

*D_NET *287 3.6286e-05
*CONN
*I *640:B1 I *D AO22x1_ASAP7_75t_R
*I *639:Y O *D AO21x1_ASAP7_75t_R
*CAP
1 *640:B1 2.83908e-06
2 *639:Y 1.21921e-05
3 *287:10 1.50312e-05
4 *287:10 *288:8 5.37866e-07
5 *640:A2 *287:10 5.68573e-06
6 *18:290 *287:10 0
*RES
1 *639:Y *287:10 43.354 
2 *287:10 *640:B1 36.0045 
*END

*D_NET *288 1.02125e-05
*CONN
*I *641:B I *D AND2x2_ASAP7_75t_R
*I *640:Y O *D AO22x1_ASAP7_75t_R
*CAP
1 *641:B 0
2 *640:Y 4.8373e-06
3 *288:8 4.8373e-06
4 *287:10 *288:8 5.37866e-07
*RES
1 *640:Y *288:8 37.779 
2 *288:8 *641:B 34.4 
*END

*D_NET *289 9.31091e-05
*CONN
*I *643:B I *D OA21x2_ASAP7_75t_R
*I *642:Y O *D OR4x1_ASAP7_75t_R
*CAP
1 *643:B 1.33052e-05
2 *642:Y 1.02843e-05
3 *289:8 2.35895e-05
4 *642:D *289:8 3.51063e-06
5 *156:10 *643:B 2.20128e-06
6 *156:25 *643:B 6.31894e-06
7 *156:29 *643:B 2.24923e-05
8 *188:80 *643:B 7.49203e-06
9 *188:82 *289:8 3.91501e-06
*RES
1 *642:Y *289:8 39.2134 
2 *289:8 *643:B 48.4791 
*END

*D_NET *290 8.52529e-05
*CONN
*I *644:B I *D NOR2x1_ASAP7_75t_R
*I *643:Y O *D OA21x2_ASAP7_75t_R
*CAP
1 *644:B 0
2 *643:Y 0
3 *290:12 3.81843e-05
4 *290:6 3.81843e-05
5 *18:20 *290:12 8.33296e-06
6 *111:10 *290:12 5.51397e-07
7 *156:10 *290:12 0
*RES
1 *643:Y *290:6 34.4 
2 *290:6 *290:12 42.3441 
3 *290:12 *644:B 17.2 
*END

*D_NET *291 0.000315812
*CONN
*I *656:B I *D NAND2x1_ASAP7_75t_R
*I *659:B I *D AND2x2_ASAP7_75t_R
*I *653:B I *D AND3x1_ASAP7_75t_R
*I *647:A1 I *D OA211x2_ASAP7_75t_R
*I *645:Y O *D INVx1_ASAP7_75t_R
*CAP
1 *656:B 0
2 *659:B 0
3 *653:B 7.82532e-06
4 *647:A1 0
5 *645:Y 9.46462e-06
6 *291:51 1.43351e-05
7 *291:36 4.45976e-05
8 *291:21 6.17701e-05
9 *291:12 5.80854e-05
10 *291:10 8.17676e-05
11 *291:8 9.46462e-06
12 *653:B *365:197 0
13 *653:B *365:199 1.3295e-05
14 *291:21 *365:197 2.03526e-06
15 *291:36 *659:A 5.94108e-06
16 *291:36 *365:189 0
17 *291:36 *365:197 0
18 *291:51 *659:A 7.63254e-07
19 *291:51 *365:189 1.09067e-06
20 *21:21 *291:8 0
21 *74:18 *653:B 7.84037e-07
22 *117:149 *291:12 3.46317e-06
23 *229:20 *291:51 1.12894e-06
*RES
1 *645:Y *291:8 41.158 
2 *291:8 *291:10 17.2 
3 *291:10 *291:12 35.2985 
4 *291:12 *647:A1 17.2 
5 *291:10 *291:21 29.501 
6 *291:21 *653:B 41.158 
7 *291:21 *291:36 32.9083 
8 *291:36 *659:B 17.2 
9 *291:36 *291:51 43.1839 
10 *291:51 *656:B 17.2 
*END

*D_NET *292 4.28418e-05
*CONN
*I *647:B I *D OA211x2_ASAP7_75t_R
*I *646:Y O *D NAND2x1_ASAP7_75t_R
*CAP
1 *647:B 0
2 *646:Y 1.71918e-05
3 *292:10 1.71918e-05
4 *647:A2 *292:10 0
5 *117:149 *292:10 2.35211e-06
6 *118:146 *292:10 3.05302e-06
7 *118:155 *292:10 3.05302e-06
*RES
1 *646:Y *292:10 47.1544 
2 *292:10 *647:B 34.4 
*END

*D_NET *293 5.74425e-05
*CONN
*I *649:B I *D OA211x2_ASAP7_75t_R
*I *648:Y O *D NAND2x1_ASAP7_75t_R
*CAP
1 *649:B 1.8554e-05
2 *648:Y 2.91281e-06
3 *293:8 2.14668e-05
4 *649:C *649:B 3.89037e-06
5 *21:14 *649:B 5.38096e-06
6 *113:10 *649:B 1.86049e-06
7 *229:42 *293:8 3.37709e-06
*RES
1 *648:Y *293:8 37.2158 
2 *293:8 *649:B 45.6313 
*END

*D_NET *294 1.83696e-05
*CONN
*I *651:B I *D NOR2x1_ASAP7_75t_R
*I *650:Y O *D OA21x2_ASAP7_75t_R
*CAP
1 *651:B 7.65831e-06
2 *650:Y 7.65831e-06
3 *651:B *364:79 3.05302e-06
*RES
1 *650:Y *651:B 39.7482 
*END

*D_NET *295 3.90603e-05
*CONN
*I *654:B I *D XNOR2x2_ASAP7_75t_R
*I *653:Y O *D AND3x1_ASAP7_75t_R
*CAP
1 *654:B 7.5244e-06
2 *653:Y 7.89032e-06
3 *295:8 1.54147e-05
4 *295:8 *365:203 0
5 *37:34 *295:8 0
6 *37:40 *654:B 8.23084e-06
7 *229:20 *295:8 0
*RES
1 *653:Y *295:8 40.0317 
2 *295:8 *654:B 40.2831 
*END

*D_NET *296 0.000401049
*CONN
*I *657:A2 I *D AO21x1_ASAP7_75t_R
*I *663:D I *D AND4x1_ASAP7_75t_R
*I *655:Y O *D AND2x2_ASAP7_75t_R
*CAP
1 *657:A2 8.65672e-06
2 *663:D 0
3 *655:Y 0
4 *296:6 6.67439e-05
5 *296:4 5.80872e-05
6 *657:A2 *297:22 1.5968e-06
7 *657:A2 *302:6 9.47593e-06
8 *296:6 *297:14 6.29587e-05
9 *36:40 *296:6 5.06326e-05
10 *36:53 *296:6 5.85387e-06
11 *37:16 *296:6 5.85387e-06
12 *37:58 *296:6 9.54357e-05
13 *37:65 *657:A2 1.85833e-05
14 *37:65 *296:6 7.35354e-06
15 *37:80 *657:A2 9.81687e-06
*RES
1 *655:Y *296:4 17.2 
2 *296:4 *296:6 63.1093 
3 *296:6 *663:D 17.2 
4 *296:6 *657:A2 25.7572 
*END

*D_NET *297 0.00101521
*CONN
*I *664:A I *D NOR2x1_ASAP7_75t_R
*I *671:B I *D AOI21x1_ASAP7_75t_R
*I *668:B I *D AO21x1_ASAP7_75t_R
*I *657:B I *D AO21x1_ASAP7_75t_R
*I *656:Y O *D NAND2x1_ASAP7_75t_R
*CAP
1 *664:A 0
2 *671:B 1.18421e-05
3 *668:B 1.1372e-05
4 *657:B 0
5 *656:Y 4.63978e-05
6 *297:50 3.30088e-05
7 *297:46 6.25371e-05
8 *297:44 5.38273e-05
9 *297:31 3.303e-05
10 *297:22 3.00951e-05
11 *297:20 2.6396e-05
12 *297:14 0.0002056
13 *297:12 0.000209972
14 *297:6 5.62724e-05
15 *668:B *658:B 3.84449e-06
16 *671:B *307:16 1.95129e-06
17 *671:B *308:8 1.59615e-06
18 *297:22 *302:6 8.17002e-07
19 *297:31 *298:8 1.96943e-05
20 *297:31 *302:6 3.35751e-06
21 *297:50 *664:B 4.74248e-06
22 *297:50 *302:16 5.33743e-06
23 *655:A *297:14 3.16328e-06
24 *657:A2 *297:22 1.5968e-06
25 *667:B *297:20 6.33206e-07
26 *34:55 *297:50 2.71921e-06
27 *35:10 *297:20 5.69885e-06
28 *36:40 *297:14 5.06326e-05
29 *36:53 *297:14 3.68287e-06
30 *36:53 *297:20 1.12901e-05
31 *37:58 *297:22 5.85387e-06
32 *37:65 *297:22 2.39855e-05
33 *37:80 *297:22 7.69411e-06
34 *46:16 *297:14 1.36108e-05
35 *73:78 *297:14 0
36 *107:10 *297:12 0
37 *155:18 *668:B 0
38 *155:18 *297:44 0
39 *296:6 *297:14 6.29587e-05
*RES
1 *656:Y *297:6 44.4761 
2 *297:6 *297:12 41.158 
3 *297:12 *297:14 101.082 
4 *297:14 *297:20 39.4685 
5 *297:20 *297:22 12.8358 
6 *297:22 *657:B 17.2 
7 *297:22 *297:31 25.7572 
8 *297:31 *668:B 42.2843 
9 *297:31 *297:44 26.2107 
10 *297:44 *297:46 25.1368 
11 *297:46 *297:50 34.6581 
12 *297:50 *671:B 41.3527 
13 *297:46 *664:A 17.2 
*END

*D_NET *298 9.39566e-05
*CONN
*I *658:B I *D XNOR2x2_ASAP7_75t_R
*I *657:Y O *D AO21x1_ASAP7_75t_R
*CAP
1 *658:B 1.69255e-05
2 *657:Y 1.82834e-05
3 *298:8 3.52089e-05
4 *658:B *304:18 0
5 *658:B *306:12 0
6 *298:8 *302:6 0
7 *668:B *658:B 3.84449e-06
8 *155:18 *658:B 0
9 *170:25 *658:B 0
10 *297:31 *298:8 1.96943e-05
*RES
1 *657:Y *298:8 43.492 
2 *298:8 *658:B 47.3528 
*END

*D_NET *299 0.000335695
*CONN
*I *661:A I *D AND2x2_ASAP7_75t_R
*I *696:B I *D NAND2x1_ASAP7_75t_R
*I *697:A2 I *D OA21x2_ASAP7_75t_R
*I *659:Y O *D AND2x2_ASAP7_75t_R
*CAP
1 *661:A 0
2 *696:B 0
3 *697:A2 7.46166e-07
4 *659:Y 4.13977e-06
5 *299:36 5.2799e-05
6 *299:34 7.16975e-05
7 *299:21 2.59462e-05
8 *299:12 2.17318e-05
9 *299:6 3.21732e-05
10 *299:34 *325:12 8.2174e-07
11 *696:A *299:6 1.44167e-06
12 *696:A *299:21 8.146e-06
13 *11:50 *697:A2 1.04475e-06
14 *12:59 *299:36 3.29001e-05
15 *37:28 *697:A2 3.68287e-06
16 *73:65 *299:12 2.25787e-06
17 *73:76 *299:12 1.67815e-06
18 *73:78 *299:21 4.24961e-06
19 *73:78 *299:34 8.146e-06
20 *74:12 *299:12 8.06436e-06
21 *74:29 *299:36 5.34906e-05
22 *75:10 *299:12 0
23 *229:20 *299:12 0
24 *229:28 *299:12 5.37866e-07
*RES
1 *659:Y *299:6 19.8741 
2 *299:6 *299:12 49.6055 
3 *299:12 *697:A2 18.2696 
4 *299:6 *299:21 6.4179 
5 *299:21 *696:B 17.2 
6 *299:21 *299:34 47.5759 
7 *299:34 *299:36 47.5994 
8 *299:36 *661:A 17.2 
*END

*D_NET *300 1.47536e-05
*CONN
*I *661:B I *D AND2x2_ASAP7_75t_R
*I *660:Y O *D OR3x1_ASAP7_75t_R
*CAP
1 *661:B 3.04786e-06
2 *660:Y 3.04786e-06
3 *74:40 *661:B 8.65792e-06
*RES
1 *660:Y *661:B 37.0741 
*END

*D_NET *301 0.000258081
*CONN
*I *662:B I *D XNOR2x2_ASAP7_75t_R
*I *661:Y O *D AND2x2_ASAP7_75t_R
*CAP
1 *662:B 0
2 *661:Y 0
3 *301:12 1.06248e-05
4 *301:6 6.80325e-05
5 *301:4 5.74077e-05
6 *535:B *301:6 5.21689e-05
7 *12:59 *301:6 5.12901e-05
8 *13:10 *301:6 1.40419e-08
9 *13:88 *301:12 1.07573e-06
10 *19:44 *301:6 3.56648e-06
11 *36:31 *301:12 3.16603e-06
12 *95:10 *301:12 1.07346e-05
*RES
1 *661:Y *301:4 17.2 
2 *301:4 *301:6 42.2512 
3 *301:6 *301:12 43.4107 
4 *301:12 *662:B 17.2 
*END

*D_NET *302 0.000304142
*CONN
*I *664:B I *D NOR2x1_ASAP7_75t_R
*I *671:A1 I *D AOI21x1_ASAP7_75t_R
*I *663:Y O *D AND4x1_ASAP7_75t_R
*CAP
1 *664:B 5.1254e-06
2 *671:A1 1.40809e-05
3 *663:Y 0
4 *302:16 3.30902e-05
5 *302:8 2.41348e-05
6 *302:6 0.000100961
7 *302:4 0.000100961
8 *664:B *303:10 0
9 *302:16 *303:10 0
10 *657:A2 *302:6 9.47593e-06
11 *34:55 *671:A1 0
12 *34:55 *302:16 2.05883e-06
13 *297:22 *302:6 8.17002e-07
14 *297:31 *302:6 3.35751e-06
15 *297:50 *664:B 4.74248e-06
16 *297:50 *302:16 5.33743e-06
17 *298:8 *302:6 0
*RES
1 *663:Y *302:4 17.2 
2 *302:4 *302:6 42.2512 
3 *302:6 *302:8 17.2 
4 *302:8 *302:16 47.4342 
5 *302:16 *671:A1 42.7625 
6 *302:8 *664:B 38.9053 
*END

*D_NET *303 2.90958e-05
*CONN
*I *665:B I *D XNOR2x2_ASAP7_75t_R
*I *664:Y O *D NOR2x1_ASAP7_75t_R
*CAP
1 *665:B 0
2 *664:Y 1.45479e-05
3 *303:10 1.45479e-05
4 *664:B *303:10 0
5 *302:16 *303:10 0
*RES
1 *664:Y *303:10 43.7754 
2 *303:10 *665:B 34.4 
*END

*D_NET *304 0.000190699
*CONN
*I *668:A1 I *D AO21x1_ASAP7_75t_R
*I *666:Y O *D INVx1_ASAP7_75t_R
*CAP
1 *668:A1 0
2 *666:Y 3.84601e-06
3 *304:18 4.37929e-06
4 *304:12 6.23887e-05
5 *304:8 6.18555e-05
6 *658:A *304:12 4.03861e-05
7 *658:B *304:18 0
8 *18:28 *304:8 4.41094e-06
9 *155:18 *304:18 1.34329e-05
10 *188:8 *304:8 0
*RES
1 *666:Y *304:8 37.779 
2 *304:8 *304:12 44.4761 
3 *304:12 *304:18 38.9053 
4 *304:18 *668:A1 17.2 
*END

*D_NET *305 2.03465e-05
*CONN
*I *668:A2 I *D AO21x1_ASAP7_75t_R
*I *667:Y O *D AND4x1_ASAP7_75t_R
*CAP
1 *668:A2 1.01733e-05
2 *667:Y 1.01733e-05
*RES
1 *667:Y *668:A2 39.7482 
*END

*D_NET *306 0.000107154
*CONN
*I *669:B I *D XNOR2x2_ASAP7_75t_R
*I *668:Y O *D AO21x1_ASAP7_75t_R
*CAP
1 *669:B 0
2 *668:Y 1.66976e-05
3 *306:12 2.20008e-05
4 *306:8 3.86983e-05
5 *658:B *306:12 0
6 *16:59 *306:12 2.35211e-06
7 *170:25 *306:12 2.74052e-05
*RES
1 *668:Y *306:8 41.8876 
2 *306:8 *306:12 38.6003 
3 *306:12 *669:B 17.2 
*END

*D_NET *307 0.000302913
*CONN
*I *671:A2 I *D AOI21x1_ASAP7_75t_R
*I *670:Y O *D AND2x2_ASAP7_75t_R
*CAP
1 *671:A2 0
2 *670:Y 0
3 *307:16 1.28148e-05
4 *307:8 4.26181e-05
5 *307:6 2.98032e-05
6 *307:8 *308:10 0.000151484
7 *307:16 *308:10 3.47607e-06
8 *670:A *307:8 7.64042e-07
9 *670:B *307:8 1.11918e-05
10 *671:B *307:16 1.95129e-06
11 *34:34 *307:8 3.24195e-05
12 *34:55 *307:8 1.63905e-05
*RES
1 *670:Y *307:6 34.4 
2 *307:6 *307:8 50.1218 
3 *307:8 *307:16 40.9596 
4 *307:16 *671:A2 34.4 
*END

*D_NET *308 0.000534489
*CONN
*I *672:B I *D XNOR2x2_ASAP7_75t_R
*I *671:Y O *D AOI21x1_ASAP7_75t_R
*CAP
1 *672:B 0
2 *671:Y 7.1602e-06
3 *308:10 0.000125606
4 *308:8 0.000132767
5 *308:10 *389:98 1.43282e-05
6 *670:A *308:10 1.53963e-06
7 *671:B *308:8 1.59615e-06
8 *33:10 *308:10 5.90307e-05
9 *33:52 *308:10 3.63718e-05
10 *34:55 *308:10 1.12894e-06
11 *307:8 *308:10 0.000151484
12 *307:16 *308:10 3.47607e-06
*RES
1 *671:Y *308:8 38.1438 
2 *308:8 *308:10 127.276 
3 *308:10 *672:B 34.4 
*END

*D_NET *309 0.000247502
*CONN
*I *677:C I *D AND3x1_ASAP7_75t_R
*I *675:C I *D AND3x1_ASAP7_75t_R
*I *674:B I *D NAND2x1_ASAP7_75t_R
*I *673:Y O *D XOR2x2_ASAP7_75t_R
*CAP
1 *677:C 0
2 *675:C 0
3 *674:B 1.02494e-06
4 *673:Y 5.03325e-06
5 *309:44 8.3646e-06
6 *309:36 2.66595e-05
7 *309:21 3.06542e-05
8 *309:12 6.29136e-05
9 *309:8 5.45626e-05
10 *674:B *310:8 1.44167e-06
11 *674:B *365:149 1.44167e-06
12 *309:21 *675:A 1.25433e-05
13 *309:21 *310:6 1.5968e-06
14 *309:21 *310:8 6.7842e-07
15 *309:21 *365:149 9.81981e-06
16 *309:36 *677:A 1.13242e-05
17 *309:36 *311:8 3.91864e-06
18 *309:36 *365:149 9.13667e-07
19 *309:36 *390:44 9.08513e-06
20 *309:44 *312:10 0
21 *309:44 *390:66 5.52652e-06
*RES
1 *673:Y *309:8 36.0045 
2 *309:8 *309:12 48.1741 
3 *309:12 *674:B 18.2696 
4 *309:12 *309:21 9.62685 
5 *309:21 *675:C 17.2 
6 *309:21 *309:36 45.2949 
7 *309:36 *309:44 39.975 
8 *309:44 *677:C 17.2 
*END

*D_NET *310 0.000906432
*CONN
*I *676:A2 I *D AOI21x1_ASAP7_75t_R
*I *680:B I *D AO21x1_ASAP7_75t_R
*I *684:A1 I *D OAI21x1_ASAP7_75t_R
*I *685:B I *D OR3x1_ASAP7_75t_R
*I *691:B I *D AO21x1_ASAP7_75t_R
*I *688:A I *D NOR2x1_ASAP7_75t_R
*I *694:B I *D AOI21x1_ASAP7_75t_R
*I *674:Y O *D NAND2x1_ASAP7_75t_R
*CAP
1 *676:A2 2.74053e-06
2 *680:B 0
3 *684:A1 0
4 *685:B 0
5 *691:B 0
6 *688:A 0
7 *694:B 0
8 *674:Y 2.60133e-06
9 *310:98 2.14779e-05
10 *310:87 1.41707e-05
11 *310:72 1.26447e-05
12 *310:47 1.64831e-05
13 *310:41 2.6784e-05
14 *310:37 4.11185e-05
15 *310:33 3.43162e-05
16 *310:31 3.57578e-05
17 *310:29 3.37851e-05
18 *310:27 8.54515e-05
19 *310:25 8.54515e-05
20 *310:18 1.66015e-05
21 *310:10 6.90804e-05
22 *310:8 6.81219e-05
23 *310:6 3.69818e-05
24 *310:8 *365:142 1.76928e-06
25 *310:8 *365:149 3.03306e-06
26 *310:10 *365:142 1.69486e-05
27 *310:18 *694:A1 3.65663e-06
28 *310:27 *355:10 1.16231e-05
29 *310:31 *685:C 4.49469e-06
30 *310:31 *318:10 2.28976e-06
31 *310:33 *685:C 1.52651e-06
32 *310:41 *320:8 0
33 *310:41 *390:85 0
34 *310:47 *691:A2 1.64617e-05
35 *310:47 *322:10 5.0551e-07
36 *310:47 *390:85 2.05045e-06
37 *310:72 *684:A2 5.79724e-07
38 *310:72 *315:23 5.37866e-07
39 *310:72 *318:10 1.6528e-05
40 *310:87 *680:A2 1.35684e-06
41 *310:87 *355:10 1.98917e-05
42 *674:B *310:8 1.44167e-06
43 *679:B *310:27 0
44 *680:A1 *310:27 1.15587e-05
45 *680:A1 *310:87 8.3668e-07
46 *707:B *310:98 1.98844e-05
47 *27:42 *310:47 1.12894e-06
48 *29:66 *310:37 7.74713e-05
49 *29:66 *310:41 4.84588e-06
50 *29:81 *310:37 1.73158e-06
51 *29:81 *310:72 3.08023e-06
52 *30:70 *310:47 4.43637e-05
53 *31:26 *310:87 2.6409e-06
54 *31:32 *310:27 2.01457e-05
55 *69:39 *676:A2 4.10256e-06
56 *69:47 *310:27 0
57 *69:47 *310:98 0
58 *70:24 *676:A2 3.42414e-06
59 *70:28 *676:A2 6.7842e-07
60 *309:21 *310:6 1.5968e-06
61 *309:21 *310:8 6.7842e-07
*RES
1 *674:Y *310:6 18.8045 
2 *310:6 *310:8 11.2313 
3 *310:8 *310:10 39.0422 
4 *310:10 *310:18 45.2949 
5 *310:18 *694:B 17.2 
6 *310:8 *310:25 17.2 
7 *310:25 *310:27 67.0168 
8 *310:27 *310:29 17.2 
9 *310:29 *310:31 12.301 
10 *310:31 *310:33 2.67412 
11 *310:33 *310:37 43.4064 
12 *310:37 *310:41 23.958 
13 *310:41 *310:47 36.2023 
14 *310:47 *688:A 34.4 
15 *310:41 *691:B 17.2 
16 *310:33 *685:B 17.2 
17 *310:31 *310:72 43.8888 
18 *310:72 *684:A1 17.2 
19 *310:29 *310:87 45.9714 
20 *310:87 *680:B 17.2 
21 *310:6 *310:98 49.6055 
22 *310:98 *676:A2 19.8741 
*END

*D_NET *311 0.000193855
*CONN
*I *676:B I *D AOI21x1_ASAP7_75t_R
*I *675:Y O *D AND3x1_ASAP7_75t_R
*CAP
1 *676:B 5.77156e-06
2 *675:Y 1.41778e-05
3 *311:14 4.4103e-05
4 *311:8 5.25093e-05
5 *311:8 *677:A 9.74162e-07
6 *311:8 *390:40 1.17344e-05
7 *311:8 *390:66 2.82174e-05
8 *677:B *311:14 7.87913e-06
9 *679:B *676:B 1.12894e-06
10 *707:B *676:B 1.63973e-05
11 *69:47 *676:B 1.09842e-06
12 *69:47 *311:14 1.84206e-06
13 *71:8 *311:14 4.10256e-06
14 *309:36 *311:8 3.91864e-06
*RES
1 *675:Y *311:8 47.916 
2 *311:8 *311:14 48.8403 
3 *311:14 *676:B 40.0317 
*END

*D_NET *312 0.000182376
*CONN
*I *678:B I *D XNOR2x2_ASAP7_75t_R
*I *677:Y O *D AND3x1_ASAP7_75t_R
*CAP
1 *678:B 0
2 *677:Y 5.86295e-06
3 *312:10 8.40964e-05
4 *312:8 8.99593e-05
5 *312:10 *390:66 0
6 *31:22 *312:10 1.908e-06
7 *31:91 *312:10 5.49212e-07
8 *309:44 *312:10 0
*RES
1 *677:Y *312:8 37.0741 
2 *312:8 *312:10 60.8219 
3 *312:10 *678:B 34.4 
*END

*D_NET *313 0.0004883
*CONN
*I *680:A2 I *D AO21x1_ASAP7_75t_R
*I *687:D I *D AND4x1_ASAP7_75t_R
*I *679:Y O *D AND2x2_ASAP7_75t_R
*CAP
1 *680:A2 1.61541e-05
2 *687:D 0
3 *679:Y 0
4 *313:21 5.47056e-05
5 *313:12 8.94621e-05
6 *313:10 8.94621e-05
7 *313:8 7.95806e-05
8 *313:6 4.10291e-05
9 *313:8 *355:10 0
10 *313:21 *355:10 0
11 *679:A *313:8 8.58704e-06
12 *30:14 *313:12 0.00010605
13 *31:47 *313:12 1.9131e-06
14 *310:87 *680:A2 1.35684e-06
*RES
1 *679:Y *313:6 34.4 
2 *313:6 *313:8 28.1583 
3 *313:8 *313:10 17.2 
4 *313:10 *313:12 55.6218 
5 *313:12 *687:D 17.2 
6 *313:8 *313:21 44.232 
7 *313:21 *680:A2 26.292 
*END

*D_NET *314 3.04993e-05
*CONN
*I *681:B I *D XOR2x2_ASAP7_75t_R
*I *680:Y O *D AO21x1_ASAP7_75t_R
*CAP
1 *681:B 0
2 *680:Y 9.02947e-06
3 *314:8 9.02947e-06
4 *314:8 *355:10 1.16564e-05
5 *314:8 *357:12 7.84037e-07
*RES
1 *680:Y *314:8 43.4107 
2 *314:8 *681:B 34.4 
*END

*D_NET *315 0.000374524
*CONN
*I *691:A1 I *D AO21x1_ASAP7_75t_R
*I *683:C I *D AND3x1_ASAP7_75t_R
*I *682:Y O *D INVx1_ASAP7_75t_R
*CAP
1 *691:A1 5.46008e-06
2 *683:C 2.22332e-06
3 *682:Y 3.33344e-05
4 *315:27 6.43768e-05
5 *315:23 7.99205e-05
6 *315:10 3.99496e-05
7 *315:8 5.00568e-05
8 *691:A1 *320:8 1.62854e-06
9 *691:A1 *322:10 1.09842e-06
10 *315:23 *684:A2 0
11 *315:23 *316:10 0
12 *315:23 *318:10 0
13 *681:A *315:27 1.07377e-06
14 *683:B *683:C 1.35684e-06
15 *27:46 *315:27 8.82914e-06
16 *29:81 *315:23 1.6528e-05
17 *30:10 *315:10 7.49203e-06
18 *30:55 *315:10 1.2262e-05
19 *30:66 *315:10 6.33206e-07
20 *30:66 *315:23 1.51539e-05
21 *30:79 *315:23 1.1648e-05
22 *31:45 *315:10 1.66193e-05
23 *71:14 *315:8 4.34114e-06
24 *310:72 *315:23 5.37866e-07
*RES
1 *682:Y *315:8 46.701 
2 *315:8 *315:10 16.3318 
3 *315:10 *683:C 35.4697 
4 *315:10 *315:23 38.6003 
5 *315:23 *315:27 45.5457 
6 *315:27 *691:A1 38.9053 
*END

*D_NET *316 8.57203e-05
*CONN
*I *684:A2 I *D OAI21x1_ASAP7_75t_R
*I *685:C I *D OR3x1_ASAP7_75t_R
*I *683:Y O *D AND3x1_ASAP7_75t_R
*CAP
1 *684:A2 1.30939e-05
2 *685:C 5.50798e-06
3 *683:Y 1.40513e-05
4 *316:10 3.26531e-05
5 *684:A2 *318:10 6.94376e-06
6 *680:A1 *684:A2 0
7 *31:32 *316:10 6.86929e-06
8 *310:31 *685:C 4.49469e-06
9 *310:33 *685:C 1.52651e-06
10 *310:72 *684:A2 5.79724e-07
11 *315:23 *684:A2 0
12 *315:23 *316:10 0
*RES
1 *683:Y *316:10 44.8451 
2 *316:10 *685:C 38.6786 
3 *316:10 *684:A2 44.537 
*END

*D_NET *317 3.2482e-05
*CONN
*I *686:A I *D AND2x2_ASAP7_75t_R
*I *684:Y O *D OAI21x1_ASAP7_75t_R
*CAP
1 *686:A 0
2 *684:Y 1.51273e-05
3 *317:10 1.51273e-05
4 *317:10 *318:10 2.22736e-06
5 *30:79 *317:10 0
*RES
1 *684:Y *317:10 42.6491 
2 *317:10 *686:A 34.4 
*END

*D_NET *318 5.76165e-05
*CONN
*I *686:B I *D AND2x2_ASAP7_75t_R
*I *685:Y O *D OR3x1_ASAP7_75t_R
*CAP
1 *686:B 0
2 *685:Y 1.48138e-05
3 *318:10 1.48138e-05
4 *684:A2 *318:10 6.94376e-06
5 *310:31 *318:10 2.28976e-06
6 *310:72 *318:10 1.6528e-05
7 *315:23 *318:10 0
8 *317:10 *318:10 2.22736e-06
*RES
1 *685:Y *318:10 47.831 
2 *318:10 *686:B 34.4 
*END

*D_NET *319 0.00022674
*CONN
*I *688:B I *D NOR2x1_ASAP7_75t_R
*I *694:A1 I *D AOI21x1_ASAP7_75t_R
*I *687:Y O *D AND4x1_ASAP7_75t_R
*CAP
1 *688:B 0
2 *694:A1 6.63399e-06
3 *687:Y 0
4 *319:23 3.73883e-05
5 *319:8 7.06899e-05
6 *319:6 0.000101444
7 *319:8 *390:85 0
8 *319:23 *390:85 0
9 *29:55 *319:23 5.55315e-06
10 *29:66 *319:23 1.12894e-06
11 *101:10 *319:8 2.45021e-07
12 *188:141 *319:8 0
13 *310:18 *694:A1 3.65663e-06
*RES
1 *687:Y *319:6 34.4 
2 *319:6 *319:8 46.7428 
3 *319:8 *694:A1 39.2134 
4 *319:6 *319:23 43.8069 
5 *319:23 *688:B 17.2 
*END

*D_NET *320 8.82694e-05
*CONN
*I *689:B I *D XNOR2x2_ASAP7_75t_R
*I *688:Y O *D NOR2x1_ASAP7_75t_R
*CAP
1 *689:B 1.00468e-05
2 *688:Y 1.96467e-05
3 *320:8 2.96935e-05
4 *320:8 *390:85 6.33206e-07
5 *691:A1 *320:8 1.62854e-06
6 *27:42 *320:8 0
7 *27:46 *689:B 2.66207e-05
8 *310:41 *320:8 0
*RES
1 *688:Y *320:8 47.3528 
2 *320:8 *689:B 42.4224 
*END

*D_NET *321 5.51986e-05
*CONN
*I *691:A2 I *D AO21x1_ASAP7_75t_R
*I *690:Y O *D AND4x1_ASAP7_75t_R
*CAP
1 *691:A2 1.83092e-05
2 *690:Y 1.83092e-05
3 *30:70 *691:A2 2.11853e-06
4 *310:47 *691:A2 1.64617e-05
*RES
1 *690:Y *691:A2 49.3751 
*END

*D_NET *322 4.77279e-05
*CONN
*I *692:B I *D XOR2x2_ASAP7_75t_R
*I *691:Y O *D AO21x1_ASAP7_75t_R
*CAP
1 *692:B 0
2 *691:Y 2.3062e-05
3 *322:10 2.3062e-05
4 *691:A1 *322:10 1.09842e-06
5 *30:70 *322:10 0
6 *310:47 *322:10 5.0551e-07
*RES
1 *691:Y *322:10 46.5629 
2 *322:10 *692:B 34.4 
*END

*D_NET *323 3.2075e-05
*CONN
*I *694:A2 I *D AOI21x1_ASAP7_75t_R
*I *693:Y O *D AND2x2_ASAP7_75t_R
*CAP
1 *694:A2 1.3915e-05
2 *693:Y 1.3915e-05
3 *694:A2 *324:8 3.56648e-06
4 *27:40 *694:A2 6.7842e-07
*RES
1 *693:Y *694:A2 42.4224 
*END

*D_NET *324 0.000145243
*CONN
*I *695:B I *D XNOR2x2_ASAP7_75t_R
*I *694:Y O *D AOI21x1_ASAP7_75t_R
*CAP
1 *695:B 0
2 *694:Y 9.65399e-06
3 *324:12 2.98259e-05
4 *324:8 3.94799e-05
5 *324:12 *336:76 3.30632e-05
6 *694:A2 *324:8 3.56648e-06
7 *26:46 *324:12 6.33206e-07
8 *27:42 *324:12 1.50458e-05
9 *28:33 *324:12 1.12894e-06
10 *28:35 *324:12 3.90551e-06
11 *117:32 *324:12 8.93996e-06
*RES
1 *694:Y *324:8 38.1438 
2 *324:8 *324:12 44.232 
3 *324:12 *695:B 17.2 
*END

*D_NET *325 9.06424e-05
*CONN
*I *697:B I *D OA21x2_ASAP7_75t_R
*I *696:Y O *D NAND2x1_ASAP7_75t_R
*CAP
1 *697:B 0
2 *696:Y 0
3 *325:12 3.24502e-05
4 *325:6 3.24502e-05
5 *11:50 *325:12 5.09299e-06
6 *37:28 *325:12 8.146e-06
7 *73:65 *325:12 1.65842e-06
8 *73:76 *325:12 5.37866e-07
9 *75:10 *325:12 9.48496e-06
10 *299:34 *325:12 8.2174e-07
*RES
1 *696:Y *325:6 34.4 
2 *325:6 *325:12 41.6676 
3 *325:12 *697:B 17.2 
*END

*D_NET *326 0.00115936
*CONN
*P clk I
*I *843:A I *D BUFx4_ASAP7_75t_R
*CAP
1 clk 0.000307605
2 *843:A 0
3 *326:14 1.17629e-06
4 *326:10 0.000268546
5 *326:8 0.000267369
6 *326:6 0.000307605
7 *326:10 *387:17 5.23126e-06
8 *11:35 *326:14 1.82344e-06
*RES
1 clk *326:6 155.898 
2 *326:6 *326:8 11.8 
3 *326:8 *326:10 104.377 
4 *326:10 *326:14 18.2325 
5 *326:14 *843:A 34.4 
*END

*D_NET *327 0.000121605
*CONN
*I *711:A I *D HAxp5_ASAP7_75t_R
*I *632:A2 I *D AO21x1_ASAP7_75t_R
*I *418:Y O *D INVx1_ASAP7_75t_R
*CAP
1 *711:A 1.79037e-05
2 *632:A2 0
3 *418:Y 4.9329e-06
4 *327:14 2.8986e-05
5 *327:8 5.18227e-05
6 *418:A *327:8 5.49212e-07
7 *418:A *327:14 1.67815e-06
8 *632:B *327:14 2.28976e-06
9 *25:19 *327:14 4.45472e-06
10 *156:33 *327:14 2.11853e-06
11 *282:6 *327:14 6.86929e-06
*RES
1 *418:Y *327:8 37.779 
2 *327:8 *327:14 39.2165 
3 *327:14 *632:A2 17.2 
4 *327:8 *711:A 40.2831 
*END

*D_NET *328 4.88683e-05
*CONN
*I *711:B I *D HAxp5_ASAP7_75t_R
*I *428:Y O *D INVx1_ASAP7_75t_R
*CAP
1 *711:B 7.52131e-06
2 *428:Y 1.25096e-05
3 *328:10 2.0031e-05
4 *328:10 *391:168 1.08825e-06
5 *24:18 *328:10 6.33206e-07
6 *24:33 *328:10 4.74248e-06
7 *81:8 *711:B 2.34246e-06
*RES
1 *428:Y *328:10 41.5795 
2 *328:10 *711:B 38.1438 
*END

*D_NET *329 0.000198276
*CONN
*I *438:A I *D INVx1_ASAP7_75t_R
*I *591:C I *D OR3x1_ASAP7_75t_R
*I *713:Y O *D BUFx2_ASAP7_75t_R
*CAP
1 *438:A 1.35566e-05
2 *591:C 0
3 *713:Y 2.24353e-05
4 *329:27 4.12068e-05
5 *329:19 3.79577e-05
6 *329:6 3.27428e-05
7 *329:6 *598:B 1.2768e-05
8 *329:6 *331:14 3.89037e-06
9 *329:19 *598:B 1.9914e-05
10 *329:19 *604:B 7.94305e-06
11 *79:20 *438:A 4.80234e-06
12 *247:8 *329:19 5.51397e-07
13 *247:14 *329:19 5.07985e-07
*RES
1 *713:Y *329:6 32.1751 
2 *329:6 *591:C 17.2 
3 *329:6 *329:19 43.5399 
4 *329:19 *329:27 42.6324 
5 *329:27 *438:A 27.3617 
*END

*D_NET *330 0.000415564
*CONN
*I *579:B I *D AOI21x1_ASAP7_75t_R
*I *440:A I *D INVx1_ASAP7_75t_R
*I *591:B I *D OR3x1_ASAP7_75t_R
*I *712:Y O *D BUFx2_ASAP7_75t_R
*CAP
1 *579:B 0
2 *440:A 5.94671e-06
3 *591:B 0
4 *712:Y 1.59597e-05
5 *330:36 8.05248e-05
6 *330:34 8.37471e-05
7 *330:21 9.16896e-06
8 *330:19 7.62339e-05
9 *330:12 3.14031e-06
10 *330:6 9.5334e-05
11 *330:6 *365:6 0
12 *330:12 *331:10 5.51814e-06
13 *330:12 *365:25 1.3295e-05
14 *330:19 *365:98 3.68565e-06
15 *330:36 *579:A2 2.14651e-05
16 *330:36 *365:110 1.02506e-06
17 *330:36 *365:127 5.19552e-07
*RES
1 *712:Y *330:6 24.1527 
2 *330:6 *330:12 38.9053 
3 *330:12 *591:B 17.2 
4 *330:6 *330:19 34.7636 
5 *330:19 *330:21 17.2 
6 *330:21 *440:A 37.779 
7 *330:21 *330:34 18.8895 
8 *330:34 *330:36 49.7387 
9 *330:36 *579:B 17.2 
*END

*D_NET *331 0.000354666
*CONN
*I *586:A I *D XOR2x2_ASAP7_75t_R
*I *598:B I *D OR3x1_ASAP7_75t_R
*I *591:A I *D OR3x1_ASAP7_75t_R
*I *594:Y O *D BUFx2_ASAP7_75t_R
*CAP
1 *586:A 5.07097e-05
2 *598:B 1.65924e-05
3 *591:A 0
4 *594:Y 2.94419e-05
5 *331:14 1.81844e-05
6 *331:10 4.28567e-05
7 *331:8 4.12647e-05
8 *331:6 8.01516e-05
9 *586:A *332:14 8.41606e-06
10 *598:B *598:A 5.22376e-07
11 *331:6 *332:14 4.17901e-06
12 *331:10 *365:12 1.03816e-05
13 *331:10 *365:23 1.64764e-06
14 *331:10 *365:25 3.3563e-06
15 *248:12 *331:10 4.87068e-06
16 *329:6 *598:B 1.2768e-05
17 *329:6 *331:14 3.89037e-06
18 *329:19 *598:B 1.9914e-05
19 *330:12 *331:10 5.51814e-06
*RES
1 *594:Y *331:6 34.8492 
2 *331:6 *331:8 17.2 
3 *331:8 *331:10 35.4795 
4 *331:10 *331:14 18.2696 
5 *331:14 *591:A 17.2 
6 *331:14 *598:B 28.9662 
7 *331:6 *586:A 48.7547 
*END

*D_NET *332 0.000285167
*CONN
*I *593:A I *D XOR2x2_ASAP7_75t_R
*I *598:A I *D OR3x1_ASAP7_75t_R
*I *604:B I *D OR3x1_ASAP7_75t_R
*I *587:Y O *D BUFx2_ASAP7_75t_R
*CAP
1 *593:A 1.29012e-05
2 *598:A 2.29576e-06
3 *604:B 1.51796e-05
4 *587:Y 5.91905e-06
5 *332:16 6.57933e-05
6 *332:14 9.43373e-05
7 *332:8 3.90372e-05
8 *604:B *361:14 3.68287e-06
9 *332:16 *585:A 4.83862e-06
10 *332:16 *365:98 1.66587e-05
11 *586:A *332:14 8.41606e-06
12 *598:B *598:A 5.22376e-07
13 *247:14 *604:B 3.46317e-06
14 *247:23 *332:16 0
15 *248:12 *593:A 0
16 *248:12 *332:8 0
17 *248:12 *332:16 0
18 *253:8 *604:B 0
19 *255:10 *593:A 0
20 *255:10 *604:B 0
21 *255:10 *332:16 0
22 *329:19 *604:B 7.94305e-06
23 *331:6 *332:14 4.17901e-06
*RES
1 *587:Y *332:8 37.779 
2 *332:8 *332:14 49.9099 
3 *332:14 *332:16 35.4795 
4 *332:16 *604:B 45.6066 
5 *332:16 *598:A 35.4697 
6 *332:14 *593:A 42.6491 
*END

*D_NET *333 0.000243881
*CONN
*I *600:A I *D XOR2x2_ASAP7_75t_R
*I *610:B I *D OR3x1_ASAP7_75t_R
*I *604:A I *D OR3x1_ASAP7_75t_R
*I *584:Y O *D BUFx2_ASAP7_75t_R
*CAP
1 *600:A 0
2 *610:B 0
3 *604:A 0
4 *584:Y 2.07981e-05
5 *333:29 2.50399e-05
6 *333:23 4.44281e-05
7 *333:12 1.30203e-05
8 *333:6 5.32066e-05
9 *333:12 *336:29 2.98814e-06
10 *333:23 *336:29 0
11 *333:29 *334:17 9.31704e-06
12 *600:B *333:29 6.10236e-06
13 *610:C *333:29 3.89037e-06
14 *253:8 *333:12 0
15 *253:8 *333:23 1.03732e-05
16 *253:8 *333:29 1.30736e-05
17 *253:33 *333:29 4.1643e-05
18 *258:10 *333:29 0
*RES
1 *584:Y *333:6 26.292 
2 *333:6 *333:12 44.537 
3 *333:12 *604:A 17.2 
4 *333:6 *333:23 30.9674 
5 *333:23 *333:29 43.5271 
6 *333:29 *610:B 17.2 
7 *333:23 *600:A 34.4 
*END

*D_NET *334 0.000293631
*CONN
*I *606:A I *D XOR2x2_ASAP7_75t_R
*I *616:B I *D OR3x1_ASAP7_75t_R
*I *610:A I *D OR3x1_ASAP7_75t_R
*I *578:Y O *D BUFx2_ASAP7_75t_R
*CAP
1 *606:A 0
2 *616:B 0
3 *610:A 0
4 *578:Y 3.23314e-05
5 *334:40 2.35378e-05
6 *334:34 3.19444e-05
7 *334:21 9.83523e-06
8 *334:17 2.69901e-05
9 *334:6 5.78929e-05
10 *334:17 *336:19 0
11 *334:21 *365:68 3.89037e-06
12 *334:34 *365:68 1.10242e-05
13 *334:40 *336:113 1.46265e-05
14 *616:C *334:17 1.13463e-05
15 *616:C *334:34 2.20128e-06
16 *118:81 *334:40 2.71272e-05
17 *263:12 *334:17 3.32579e-06
18 *263:12 *334:34 0
19 *268:6 *334:40 2.82404e-05
20 *333:29 *334:17 9.31704e-06
*RES
1 *578:Y *334:6 35.384 
2 *334:6 *610:A 17.2 
3 *334:6 *334:17 35.8375 
4 *334:17 *334:21 18.2696 
5 *334:21 *616:B 17.2 
6 *334:21 *334:34 41.4944 
7 *334:34 *334:40 48.2518 
8 *334:40 *606:A 34.4 
*END

*D_NET *335 0.000202263
*CONN
*I *616:A I *D OR3x1_ASAP7_75t_R
*I *612:A I *D XOR2x2_ASAP7_75t_R
*I *575:Y O *D BUFx2_ASAP7_75t_R
*CAP
1 *616:A 1.24247e-05
2 *612:A 2.01749e-05
3 *575:Y 4.90652e-06
4 *335:14 3.25996e-05
5 *335:12 4.62596e-05
6 *335:8 5.11661e-05
7 *612:A *336:10 0
8 *612:A *336:19 0
9 *335:8 *365:29 0
10 *335:12 *349:20 6.7842e-07
11 *335:12 *372:6 1.68321e-05
12 *575:A *335:8 0
13 *263:12 *612:A 5.37569e-06
14 *263:12 *616:A 1.18455e-05
15 *264:8 *612:A 0
*RES
1 *575:Y *335:8 37.779 
2 *335:8 *335:12 39.1278 
3 *335:12 *335:14 17.2 
4 *335:14 *612:A 48.9573 
5 *335:14 *616:A 44.537 
*END

*D_NET *336 0.0016641
*CONN
*I *617:A I *D INVx1_ASAP7_75t_R
*I *605:B I *D AND3x1_ASAP7_75t_R
*I *599:B I *D AND3x1_ASAP7_75t_R
*I *579:A2 I *D AOI21x1_ASAP7_75t_R
*I *580:B I *D AND3x1_ASAP7_75t_R
*I *585:B I *D AND3x1_ASAP7_75t_R
*I *592:B I *D AND3x1_ASAP7_75t_R
*I *611:B I *D AND3x1_ASAP7_75t_R
*I *572:Y O *D BUFx2_ASAP7_75t_R
*CAP
1 *617:A 0
2 *605:B 0
3 *599:B 0
4 *579:A2 1.55462e-05
5 *580:B 0
6 *585:B 0
7 *592:B 6.53597e-06
8 *611:B 0
9 *572:Y 3.97379e-05
10 *336:113 0.000135124
11 *336:111 0.000147021
12 *336:98 1.54377e-05
13 *336:94 3.71662e-05
14 *336:76 2.51975e-05
15 *336:63 1.87363e-05
16 *336:59 2.93589e-05
17 *336:55 5.34832e-05
18 *336:48 5.10386e-05
19 *336:39 2.43653e-05
20 *336:37 1.40378e-05
21 *336:29 5.25341e-05
22 *336:27 4.15901e-05
23 *336:23 8.42365e-06
24 *336:21 3.89557e-05
25 *336:19 4.99311e-05
26 *336:10 6.51336e-05
27 *336:6 5.49405e-05
28 *579:A2 *365:127 2.75712e-05
29 *336:10 *365:31 0
30 *336:19 *365:27 0
31 *336:19 *365:29 0
32 *336:19 *365:31 0
33 *336:29 *365:23 8.46363e-06
34 *336:29 *365:25 0.000150406
35 *336:29 *365:27 8.58704e-06
36 *336:37 *365:98 3.48165e-06
37 *336:48 *585:A 4.67544e-05
38 *336:48 *365:102 2.28976e-06
39 *336:55 *365:102 5.18164e-05
40 *336:59 *365:110 9.67723e-06
41 *336:63 *365:118 4.24019e-06
42 *336:98 *365:76 3.65131e-06
43 *336:111 *365:76 0
44 *600:B *336:29 0
45 *605:C *336:98 1.42799e-05
46 *605:C *336:111 7.14604e-06
47 *612:A *336:10 0
48 *612:A *336:19 0
49 *616:C *336:94 4.96929e-06
50 *616:C *336:111 0
51 *28:35 *336:76 1.3435e-05
52 *77:14 *336:63 2.7707e-05
53 *77:14 *336:76 3.46317e-06
54 *79:39 *336:48 8.23084e-06
55 *79:39 *336:55 3.05302e-06
56 *80:6 *336:63 1.65419e-06
57 *80:6 *336:76 1.04475e-06
58 *118:65 *336:59 2.30409e-05
59 *118:75 *336:113 1.62312e-05
60 *118:138 *336:113 0.000114494
61 *247:14 *336:29 3.7073e-05
62 *247:23 *336:29 2.49916e-05
63 *247:23 *336:37 1.61287e-05
64 *248:8 *592:B 3.3921e-06
65 *248:8 *336:48 1.44639e-06
66 *253:22 *336:23 1.52651e-06
67 *253:22 *336:29 2.25787e-06
68 *253:33 *336:19 1.89747e-06
69 *253:33 *336:29 0
70 *254:8 *336:94 2.28976e-06
71 *258:10 *336:94 1.98844e-05
72 *263:12 *336:19 0
73 *264:8 *336:10 1.09067e-06
74 *268:6 *336:113 0
75 *324:12 *336:76 3.30632e-05
76 *330:36 *579:A2 2.14651e-05
77 *333:12 *336:29 2.98814e-06
78 *333:23 *336:29 0
79 *334:17 *336:19 0
80 *334:40 *336:113 1.46265e-05
*RES
1 *572:Y *336:6 35.9189 
2 *336:6 *336:10 28.4633 
3 *336:10 *611:B 34.4 
4 *336:10 *336:19 34.3531 
5 *336:19 *336:21 17.2 
6 *336:21 *336:23 3.74377 
7 *336:23 *336:27 18.8045 
8 *336:27 *336:29 54.6271 
9 *336:29 *336:37 42.7058 
10 *336:37 *336:39 17.2 
11 *336:39 *592:B 20.409 
12 *336:39 *336:48 18.7189 
13 *336:48 *585:B 17.2 
14 *336:48 *336:55 37.9726 
15 *336:55 *336:59 35.7845 
16 *336:59 *336:63 25.2224 
17 *336:63 *580:B 17.2 
18 *336:63 *336:76 47.2678 
19 *336:76 *579:A2 36.9885 
20 *336:23 *599:B 17.2 
21 *336:21 *336:94 39.5246 
22 *336:94 *336:98 21.4786 
23 *336:98 *605:B 17.2 
24 *336:98 *336:111 43.2973 
25 *336:111 *336:113 71.1317 
26 *336:113 *617:A 17.2 
*END

*D_NET *337 0.000682259
*CONN
*I *447:A1 I *D OA21x2_ASAP7_75t_R
*I *459:C I *D OR3x1_ASAP7_75t_R
*I *469:E I *D OR5x1_ASAP7_75t_R
*I *437:A I *D INVx1_ASAP7_75t_R
*I *554:Y O *D BUFx2_ASAP7_75t_R
*CAP
1 *447:A1 6.74061e-05
2 *459:C 0
3 *469:E 0
4 *437:A 0
5 *554:Y 0
6 *337:42 5.68855e-06
7 *337:27 1.7636e-05
8 *337:23 9.17837e-05
9 *337:21 7.98363e-05
10 *337:19 0.000155467
11 *337:12 2.36232e-05
12 *337:4 0.000111684
13 *337:19 *338:43 2.90209e-08
14 *337:23 *460:B 4.83862e-06
15 *337:23 *338:17 0
16 *337:23 *338:43 0
17 *337:23 *340:26 9.67723e-06
18 *337:42 *460:B 1.26641e-06
19 *337:42 *340:26 4.10928e-06
20 *452:A2 *337:19 1.40419e-08
21 *452:B *337:19 8.87763e-06
22 *452:C *447:A1 6.53938e-06
23 *452:C *337:19 4.41457e-06
24 *455:A2 *337:23 5.52807e-07
25 *67:42 *337:23 0
26 *125:25 *447:A1 5.68657e-06
27 *125:187 *337:23 1.12894e-06
28 *126:6 *447:A1 0
29 *128:8 *337:23 1.66587e-05
30 *129:10 *337:23 8.58704e-06
31 *135:10 *337:23 1.07573e-06
32 *135:10 *337:42 1.36943e-05
33 *139:8 *337:27 0
34 *147:8 *337:23 3.70413e-05
35 *147:21 *337:23 4.94291e-06
*RES
1 *554:Y *337:4 17.2 
2 *337:4 *337:12 43.6621 
3 *337:12 *437:A 17.2 
4 *337:4 *337:19 41.1815 
5 *337:19 *337:21 17.2 
6 *337:21 *337:23 70.9589 
7 *337:23 *337:27 21.4786 
8 *337:27 *469:E 17.2 
9 *337:27 *337:42 39.975 
10 *337:42 *459:C 17.2 
11 *337:19 *447:A1 49.2895 
*END

*D_NET *338 0.000376127
*CONN
*I *452:A1 I *D OA211x2_ASAP7_75t_R
*I *459:B I *D OR3x1_ASAP7_75t_R
*I *469:D I *D OR5x1_ASAP7_75t_R
*I *439:A I *D INVx1_ASAP7_75t_R
*I *517:Y O *D BUFx2_ASAP7_75t_R
*CAP
1 *452:A1 0
2 *459:B 3.5534e-06
3 *469:D 1.3473e-05
4 *439:A 0
5 *517:Y 5.50436e-06
6 *338:43 2.93057e-05
7 *338:17 8.1332e-05
8 *338:15 0.000140062
9 *338:6 5.19553e-05
10 *459:B *459:A 3.89037e-06
11 *469:D *469:C 4.68734e-06
12 *469:D *340:14 0
13 *469:D *341:36 6.33206e-07
14 *338:17 *339:17 4.42421e-06
15 *338:17 *339:19 5.55315e-06
16 *67:42 *338:17 8.33296e-06
17 *122:14 *338:43 4.45472e-06
18 *122:20 *338:17 7.03708e-06
19 *122:20 *338:43 3.79494e-06
20 *122:34 *338:17 1.09842e-06
21 *124:10 *338:43 1.49407e-08
22 *125:187 *338:17 1.34466e-06
23 *129:10 *338:17 0
24 *135:8 *459:B 2.28976e-06
25 *135:10 *469:D 3.3563e-06
26 *147:21 *338:43 0
27 *337:19 *338:43 2.90209e-08
28 *337:23 *338:17 0
29 *337:23 *338:43 0
*RES
1 *517:Y *338:6 19.8741 
2 *338:6 *439:A 17.2 
3 *338:6 *338:15 39.1278 
4 *338:15 *338:17 48.9954 
5 *338:17 *469:D 44.9585 
6 *338:17 *459:B 37.0741 
7 *338:15 *338:43 39.1068 
8 *338:43 *452:A1 17.2 
*END

*D_NET *339 0.000304814
*CONN
*I *455:B I *D AOI21x1_ASAP7_75t_R
*I *459:A I *D OR3x1_ASAP7_75t_R
*I *464:B I *D OR3x1_ASAP7_75t_R
*I *469:C I *D OR5x1_ASAP7_75t_R
*I *456:A I *D AND3x1_ASAP7_75t_R
*I *502:Y O *D BUFx2_ASAP7_75t_R
*CAP
1 *455:B 3.8932e-06
2 *459:A 4.40138e-06
3 *464:B 8.82091e-06
4 *469:C 2.04976e-05
5 *456:A 0
6 *502:Y 1.39843e-05
7 *339:32 1.32223e-05
8 *339:19 4.22048e-05
9 *339:17 4.10563e-05
10 *339:6 2.94401e-05
11 *469:C *464:A 0
12 *469:C *469:A 1.44167e-06
13 *469:C *340:14 2.52755e-07
14 *459:B *459:A 3.89037e-06
15 *469:D *469:C 4.68734e-06
16 *67:12 *339:6 1.94746e-05
17 *67:12 *339:17 5.62196e-06
18 *67:29 *464:B 5.41446e-06
19 *67:29 *339:19 7.26181e-06
20 *67:42 *455:B 3.65131e-06
21 *122:20 *339:17 1.20741e-05
22 *122:26 *339:17 1.51765e-05
23 *122:26 *339:19 1.47844e-05
24 *135:8 *459:A 1.47071e-05
25 *135:8 *464:B 8.87763e-06
26 *338:17 *339:17 4.42421e-06
27 *338:17 *339:19 5.55315e-06
*RES
1 *502:Y *339:6 27.3617 
2 *339:6 *456:A 17.2 
3 *339:6 *339:17 31.0241 
4 *339:17 *339:19 18.5845 
5 *339:19 *469:C 45.4366 
6 *339:19 *339:32 17.2 
7 *339:32 *464:B 23.6179 
8 *339:32 *459:A 21.4786 
9 *339:17 *455:B 37.0741 
*END

*D_NET *340 0.00038288
*CONN
*I *464:A I *D OR3x1_ASAP7_75t_R
*I *469:B I *D OR5x1_ASAP7_75t_R
*I *460:B I *D AOI21x1_ASAP7_75t_R
*I *461:A I *D AND3x1_ASAP7_75t_R
*I *501:Y O *D BUFx2_ASAP7_75t_R
*CAP
1 *464:A 6.57385e-06
2 *469:B 0
3 *460:B 6.92583e-06
4 *461:A 6.99742e-06
5 *501:Y 3.10707e-05
6 *340:32 3.30616e-05
7 *340:26 4.39473e-05
8 *340:22 3.60184e-05
9 *340:14 4.87671e-05
10 *340:8 6.13506e-05
11 *340:14 *469:A 1.44167e-06
12 *340:14 *341:36 0
13 *340:22 *341:36 1.33022e-05
14 *461:B *461:A 1.94746e-05
15 *461:B *340:32 2.03526e-06
16 *461:C *461:A 1.94746e-05
17 *461:C *340:32 7.58265e-07
18 *469:C *464:A 0
19 *469:C *340:14 2.52755e-07
20 *469:D *340:14 0
21 *122:38 *461:A 4.83862e-06
22 *122:40 *461:A 8.06436e-06
23 *131:6 *460:B 2.66992e-06
24 *131:6 *340:32 2.02204e-06
25 *132:8 *461:A 1.89962e-06
26 *135:10 *340:22 5.52807e-07
27 *135:10 *340:26 5.52264e-06
28 *139:12 *340:26 3.79923e-06
29 *147:8 *340:26 2.1664e-06
30 *337:23 *460:B 4.83862e-06
31 *337:23 *340:26 9.67723e-06
32 *337:42 *460:B 1.26641e-06
33 *337:42 *340:26 4.10928e-06
*RES
1 *501:Y *340:8 47.7706 
2 *340:8 *340:14 32.4302 
3 *340:14 *340:22 46.9277 
4 *340:22 *340:26 29.0265 
5 *340:26 *340:32 47.7706 
6 *340:32 *461:A 44.2252 
7 *340:26 *460:B 41.9726 
8 *340:14 *469:B 17.2 
9 *340:8 *464:A 38.9053 
*END

*D_NET *341 0.000209747
*CONN
*I *474:B I *D OR3x1_ASAP7_75t_R
*I *469:A I *D OR5x1_ASAP7_75t_R
*I *465:B I *D AOI21x1_ASAP7_75t_R
*I *466:A I *D AND3x1_ASAP7_75t_R
*I *491:Y O *D BUFx2_ASAP7_75t_R
*CAP
1 *474:B 7.41729e-06
2 *469:A 1.02494e-06
3 *465:B 6.88998e-06
4 *466:A 0
5 *491:Y 1.64679e-05
6 *341:36 3.4468e-05
7 *341:32 5.80277e-05
8 *341:17 3.59256e-05
9 *341:8 2.83363e-05
10 *474:B *342:43 1.04475e-06
11 *341:36 *342:43 3.32579e-06
12 *466:C *341:17 0
13 *466:C *341:32 0
14 *469:C *469:A 1.44167e-06
15 *469:D *341:36 6.33206e-07
16 *135:10 *341:36 0
17 *135:12 *341:32 0
18 *135:12 *341:36 0
19 *340:14 *469:A 1.44167e-06
20 *340:14 *341:36 0
21 *340:22 *341:36 1.33022e-05
*RES
1 *491:Y *341:8 47.3528 
2 *341:8 *466:A 34.4 
3 *341:8 *341:17 9.01066 
4 *341:17 *465:B 38.1438 
5 *341:17 *341:32 28.8848 
6 *341:32 *341:36 45.3583 
7 *341:36 *469:A 35.4697 
8 *341:32 *474:B 22.0134 
*END

*D_NET *342 0.0003074
*CONN
*I *471:A I *D AND3x1_ASAP7_75t_R
*I *479:B I *D OR3x1_ASAP7_75t_R
*I *474:A I *D OR3x1_ASAP7_75t_R
*I *470:B I *D AOI21x1_ASAP7_75t_R
*I *481:Y O *D BUFx2_ASAP7_75t_R
*CAP
1 *471:A 0
2 *479:B 0
3 *474:A 0
4 *470:B 0
5 *481:Y 6.77797e-06
6 *342:61 9.4287e-06
7 *342:43 1.86138e-05
8 *342:33 2.01305e-05
9 *342:29 2.9417e-05
10 *342:23 5.26313e-05
11 *342:10 3.43555e-05
12 *342:8 2.5831e-05
13 *342:33 *343:37 5.22376e-07
14 *342:43 *343:37 2.0895e-06
15 *474:B *342:43 1.04475e-06
16 *122:44 *342:23 3.79371e-05
17 *122:61 *342:23 0
18 *122:61 *342:61 0
19 *135:10 *342:29 5.52807e-07
20 *135:10 *342:43 6.00889e-06
21 *135:12 *342:29 1.07573e-06
22 *135:12 *342:43 6.33206e-07
23 *138:12 *342:10 9.48786e-06
24 *138:14 *342:8 6.5975e-06
25 *139:23 *342:29 1.23194e-05
26 *139:23 *342:61 0
27 *139:40 *342:23 4.84697e-07
28 *140:8 *342:10 5.2059e-06
29 *143:8 *342:29 8.33296e-06
30 *143:12 *342:23 2.03526e-06
31 *143:12 *342:29 1.25606e-05
32 *341:36 *342:43 3.32579e-06
*RES
1 *481:Y *342:8 39.2134 
2 *342:8 *342:10 15.2055 
3 *342:10 *470:B 34.4 
4 *342:10 *342:23 35.1363 
5 *342:23 *342:29 36.429 
6 *342:29 *342:33 18.2696 
7 *342:33 *342:43 47.5192 
8 *342:43 *474:A 17.2 
9 *342:33 *479:B 17.2 
10 *342:23 *342:61 43.354 
11 *342:61 *471:A 17.2 
*END

*D_NET *343 0.000610823
*CONN
*I *487:A I *D OR4x1_ASAP7_75t_R
*I *476:A I *D AND3x1_ASAP7_75t_R
*I *479:A I *D OR3x1_ASAP7_75t_R
*I *475:B I *D AOI21x1_ASAP7_75t_R
*I *454:Y O *D BUFx2_ASAP7_75t_R
*CAP
1 *487:A 0
2 *476:A 2.59065e-06
3 *479:A 0
4 *475:B 1.01301e-05
5 *454:Y 8.22422e-06
6 *343:57 1.80996e-05
7 *343:37 1.67683e-05
8 *343:29 5.33465e-05
9 *343:27 3.91688e-05
10 *343:16 5.49515e-05
11 *343:14 4.48215e-05
12 *343:12 0.000112713
13 *343:10 9.46139e-05
14 *343:8 8.22422e-06
15 *343:12 *344:31 3.52932e-05
16 *343:16 *344:37 0
17 *462:A1 *343:16 0
18 *119:18 *343:16 1.67815e-06
19 *119:18 *343:57 1.12894e-06
20 *122:34 *343:12 1.15793e-05
21 *122:40 *343:37 0
22 *122:75 *343:29 2.03526e-06
23 *122:90 *476:A 2.20964e-06
24 *122:90 *343:29 4.02027e-05
25 *125:50 *343:12 1.15213e-05
26 *125:50 *343:57 4.23705e-06
27 *125:54 *343:57 0
28 *134:8 *343:16 5.49212e-07
29 *134:12 *343:12 5.09299e-06
30 *134:12 *343:57 8.82914e-06
31 *139:23 *343:37 5.85387e-06
32 *143:16 *475:B 8.06799e-07
33 *143:37 *475:B 5.52807e-07
34 *143:37 *343:16 9.21843e-06
35 *147:8 *343:37 3.76935e-06
36 *342:33 *343:37 5.22376e-07
37 *342:43 *343:37 2.0895e-06
*RES
1 *454:Y *343:8 40.0317 
2 *343:8 *343:10 17.2 
3 *343:10 *343:12 71.1317 
4 *343:12 *343:14 17.2 
5 *343:14 *343:16 34.3531 
6 *343:16 *475:B 41.158 
7 *343:16 *343:27 17.2 
8 *343:27 *343:29 34.7636 
9 *343:29 *343:37 45.2382 
10 *343:37 *479:A 17.2 
11 *343:27 *476:A 19.3393 
12 *343:12 *343:57 48.1107 
13 *343:57 *487:A 17.2 
*END

*D_NET *344 0.00119156
*CONN
*I *649:A1 I *D OA211x2_ASAP7_75t_R
*I *448:A I *D NAND2x1_ASAP7_75t_R
*I *480:A I *D INVx1_ASAP7_75t_R
*I *487:B I *D OR4x1_ASAP7_75t_R
*I *484:A1 I *D OA211x2_ASAP7_75t_R
*I *449:Y O *D BUFx2_ASAP7_75t_R
*CAP
1 *649:A1 0
2 *448:A 4.44804e-06
3 *480:A 2.37319e-05
4 *487:B 2.24326e-05
5 *484:A1 0
6 *449:Y 7.19606e-05
7 *344:74 1.08801e-05
8 *344:66 0.000144114
9 *344:57 0.000140322
10 *344:37 3.58767e-05
11 *344:31 5.93891e-05
12 *344:27 9.01393e-05
13 *344:25 4.61185e-05
14 *344:16 4.19132e-06
15 *344:12 3.16601e-05
16 *344:10 6.33009e-05
17 *344:8 1.28156e-05
18 *344:6 7.19606e-05
19 *448:A *448:B 2.50424e-06
20 *448:A *365:35 1.23489e-06
21 *480:A *365:43 1.52651e-06
22 *344:6 *365:35 1.11259e-05
23 *344:10 *365:43 9.97906e-07
24 *344:66 *448:B 1.88951e-06
25 *344:74 *388:86 2.57129e-05
26 *462:A1 *344:37 7.84037e-07
27 *462:A2 *487:B 6.7842e-07
28 *462:B *344:37 5.52807e-07
29 *483:A *480:A 1.76928e-06
30 *487:D *487:B 4.49469e-06
31 *117:104 *344:66 2.465e-05
32 *122:38 *344:27 1.64348e-06
33 *125:10 *344:12 1.96231e-05
34 *125:25 *344:12 1.12894e-06
35 *125:27 *344:27 4.7807e-05
36 *125:33 *344:27 1.17904e-05
37 *134:8 *344:37 0
38 *147:8 *344:27 3.64616e-05
39 *147:21 *344:12 2.1443e-05
40 *147:21 *344:27 3.05118e-08
41 *150:12 *344:10 1.35579e-05
42 *150:12 *344:12 3.54456e-05
43 *151:8 *344:10 1.908e-06
44 *151:8 *344:12 4.85382e-05
45 *154:6 *487:B 7.86349e-07
46 *229:48 *344:74 4.83654e-06
47 *343:12 *344:31 3.52932e-05
48 *343:16 *344:37 0
*RES
1 *449:Y *344:6 49.8243 
2 *344:6 *344:8 17.2 
3 *344:8 *344:10 9.01066 
4 *344:10 *344:12 40.548 
5 *344:12 *344:16 18.2696 
6 *344:16 *484:A1 17.2 
7 *344:16 *344:25 18.2696 
8 *344:25 *344:27 53.5008 
9 *344:27 *344:31 42.3368 
10 *344:31 *344:37 42.2843 
11 *344:37 *487:B 31.1054 
12 *344:10 *480:A 45.6313 
13 *344:8 *344:57 18.8895 
14 *344:57 *448:A 22.0134 
15 *344:57 *344:66 74.3407 
16 *344:66 *344:74 44.4803 
17 *344:74 *649:A1 17.2 
*END

*D_NET *345 0.000148665
*CONN
*I *569:A I *D INVx1_ASAP7_75t_R
*I *443:A I *D AND3x1_ASAP7_75t_R
*I *445:Y O *D BUFx2_ASAP7_75t_R
*CAP
1 *569:A 1.79715e-05
2 *443:A 5.52066e-06
3 *445:Y 1.43756e-05
4 *345:10 4.96725e-05
5 *345:8 4.05559e-05
6 *345:10 *347:14 0
7 *443:C *345:10 0
8 *156:52 *569:A 2.20493e-06
9 *156:56 *569:A 1.22121e-05
10 *229:8 *443:A 5.51814e-06
11 *229:8 *345:10 6.33206e-07
*RES
1 *445:Y *345:8 40.2831 
2 *345:8 *345:10 17.4581 
3 *345:10 *443:A 38.9053 
4 *345:10 *569:A 44.5617 
*END

*D_NET *346 2.65558e-05
*CONN
*I *650:A1 I *D OA21x2_ASAP7_75t_R
*I *441:Y O *D BUFx2_ASAP7_75t_R
*CAP
1 *650:A1 1.06489e-05
2 *441:Y 1.06489e-05
3 *650:A1 *364:27 5.25794e-06
4 *650:A1 *364:79 0
*RES
1 *441:Y *650:A1 39.7482 
*END

*D_NET *347 0.000109078
*CONN
*I *826:A I *D BUFx2_ASAP7_75t_R
*I *570:C I *D OR3x1_ASAP7_75t_R
*I *417:Y O *D INVx1_ASAP7_75t_R
*CAP
1 *826:A 1.79376e-05
2 *570:C 0
3 *417:Y 6.42219e-06
4 *347:14 2.21233e-05
5 *347:8 4.64831e-05
6 *347:8 *364:27 1.59615e-06
7 *417:A *347:14 3.31686e-06
8 *443:C *347:14 2.05883e-06
9 *116:15 *347:14 2.68933e-07
10 *120:15 *826:A 6.40127e-07
11 *156:52 *347:14 8.23084e-06
12 *345:10 *347:14 0
*RES
1 *417:Y *347:8 37.0741 
2 *347:8 *347:14 33.2201 
3 *347:14 *570:C 17.2 
4 *347:8 *826:A 47.3528 
*END

*D_NET *348 1.66584e-05
*CONN
*I *827:A I *D BUFx2_ASAP7_75t_R
*I *419:Y O *D INVx1_ASAP7_75t_R
*CAP
1 *827:A 8.3292e-06
2 *419:Y 8.3292e-06
*RES
1 *419:Y *827:A 39.7482 
*END

*D_NET *349 0.000648211
*CONN
*I *828:A I *D BUFx2_ASAP7_75t_R
*I *654:Y O *D XNOR2x2_ASAP7_75t_R
*CAP
1 *828:A 0
2 *654:Y 1.67732e-05
3 *349:20 0.000107301
4 *349:18 0.000115713
5 *349:12 0.000188223
6 *349:10 0.000179811
7 *349:8 1.67732e-05
8 *349:8 *365:203 0
9 *349:20 *372:6 2.29378e-05
10 *26:25 *349:18 0
11 *335:12 *349:20 6.7842e-07
*RES
1 *654:Y *349:8 46.2265 
2 *349:8 *349:10 17.2 
3 *349:10 *349:12 72.2014 
4 *349:12 *349:18 40.0317 
5 *349:18 *349:20 67.9228 
6 *349:20 *828:A 17.2 
*END

*D_NET *350 3.18576e-05
*CONN
*I *829:A I *D BUFx2_ASAP7_75t_R
*I *658:Y O *D XNOR2x2_ASAP7_75t_R
*CAP
1 *829:A 1.59288e-05
2 *658:Y 1.59288e-05
*RES
1 *658:Y *829:A 43.492 
*END

*D_NET *351 0.000638148
*CONN
*I *830:A I *D BUFx2_ASAP7_75t_R
*I *662:Y O *D XNOR2x2_ASAP7_75t_R
*CAP
1 *830:A 0
2 *662:Y 3.67465e-06
3 *351:16 3.00132e-05
4 *351:12 0.000214665
5 *351:10 0.000184652
6 *351:8 3.67465e-06
7 *351:16 *373:12 3.26944e-05
8 *18:28 *351:8 9.81516e-06
9 *34:38 *351:12 0.000158958
10 *95:10 *351:8 0
*RES
1 *662:Y *351:8 37.779 
2 *351:8 *351:10 17.2 
3 *351:10 *351:12 85.0372 
4 *351:12 *351:16 44.232 
5 *351:16 *830:A 34.4 
*END

*D_NET *352 9.81469e-05
*CONN
*I *831:A I *D BUFx2_ASAP7_75t_R
*I *665:Y O *D XNOR2x2_ASAP7_75t_R
*CAP
1 *831:A 1.67116e-05
2 *665:Y 3.23619e-05
3 *352:8 4.90735e-05
*RES
1 *665:Y *352:8 49.9099 
2 *352:8 *831:A 47.3528 
*END

*D_NET *353 4.25539e-05
*CONN
*I *832:A I *D BUFx2_ASAP7_75t_R
*I *669:Y O *D XNOR2x2_ASAP7_75t_R
*CAP
1 *832:A 2.1277e-05
2 *669:Y 2.1277e-05
*RES
1 *669:Y *832:A 47.7706 
*END

*D_NET *354 2.83193e-05
*CONN
*I *833:A I *D BUFx2_ASAP7_75t_R
*I *672:Y O *D XNOR2x2_ASAP7_75t_R
*CAP
1 *833:A 1.41596e-05
2 *672:Y 1.41596e-05
*RES
1 *672:Y *833:A 43.492 
*END

*D_NET *355 0.000255407
*CONN
*I *834:A I *D BUFx2_ASAP7_75t_R
*I *676:Y O *D AOI21x1_ASAP7_75t_R
*CAP
1 *834:A 0
2 *676:Y 9.75242e-06
3 *355:10 9.10469e-05
4 *355:8 0.000100799
5 *355:10 *357:12 8.2174e-07
6 *679:A *355:10 0
7 *679:B *355:10 9.81516e-06
8 *69:39 *355:8 0
9 *310:27 *355:10 1.16231e-05
10 *310:87 *355:10 1.98917e-05
11 *313:8 *355:10 0
12 *313:21 *355:10 0
13 *314:8 *355:10 1.16564e-05
*RES
1 *676:Y *355:8 38.1438 
2 *355:8 *355:10 72.0853 
3 *355:10 *834:A 34.4 
*END

*D_NET *356 0.000165279
*CONN
*I *835:A I *D BUFx2_ASAP7_75t_R
*I *678:Y O *D XNOR2x2_ASAP7_75t_R
*CAP
1 *835:A 0
2 *678:Y 3.13609e-05
3 *356:12 4.53799e-05
4 *356:8 7.67408e-05
5 *31:14 *356:8 3.65131e-06
6 *31:22 *356:8 8.146e-06
7 *31:26 *356:8 0
*RES
1 *678:Y *356:8 49.9099 
2 *356:8 *356:12 47.0478 
3 *356:12 *835:A 17.2 
*END

*D_NET *357 0.000111592
*CONN
*I *836:A I *D BUFx2_ASAP7_75t_R
*I *681:Y O *D XOR2x2_ASAP7_75t_R
*CAP
1 *836:A 0
2 *681:Y 1.35648e-05
3 *357:12 2.13808e-05
4 *357:8 3.49457e-05
5 *357:12 *378:8 3.9332e-05
6 *357:12 *379:14 0
7 *681:A *357:8 7.63254e-07
8 *314:8 *357:12 7.84037e-07
9 *355:10 *357:12 8.2174e-07
*RES
1 *681:Y *357:8 39.2134 
2 *357:8 *357:12 38.6003 
3 *357:12 *836:A 17.2 
*END

*D_NET *358 6.84962e-05
*CONN
*I *837:A I *D BUFx2_ASAP7_75t_R
*I *686:Y O *D AND2x2_ASAP7_75t_R
*CAP
1 *837:A 0
2 *686:Y 5.04814e-06
3 *358:12 2.72918e-05
4 *358:8 3.234e-05
5 *681:A *358:8 3.81627e-06
*RES
1 *686:Y *358:8 37.0741 
2 *358:8 *358:12 38.6003 
3 *358:12 *837:A 17.2 
*END

*D_NET *359 6.76726e-05
*CONN
*I *838:A I *D BUFx2_ASAP7_75t_R
*I *689:Y O *D XNOR2x2_ASAP7_75t_R
*CAP
1 *838:A 0
2 *689:Y 5.23854e-06
3 *359:12 2.72918e-05
4 *359:8 3.25304e-05
5 *27:46 *359:8 2.61188e-06
*RES
1 *689:Y *359:8 37.0741 
2 *359:8 *359:12 38.6003 
3 *359:12 *838:A 17.2 
*END

*D_NET *360 1.31477e-05
*CONN
*I *839:A I *D BUFx2_ASAP7_75t_R
*I *692:Y O *D XOR2x2_ASAP7_75t_R
*CAP
1 *839:A 0
2 *692:Y 6.57385e-06
3 *360:8 6.57385e-06
*RES
1 *692:Y *360:8 38.9053 
2 *360:8 *839:A 34.4 
*END

*D_NET *361 0.000348746
*CONN
*I *840:A I *D BUFx2_ASAP7_75t_R
*I *695:Y O *D XNOR2x2_ASAP7_75t_R
*CAP
1 *840:A 0
2 *695:Y 6.04112e-05
3 *361:14 7.74189e-05
4 *361:12 8.40712e-05
5 *361:6 6.70636e-05
6 *361:14 *384:6 2.02204e-06
7 *604:B *361:14 3.68287e-06
8 *79:14 *361:14 4.32896e-05
9 *247:14 *361:14 8.23084e-06
10 *258:8 *361:14 2.55563e-06
*RES
1 *695:Y *361:6 43.4064 
2 *361:6 *361:12 39.4685 
3 *361:12 *361:14 52.9477 
4 *361:14 *840:A 17.2 
*END

*D_NET *362 0.000409485
*CONN
*I *709:A I *D HAxp5_ASAP7_75t_R
*I *841:A I *D BUFx2_ASAP7_75t_R
*I *422:Y O *D INVx1_ASAP7_75t_R
*CAP
1 *709:A 1.25325e-05
2 *841:A 3.69364e-06
3 *422:Y 3.73918e-06
4 *362:10 0.000171585
5 *362:8 0.000184163
6 *709:A *363:10 0
7 *841:A *385:8 1.26378e-06
8 *362:10 *363:10 0
9 *698:B *709:A 2.12481e-06
10 *4:12 *362:10 0
11 *64:10 *362:10 0
12 *64:16 *362:10 0
13 *73:8 *709:A 4.10928e-06
14 *73:12 *709:A 7.68954e-06
15 *73:12 *362:10 1.85834e-05
*RES
1 *422:Y *362:8 36.0045 
2 *362:8 *362:10 131.218 
3 *362:10 *841:A 37.0741 
4 *362:8 *709:A 45.0151 
*END

*D_NET *363 0.000827489
*CONN
*I *842:A I *D BUFx2_ASAP7_75t_R
*I *697:Y O *D OA21x2_ASAP7_75t_R
*CAP
1 *842:A 0
2 *697:Y 1.1205e-05
3 *363:10 0.00026109
4 *363:8 0.000272295
5 *709:A *363:10 0
6 *1:33 *363:10 0
7 *4:12 *363:10 5.52807e-07
8 *11:8 *363:10 0
9 *11:50 *363:8 2.01215e-05
10 *26:18 *363:10 1.77924e-06
11 *48:10 *363:10 9.44103e-05
12 *48:14 *363:10 4.94012e-05
13 *48:32 *363:10 2.5412e-06
14 *63:16 *363:10 1.64764e-06
15 *64:10 *363:10 2.43682e-05
16 *64:16 *363:10 2.26628e-05
17 *73:42 *363:10 0
18 *73:65 *363:10 1.98937e-05
19 *76:8 *363:10 5.52807e-07
20 *177:12 *363:10 3.44699e-05
21 *229:28 *363:10 8.41163e-06
22 *229:32 *363:10 2.08703e-06
23 *274:16 *363:10 0
24 *362:10 *363:10 0
*RES
1 *697:Y *363:8 40.2831 
2 *363:8 *363:10 232.588 
3 *363:10 *842:A 34.4 
*END

*D_NET *364 0.000882994
*CONN
*I *651:A I *D NOR2x1_ASAP7_75t_R
*I *442:A I *D INVx1_ASAP7_75t_R
*I *489:A I *D OR2x2_ASAP7_75t_R
*I *574:B I *D AOI21x1_ASAP7_75t_R
*I *515:A I *D NOR2x1_ASAP7_75t_R
*I *583:A I *D NOR2x1_ASAP7_75t_R
*I *824:Y O *D BUFx2_ASAP7_75t_R
*CAP
1 *651:A 0
2 *442:A 6.70903e-06
3 *489:A 8.38294e-06
4 *574:B 0
5 *515:A 0
6 *583:A 1.927e-05
7 *824:Y 3.87704e-06
8 *364:79 3.68711e-05
9 *364:50 4.79995e-05
10 *364:48 5.43384e-05
11 *364:44 2.18552e-05
12 *364:42 4.87822e-05
13 *364:40 5.01596e-05
14 *364:31 6.15416e-05
15 *364:27 0.000130526
16 *364:14 5.31487e-05
17 *364:10 8.12119e-05
18 *364:8 3.87704e-06
19 *417:A *364:27 3.56648e-06
20 *650:A1 *364:27 5.25794e-06
21 *650:A1 *364:79 0
22 *651:B *364:79 3.05302e-06
23 *18:265 *364:31 0
24 *19:8 *364:31 0
25 *19:8 *364:42 9.97906e-07
26 *19:38 *364:44 0
27 *19:38 *364:48 0
28 *20:46 *364:79 2.52755e-07
29 *69:31 *442:A 1.07377e-06
30 *100:8 *583:A 2.68933e-07
31 *116:15 *364:79 0
32 *118:227 *364:40 1.49313e-05
33 *118:234 *364:40 2.71274e-05
34 *118:238 *364:42 5.75386e-05
35 *118:238 *364:44 3.95007e-06
36 *180:8 *364:42 5.4793e-05
37 *180:8 *364:44 9.59753e-06
38 *180:8 *364:48 7.2538e-06
39 *215:30 *364:50 6.31851e-05
40 *347:8 *364:27 1.59615e-06
*RES
1 *824:Y *364:8 37.2158 
2 *364:8 *364:10 17.2 
3 *364:10 *364:14 38.0582 
4 *364:14 *583:A 48.4791 
5 *364:10 *364:27 48.7547 
6 *364:27 *364:31 49.3005 
7 *364:31 *515:A 17.2 
8 *364:31 *364:40 27.3617 
9 *364:40 *364:42 47.3059 
10 *364:42 *364:44 7.88432 
11 *364:44 *364:48 22.8317 
12 *364:48 *364:50 44.3905 
13 *364:50 *574:B 17.2 
14 *364:44 *489:A 39.2134 
15 *364:42 *442:A 37.0741 
16 *364:27 *364:79 34.5128 
17 *364:79 *651:A 17.2 
*END

*D_NET *365 0.00263856
*CONN
*I *585:A I *D AND3x1_ASAP7_75t_R
*I *656:A I *D NAND2x1_ASAP7_75t_R
*I *659:A I *D AND2x2_ASAP7_75t_R
*I *653:A I *D AND3x1_ASAP7_75t_R
*I *618:A1 I *D AO21x1_ASAP7_75t_R
*I *677:A I *D AND3x1_ASAP7_75t_R
*I *675:A I *D AND3x1_ASAP7_75t_R
*I *674:A I *D NAND2x1_ASAP7_75t_R
*I *579:A1 I *D AOI21x1_ASAP7_75t_R
*I *580:A I *D AND3x1_ASAP7_75t_R
*I *599:A I *D AND3x1_ASAP7_75t_R
*I *605:A I *D AND3x1_ASAP7_75t_R
*I *611:A I *D AND3x1_ASAP7_75t_R
*I *448:B I *D NAND2x1_ASAP7_75t_R
*I *483:B I *D OR3x1_ASAP7_75t_R
*I *592:A I *D AND3x1_ASAP7_75t_R
*I *825:Y O *D BUFx2_ASAP7_75t_R
*CAP
1 *585:A 6.21413e-06
2 *656:A 2.62297e-06
3 *659:A 1.00992e-05
4 *653:A 2.11099e-06
5 *618:A1 0
6 *677:A 1.86044e-05
7 *675:A 2.18446e-06
8 *674:A 0
9 *579:A1 3.37925e-06
10 *580:A 0
11 *599:A 2.63732e-06
12 *605:A 0
13 *611:A 8.04329e-06
14 *448:B 8.0495e-06
15 *483:B 0
16 *592:A 0
17 *825:Y 4.7084e-05
18 *365:205 8.7936e-05
19 *365:203 0.000111555
20 *365:199 3.40152e-05
21 *365:197 3.47743e-05
22 *365:189 4.99096e-05
23 *365:187 8.17612e-05
24 *365:185 8.20781e-05
25 *365:161 2.21063e-05
26 *365:157 1.71948e-05
27 *365:149 7.80355e-05
28 *365:142 0.000126741
29 *365:140 8.72893e-05
30 *365:127 6.75555e-05
31 *365:118 9.14865e-06
32 *365:110 8.439e-05
33 *365:102 0.000108065
34 *365:100 9.05556e-05
35 *365:98 2.35044e-05
36 *365:76 8.85013e-06
37 *365:68 5.73359e-05
38 *365:43 1.76334e-05
39 *365:35 5.22938e-05
40 *365:31 7.19097e-05
41 *365:29 8.09375e-05
42 *365:27 9.8402e-05
43 *365:25 6.81205e-05
44 *365:23 6.79453e-05
45 *365:12 1.13074e-05
46 *365:6 5.08987e-05
47 *365:157 *387:23 0
48 *365:157 *390:40 4.40246e-06
49 *365:185 *390:44 3.0471e-06
50 *365:187 *390:10 0
51 *365:187 *390:36 0
52 *448:A *448:B 2.50424e-06
53 *448:A *365:35 1.23489e-06
54 *480:A *365:43 1.52651e-06
55 *579:A2 *365:127 2.75712e-05
56 *616:C *365:76 1.34329e-05
57 *618:B *365:205 6.92634e-06
58 *653:B *365:197 0
59 *653:B *365:199 1.3295e-05
60 *674:B *365:149 1.44167e-06
61 *677:B *677:A 1.60015e-05
62 *712:A *365:6 7.38232e-06
63 *37:40 *365:203 1.50299e-06
64 *72:10 *677:A 1.34888e-05
65 *74:18 *365:199 5.79724e-07
66 *80:6 *365:118 1.17077e-05
67 *118:65 *365:118 3.3448e-05
68 *122:8 *448:B 9.08513e-06
69 *122:8 *365:35 4.39365e-05
70 *122:10 *365:31 0
71 *150:12 *365:43 3.18788e-06
72 *229:18 *365:187 0
73 *229:20 *365:187 0
74 *229:20 *365:189 0
75 *229:20 *365:197 0
76 *230:28 *365:118 3.33173e-05
77 *241:9 *365:25 0
78 *247:23 *365:23 2.84286e-06
79 *247:23 *365:98 5.52807e-07
80 *248:12 *365:23 1.54305e-05
81 *268:14 *365:205 1.25483e-05
82 *270:6 *365:205 2.40293e-05
83 *291:21 *365:197 2.03526e-06
84 *291:36 *659:A 5.94108e-06
85 *291:36 *365:189 0
86 *291:36 *365:197 0
87 *291:51 *659:A 7.63254e-07
88 *291:51 *365:189 1.09067e-06
89 *295:8 *365:203 0
90 *309:21 *675:A 1.25433e-05
91 *309:21 *365:149 9.81981e-06
92 *309:36 *677:A 1.13242e-05
93 *309:36 *365:149 9.13667e-07
94 *310:8 *365:142 1.76928e-06
95 *310:8 *365:149 3.03306e-06
96 *310:10 *365:142 1.69486e-05
97 *311:8 *677:A 9.74162e-07
98 *330:6 *365:6 0
99 *330:12 *365:25 1.3295e-05
100 *330:19 *365:98 3.68565e-06
101 *330:36 *365:110 1.02506e-06
102 *330:36 *365:127 5.19552e-07
103 *331:10 *365:12 1.03816e-05
104 *331:10 *365:23 1.64764e-06
105 *331:10 *365:25 3.3563e-06
106 *332:16 *585:A 4.83862e-06
107 *332:16 *365:98 1.66587e-05
108 *334:21 *365:68 3.89037e-06
109 *334:34 *365:68 1.10242e-05
110 *335:8 *365:29 0
111 *336:10 *365:31 0
112 *336:19 *365:27 0
113 *336:19 *365:29 0
114 *336:19 *365:31 0
115 *336:29 *365:23 8.46363e-06
116 *336:29 *365:25 0.000150406
117 *336:29 *365:27 8.58704e-06
118 *336:37 *365:98 3.48165e-06
119 *336:48 *585:A 4.67544e-05
120 *336:48 *365:102 2.28976e-06
121 *336:55 *365:102 5.18164e-05
122 *336:59 *365:110 9.67723e-06
123 *336:63 *365:118 4.24019e-06
124 *336:98 *365:76 3.65131e-06
125 *336:111 *365:76 0
126 *344:6 *365:35 1.11259e-05
127 *344:10 *365:43 9.97906e-07
128 *344:66 *448:B 1.88951e-06
129 *349:8 *365:203 0
*RES
1 *825:Y *365:6 36.9885 
2 *365:6 *365:12 42.2843 
3 *365:12 *592:A 17.2 
4 *365:12 *365:23 28.9415 
5 *365:23 *365:25 50.1218 
6 *365:25 *365:27 16.3318 
7 *365:27 *365:29 18.5845 
8 *365:29 *365:31 34.3531 
9 *365:31 *365:35 40.1975 
10 *365:35 *365:43 46.733 
11 *365:43 *483:B 17.2 
12 *365:35 *448:B 23.0831 
13 *365:29 *611:A 38.6786 
14 *365:27 *365:68 36.9885 
15 *365:68 *365:76 41.5795 
16 *365:76 *605:A 17.2 
17 *365:25 *599:A 35.4697 
18 *365:23 *365:98 46.9844 
19 *365:98 *365:100 17.2 
20 *365:100 *365:102 51.878 
21 *365:102 *365:110 42.5924 
22 *365:110 *365:118 48.8723 
23 *365:118 *580:A 17.2 
24 *365:110 *365:127 44.4761 
25 *365:127 *579:A1 37.2158 
26 *365:127 *365:140 20.579 
27 *365:140 *365:142 40.6467 
28 *365:142 *674:A 17.2 
29 *365:142 *365:149 21.393 
30 *365:149 *365:157 39.6751 
31 *365:157 *365:161 17.857 
32 *365:161 *675:A 37.609 
33 *365:161 *677:A 48.8156 
34 *365:149 *365:185 25.2224 
35 *365:185 *365:187 46.7428 
36 *365:187 *365:189 10.137 
37 *365:189 *365:197 47.4342 
38 *365:197 *365:199 6.75799 
39 *365:199 *365:203 33.5318 
40 *365:203 *365:205 57.2263 
41 *365:205 *618:A1 17.2 
42 *365:199 *653:A 35.4697 
43 *365:189 *659:A 41.8876 
44 *365:187 *656:A 35.4697 
45 *365:98 *585:A 49.9949 
*END

*D_NET *368 0.000144328
*CONN
*P rst I
*I *824:A I *D BUFx2_ASAP7_75t_R
*CAP
1 rst 7.04008e-05
2 *824:A 0
3 *368:15 1.76335e-06
4 *368:9 7.21641e-05
*RES
1 rst *368:9 49.2954 
2 *368:9 *368:15 35.6202 
3 *368:15 *824:A 17.2 
*END

*D_NET *369 9.4512e-05
*CONN
*P sign I
*I *825:A I *D BUFx2_ASAP7_75t_R
*CAP
1 sign 3.21106e-05
2 *825:A 0
3 *369:9 3.21106e-05
4 *9:9 *369:9 3.02907e-05
*RES
1 sign *369:9 39.8089 
2 *369:9 *825:A 34.4 
*END

*D_NET *370 0.000119071
*CONN
*P res_valid O
*I *826:Y O *D BUFx2_ASAP7_75t_R
*CAP
1 res_valid 3.36249e-05
2 *826:Y 4.83164e-06
3 *370:14 3.59923e-05
4 *370:8 7.19895e-06
5 *120:9 res_valid 3.74229e-05
*RES
1 *826:Y *370:8 37.122 
2 *370:8 *370:14 29.5952 
3 *370:14 res_valid 24.6154 
*END

*D_NET *371 8.84459e-05
*CONN
*P result[0] O
*I *827:Y O *D BUFx2_ASAP7_75t_R
*CAP
1 result[0] 4.30359e-05
2 *827:Y 1.18706e-06
3 *371:8 4.4223e-05
*RES
1 *827:Y *371:8 35.057 
2 *371:8 result[0] 39.7637 
*END

*D_NET *372 0.000316506
*CONN
*P result[10] O
*I *828:Y O *D BUFx2_ASAP7_75t_R
*CAP
1 result[10] 5.23575e-05
2 *828:Y 0
3 *372:10 7.64761e-05
4 *372:6 8.60104e-05
5 *372:4 6.18919e-05
6 *575:A *372:10 0
7 *231:9 result[10] 0
8 *233:7 result[10] 0
9 *335:12 *372:6 1.68321e-05
10 *349:20 *372:6 2.29378e-05
*RES
1 *828:Y *372:4 17.2 
2 *372:4 *372:6 41.1815 
3 *372:6 *372:10 34.752 
4 *372:10 result[10] 41.8198 
*END

*D_NET *373 0.000312639
*CONN
*P result[11] O
*I *829:Y O *D BUFx2_ASAP7_75t_R
*CAP
1 result[11] 6.72737e-05
2 *829:Y 5.79321e-05
3 *373:12 8.20403e-05
4 *373:6 7.26987e-05
5 result[11] result[13] 0
6 result[11] result[14] 0
7 *351:16 *373:12 3.26944e-05
*RES
1 *829:Y *373:6 43.4064 
2 *373:6 *373:12 48.0098 
3 *373:12 result[11] 29.7061 
*END

*D_NET *374 0.000105864
*CONN
*P result[12] O
*I *830:Y O *D BUFx2_ASAP7_75t_R
*CAP
1 result[12] 4.90556e-05
2 *830:Y 3.87642e-06
3 *374:8 5.2932e-05
4 result[12] result[14] 0
*RES
1 *830:Y *374:8 37.6851 
2 *374:8 result[12] 43.0102 
*END

*D_NET *375 9.79618e-05
*CONN
*P result[13] O
*I *831:Y O *D BUFx2_ASAP7_75t_R
*CAP
1 result[13] 4.12325e-05
2 *831:Y 7.74836e-06
3 *375:8 4.89809e-05
4 result[11] result[13] 0
*RES
1 *831:Y *375:8 38.9992 
2 *375:8 result[13] 39.1143 
*END

*D_NET *376 0.000223656
*CONN
*P result[14] O
*I *832:Y O *D BUFx2_ASAP7_75t_R
*CAP
1 result[14] 1.95035e-05
2 *832:Y 0
3 *376:12 2.69387e-05
4 *376:6 9.23243e-05
5 *376:4 8.48891e-05
6 result[11] result[14] 0
7 result[12] result[14] 0
*RES
1 *832:Y *376:4 17.2 
2 *376:4 *376:6 46.5298 
3 *376:6 *376:12 40.1255 
4 *376:12 result[14] 10.2267 
*END

*D_NET *377 0.000113831
*CONN
*P result[15] O
*I *833:Y O *D BUFx2_ASAP7_75t_R
*CAP
1 result[15] 5.26675e-05
2 *833:Y 4.24807e-06
3 *377:8 5.69155e-05
*RES
1 *833:Y *377:8 37.4974 
2 *377:8 result[15] 44.9582 
*END

*D_NET *378 0.000167509
*CONN
*P result[1] O
*I *834:Y O *D BUFx2_ASAP7_75t_R
*CAP
1 result[1] 1.55769e-05
2 *834:Y 0
3 *378:8 5.10541e-05
4 *378:6 3.54772e-05
5 result[1] result[3] 2.60686e-05
6 result[1] result[4] 0
7 *378:8 *379:14 0
8 *378:8 *380:8 0
9 *357:12 *378:8 3.9332e-05
*RES
1 *834:Y *378:6 34.4 
2 *378:6 *378:8 35.1979 
3 *378:8 result[1] 39.7319 
*END

*D_NET *379 0.000168242
*CONN
*P result[2] O
*I *835:Y O *D BUFx2_ASAP7_75t_R
*CAP
1 result[2] 1.39274e-05
2 *835:Y 2.86509e-05
3 *379:14 4.74768e-05
4 *379:8 6.22003e-05
5 result[2] result[3] 1.53468e-05
6 *379:14 *380:8 6.40127e-07
7 *357:12 *379:14 0
8 *378:8 *379:14 0
*RES
1 *835:Y *379:8 44.5617 
2 *379:8 *379:14 44.6538 
3 *379:14 result[2] 21.8285 
*END

*D_NET *380 0.000112814
*CONN
*P result[3] O
*I *836:Y O *D BUFx2_ASAP7_75t_R
*CAP
1 result[3] 2.9354e-05
2 *836:Y 8.89593e-07
3 *380:14 3.44895e-05
4 *380:8 6.02507e-06
5 result[3] result[4] 0
6 result[1] result[3] 2.60686e-05
7 result[2] result[3] 1.53468e-05
8 *378:8 *380:8 0
9 *379:14 *380:8 6.40127e-07
*RES
1 *836:Y *380:8 35.2447 
2 *380:8 *380:14 30.6774 
3 *380:14 result[3] 20.9687 
*END

*D_NET *381 8.41022e-05
*CONN
*P result[4] O
*I *837:Y O *D BUFx2_ASAP7_75t_R
*CAP
1 result[4] 3.81969e-05
2 *837:Y 1.52622e-06
3 *381:14 4.05249e-05
4 *381:8 3.85418e-06
5 result[1] result[4] 0
6 result[3] result[4] 0
*RES
1 *837:Y *381:8 35.2447 
2 *381:8 *381:14 29.5952 
3 *381:14 result[4] 20.9687 
*END

*D_NET *382 0.000100234
*CONN
*P result[5] O
*I *838:Y O *D BUFx2_ASAP7_75t_R
*CAP
1 result[5] 3.81969e-05
2 *838:Y 1.52622e-06
3 *382:14 4.85906e-05
4 *382:8 1.19199e-05
5 result[5] result[6] 0
*RES
1 *838:Y *382:8 35.2447 
2 *382:8 *382:14 33.5993 
3 *382:14 result[5] 20.9687 
*END

*D_NET *383 0.000124948
*CONN
*P result[6] O
*I *839:Y O *D BUFx2_ASAP7_75t_R
*CAP
1 result[6] 2.08892e-05
2 *839:Y 0
3 *383:8 6.24741e-05
4 *383:6 4.15849e-05
5 result[5] result[6] 0
*RES
1 *839:Y *383:6 34.4 
2 *383:6 *383:8 36.3242 
3 *383:8 result[6] 39.7319 
*END

*D_NET *384 0.000248973
*CONN
*P result[7] O
*I *840:Y O *D BUFx2_ASAP7_75t_R
*CAP
1 result[7] 2.81327e-05
2 *840:Y 6.63048e-05
3 *384:12 4.34856e-05
4 *384:6 8.16577e-05
5 *241:9 result[7] 2.73697e-05
6 *361:14 *384:6 2.02204e-06
*RES
1 *840:Y *384:6 46.6154 
2 *384:6 *384:12 44.6308 
3 *384:12 result[7] 18.776 
*END

*D_NET *385 0.000120452
*CONN
*P result[8] O
*I *841:Y O *D BUFx2_ASAP7_75t_R
*CAP
1 result[8] 1.84737e-05
2 *841:Y 1.27103e-05
3 *385:16 4.68837e-05
4 *385:8 4.11203e-05
5 result[8] result[9] 0
6 *841:A *385:8 1.26378e-06
*RES
1 *841:Y *385:8 40.2831 
2 *385:8 *385:16 49.7599 
3 *385:16 result[8] 10.1805 
*END

*D_NET *386 0.00011029
*CONN
*P result[9] O
*I *842:Y O *D BUFx2_ASAP7_75t_R
*CAP
1 result[9] 2.03697e-05
2 *842:Y 0
3 *386:12 5.5145e-05
4 *386:6 3.47754e-05
5 result[8] result[9] 0
*RES
1 *842:Y *386:6 34.4 
2 *386:6 *386:12 41.0033 
3 *386:12 result[9] 22.8921 
*END

*D_NET *387 0.00112853
*CONN
*I *845:A I *D BUFx4_ASAP7_75t_R
*I *844:A I *D BUFx4_ASAP7_75t_R
*I *847:A I *D BUFx4_ASAP7_75t_R
*I *846:A I *D BUFx4_ASAP7_75t_R
*I *843:Y O *D BUFx4_ASAP7_75t_R
*CAP
1 *845:A 0
2 *844:A 0
3 *847:A 0
4 *846:A 0
5 *843:Y 0
6 *387:91 1.14897e-05
7 *387:73 1.2978e-06
8 *387:69 0.000124587
9 *387:67 0.000129095
10 *387:63 0.00013573
11 *387:61 0.000118435
12 *387:47 1.84141e-06
13 *387:43 9.23598e-05
14 *387:41 9.76569e-05
15 *387:27 9.29591e-07
16 *387:23 7.60156e-05
17 *387:19 0.000194286
18 *387:17 0.000118741
19 *387:13 9.5711e-06
20 *387:6 2.89158e-06
21 *387:27 *390:36 4.97876e-07
22 *387:47 *391:18 1.71333e-06
23 *387:73 *388:10 1.68037e-06
24 *49:6 *387:91 6.98043e-07
25 *156:158 *387:13 3.77861e-06
26 *326:10 *387:17 5.23126e-06
27 *365:157 *387:23 0
*RES
1 *843:Y *387:6 34.4 
2 *387:6 *387:13 20.1097 
3 *387:13 *387:17 14.2349 
4 *387:17 *387:19 56.0685 
5 *387:19 *387:23 38.2595 
6 *387:23 *387:27 17.857 
7 *387:27 *846:A 34.4 
8 *387:19 *387:41 14.9909 
9 *387:41 *387:43 35.4417 
10 *387:43 *387:47 18.4202 
11 *387:47 *847:A 34.4 
12 *387:13 *387:61 11.8 
13 *387:61 *387:63 52.4218 
14 *387:63 *387:67 14.0792 
15 *387:67 *387:69 55.2458 
16 *387:69 *387:73 18.2325 
17 *387:73 *844:A 34.4 
18 *387:63 *387:91 33.0659 
19 *387:91 *845:A 34.4 
*END

*D_NET *388 0.00148746
*CONN
*I *719:CLK I *D DFFHQNx1_ASAP7_75t_R
*I *414:CLK I *D DFFHQNx1_ASAP7_75t_R
*I *392:CLK I *D DFFHQNx1_ASAP7_75t_R
*I *393:CLK I *D DFFHQNx1_ASAP7_75t_R
*I *848:A I *D BUFx12_ASAP7_75t_R
*I *399:CLK I *D DFFHQNx1_ASAP7_75t_R
*I *400:CLK I *D DFFHQNx1_ASAP7_75t_R
*I *397:CLK I *D DFFHQNx1_ASAP7_75t_R
*I *396:CLK I *D DFFHQNx1_ASAP7_75t_R
*I *844:Y O *D BUFx4_ASAP7_75t_R
*CAP
1 *719:CLK 6.78595e-06
2 *414:CLK 2.44021e-05
3 *392:CLK 4.50492e-06
4 *393:CLK 3.9944e-06
5 *848:A 6.62264e-06
6 *399:CLK 0
7 *400:CLK 0
8 *397:CLK 2.5891e-05
9 *396:CLK 0
10 *844:Y 7.04746e-06
11 *388:94 6.71696e-05
12 *388:92 8.70668e-05
13 *388:90 0.000123576
14 *388:88 0.000123576
15 *388:86 6.91304e-05
16 *388:75 8.96715e-05
17 *388:64 4.21351e-05
18 *388:57 4.70106e-06
19 *388:51 8.54267e-05
20 *388:49 8.07257e-05
21 *388:28 4.69748e-05
22 *388:22 7.28658e-05
23 *388:20 6.61805e-05
24 *388:18 6.61805e-05
25 *388:16 7.39817e-06
26 *388:12 5.42934e-05
27 *388:10 7.90168e-05
28 *388:8 5.13487e-05
29 *393:D *393:CLK 1.78333e-06
30 *485:A2 *388:51 5.41446e-06
31 *488:A1 *388:12 8.33296e-06
32 *649:A2 *388:90 2.90269e-07
33 *649:C *388:86 9.62348e-06
34 *1:23 *388:75 0
35 *1:23 *388:86 0
36 *2:23 *393:CLK 1.60115e-05
37 *3:22 *388:51 1.27255e-05
38 *3:28 *388:10 0
39 *5:12 *397:CLK 1.4806e-05
40 *5:12 *388:28 4.61825e-05
41 *8:6 *388:51 0
42 *90:10 *388:51 3.68287e-06
43 *91:8 *388:12 1.30409e-05
44 *91:8 *388:20 1.88253e-06
45 *105:10 *414:CLK 2.98814e-07
46 *113:10 *719:CLK 2.98814e-07
47 *117:54 *388:94 0
48 *117:65 *388:94 0
49 *117:110 *388:86 2.11564e-06
50 *118:117 *388:86 0
51 *119:14 *388:57 1.33022e-05
52 *125:166 *388:51 8.1022e-06
53 *125:172 *388:10 0
54 *125:172 *388:12 0
55 *130:12 *388:10 2.19685e-06
56 *142:12 *397:CLK 3.28582e-06
57 *146:12 *388:20 0
58 *154:12 *388:12 0
59 *267:8 *414:CLK 0
60 *344:74 *388:86 2.57129e-05
61 *387:73 *388:10 1.68037e-06
*RES
1 *844:Y *388:8 37.0741 
2 *388:8 *388:10 25.9056 
3 *388:10 *388:12 35.4795 
4 *388:12 *388:16 20.9438 
5 *388:16 *388:18 17.2 
6 *388:18 *388:20 51.2481 
7 *388:20 *388:22 17.2 
8 *388:22 *388:28 49.0381 
9 *388:28 *396:CLK 34.4 
10 *388:22 *397:CLK 33.7796 
11 *388:16 *400:CLK 17.2 
12 *388:10 *388:49 17.2 
13 *388:49 *388:51 39.0422 
14 *388:51 *388:57 38.9053 
15 *388:57 *399:CLK 17.2 
16 *388:8 *388:64 9.01066 
17 *388:64 *848:A 37.0741 
18 *388:64 *388:75 16.3318 
19 *388:75 *393:CLK 39.2134 
20 *388:75 *388:86 52.3744 
21 *388:86 *388:88 17.2 
22 *388:88 *388:90 43.3208 
23 *388:90 *388:92 17.2 
24 *388:92 *388:94 47.3059 
25 *388:94 *392:CLK 37.0741 
26 *388:92 *414:CLK 49.6585 
27 *388:86 *719:CLK 38.9053 
*END

*D_NET *389 0.00191861
*CONN
*I *406:CLK I *D DFFHQNx1_ASAP7_75t_R
*I *407:CLK I *D DFFHQNx1_ASAP7_75t_R
*I *849:A I *D BUFx24_ASAP7_75t_R
*I *398:CLK I *D DFFHQNx1_ASAP7_75t_R
*I *395:CLK I *D DFFHQNx1_ASAP7_75t_R
*I *415:CLK I *D DFFHQNx1_ASAP7_75t_R
*I *394:CLK I *D DFFHQNx1_ASAP7_75t_R
*I *845:Y O *D BUFx4_ASAP7_75t_R
*CAP
1 *406:CLK 0
2 *407:CLK 0
3 *849:A 8.39155e-06
4 *398:CLK 0
5 *395:CLK 0
6 *415:CLK 0
7 *394:CLK 0
8 *845:Y 3.75005e-06
9 *389:98 4.16811e-05
10 *389:96 4.16811e-05
11 *389:94 4.06296e-05
12 *389:85 1.42977e-05
13 *389:81 5.68755e-05
14 *389:77 0.000255654
15 *389:68 0.000262097
16 *389:59 5.16367e-05
17 *389:57 7.8474e-05
18 *389:48 2.68373e-05
19 *389:46 5.26171e-05
20 *389:44 5.26171e-05
21 *389:35 8.07896e-05
22 *389:33 8.07896e-05
23 *389:26 2.88621e-05
24 *389:22 5.45355e-05
25 *389:16 3.066e-05
26 *389:14 0.000117539
27 *389:12 0.000114684
28 *389:8 5.88165e-06
29 *394:D *389:26 8.39579e-06
30 *395:D *389:57 9.44869e-06
31 *500:A *389:77 0
32 *555:A2 *389:77 4.93388e-05
33 *568:B *389:77 2.52755e-06
34 *568:B *389:94 2.90209e-08
35 *568:C *389:94 5.08828e-06
36 *3:20 *389:46 3.47607e-06
37 *33:10 *389:98 1.64764e-06
38 *38:42 *389:81 3.22574e-06
39 *38:42 *389:85 4.90164e-05
40 *49:6 *389:8 8.20229e-06
41 *49:6 *389:12 4.83862e-06
42 *125:144 *389:46 0
43 *134:18 *389:46 0
44 *155:33 *389:98 6.32327e-05
45 *166:22 *389:77 0
46 *182:8 *389:14 6.06612e-06
47 *188:59 *389:77 1.59615e-06
48 *188:63 *389:77 7.7603e-05
49 *211:33 *389:85 4.61668e-06
50 *215:8 *389:77 3.89037e-06
51 *215:41 *389:77 6.31914e-05
52 *227:10 *389:94 3.78646e-05
53 *308:10 *389:98 1.43282e-05
*RES
1 *845:Y *389:8 37.779 
2 *389:8 *389:12 18.8895 
3 *389:12 *389:14 64.7138 
4 *389:14 *389:16 2.67412 
5 *389:16 *389:22 35.416 
6 *389:22 *389:26 38.0582 
7 *389:26 *394:CLK 17.2 
8 *389:16 *389:33 17.2 
9 *389:33 *389:35 63.6378 
10 *389:35 *415:CLK 34.4 
11 *389:14 *389:44 17.2 
12 *389:44 *389:46 45.0533 
13 *389:46 *389:48 17.2 
14 *389:48 *395:CLK 17.2 
15 *389:48 *389:57 32.7099 
16 *389:57 *389:59 40.548 
17 *389:59 *398:CLK 34.4 
18 *389:8 *389:68 17.2 
19 *389:68 *849:A 22.0134 
20 *389:68 *389:77 117.127 
21 *389:77 *389:81 18.8895 
22 *389:81 *389:85 33.5318 
23 *389:85 *407:CLK 17.2 
24 *389:81 *389:94 44.4761 
25 *389:94 *389:96 17.2 
26 *389:96 *389:98 47.8691 
27 *389:98 *406:CLK 34.4 
*END

*D_NET *390 0.00223586
*CONN
*I *850:A I *D BUFx12_ASAP7_75t_R
*I *409:CLK I *D DFFHQNx1_ASAP7_75t_R
*I *412:CLK I *D DFFHQNx1_ASAP7_75t_R
*I *411:CLK I *D DFFHQNx1_ASAP7_75t_R
*I *410:CLK I *D DFFHQNx1_ASAP7_75t_R
*I *416:CLK I *D DFFHQNx1_ASAP7_75t_R
*I *408:CLK I *D DFFHQNx1_ASAP7_75t_R
*I *718:CLK I *D DFFHQNx1_ASAP7_75t_R
*I *413:CLK I *D DFFHQNx1_ASAP7_75t_R
*I *846:Y O *D BUFx4_ASAP7_75t_R
*CAP
1 *850:A 0
2 *409:CLK 0
3 *412:CLK 0
4 *411:CLK 0
5 *410:CLK 0
6 *416:CLK 5.01913e-06
7 *408:CLK 0
8 *718:CLK 0
9 *413:CLK 0
10 *846:Y 0
11 *390:125 3.79016e-05
12 *390:123 8.82945e-05
13 *390:107 3.32083e-05
14 *390:101 3.32083e-05
15 *390:99 3.51451e-05
16 *390:93 4.27145e-05
17 *390:87 0.000100007
18 *390:85 0.00013158
19 *390:74 4.58432e-05
20 *390:70 0.000199058
21 *390:68 0.000242749
22 *390:66 4.96691e-05
23 *390:55 7.24484e-05
24 *390:53 8.24662e-05
25 *390:44 6.5468e-05
26 *390:40 0.000110566
27 *390:36 4.14077e-05
28 *390:20 5.48745e-06
29 *390:14 5.58157e-05
30 *390:12 0.000132188
31 *390:10 0.000121125
32 *390:6 7.02077e-05
33 *613:A2 *390:14 5.62196e-06
34 *645:A *390:12 7.31751e-06
35 *22:10 *390:12 1.60115e-05
36 *26:33 *390:20 5.97901e-06
37 *26:46 *390:20 3.79923e-06
38 *27:42 *390:85 0
39 *31:100 *390:125 9.62907e-05
40 *70:6 *390:53 4.28396e-05
41 *70:12 *390:44 1.73158e-06
42 *70:12 *390:53 1.23408e-05
43 *99:12 *390:53 4.07216e-06
44 *101:10 *390:70 1.47272e-05
45 *101:10 *390:74 2.45021e-07
46 *103:10 *390:93 0
47 *103:10 *390:99 2.1664e-06
48 *117:28 *390:70 0
49 *117:28 *390:123 0
50 *117:141 *390:12 8.87763e-06
51 *117:141 *390:14 0.000102591
52 *117:170 *390:87 1.41964e-05
53 *229:75 *390:36 3.13426e-06
54 *230:34 *390:14 6.7842e-07
55 *230:34 *390:20 8.33296e-06
56 *230:89 *390:55 0
57 *232:12 *390:55 8.58704e-06
58 *239:18 *390:55 0
59 *245:8 *390:74 7.35063e-07
60 *245:8 *390:85 2.04652e-06
61 *261:20 *390:20 6.76305e-06
62 *309:36 *390:44 9.08513e-06
63 *309:44 *390:66 5.52652e-06
64 *310:41 *390:85 0
65 *310:47 *390:85 2.05045e-06
66 *311:8 *390:40 1.17344e-05
67 *311:8 *390:66 2.82174e-05
68 *312:10 *390:66 0
69 *319:8 *390:85 0
70 *319:23 *390:85 0
71 *320:8 *390:85 6.33206e-07
72 *365:157 *390:40 4.40246e-06
73 *365:185 *390:44 3.0471e-06
74 *365:187 *390:10 0
75 *365:187 *390:36 0
76 *387:27 *390:36 4.97876e-07
*RES
1 *846:Y *390:6 34.4 
2 *390:6 *390:10 47.0478 
3 *390:10 *390:12 47.5994 
4 *390:12 *390:14 41.1815 
5 *390:14 *390:20 42.2843 
6 *390:20 *413:CLK 17.2 
7 *390:12 *718:CLK 17.2 
8 *390:6 *390:36 35.5861 
9 *390:36 *390:40 25.0843 
10 *390:40 *390:44 47.685 
11 *390:44 *408:CLK 17.2 
12 *390:44 *390:53 33.7796 
13 *390:53 *390:55 51.2481 
14 *390:55 *416:CLK 37.0741 
15 *390:40 *390:66 35.4795 
16 *390:66 *390:68 17.2 
17 *390:68 *390:70 74.3407 
18 *390:70 *390:74 21.7053 
19 *390:74 *410:CLK 34.4 
20 *390:74 *390:85 47.611 
21 *390:85 *390:87 42.2512 
22 *390:87 *390:93 38.9053 
23 *390:93 *390:99 39.5246 
24 *390:99 *390:101 17.2 
25 *390:101 *390:107 34.0063 
26 *390:107 *411:CLK 34.4 
27 *390:101 *412:CLK 17.2 
28 *390:68 *390:123 36.9885 
29 *390:123 *390:125 38.2953 
30 *390:125 *409:CLK 34.4 
31 *390:36 *850:A 17.2 
*END

*D_NET *391 0.00222966
*CONN
*I *715:CLK I *D DFFHQNx1_ASAP7_75t_R
*I *720:CLK I *D DFFHQNx1_ASAP7_75t_R
*I *714:CLK I *D DFFHQNx1_ASAP7_75t_R
*I *721:CLK I *D DFFHQNx1_ASAP7_75t_R
*I *716:CLK I *D DFFHQNx1_ASAP7_75t_R
*I *401:CLK I *D DFFHQNx1_ASAP7_75t_R
*I *717:CLK I *D DFFHQNx1_ASAP7_75t_R
*I *402:CLK I *D DFFHQNx1_ASAP7_75t_R
*I *404:CLK I *D DFFHQNx1_ASAP7_75t_R
*I *405:CLK I *D DFFHQNx1_ASAP7_75t_R
*I *403:CLK I *D DFFHQNx1_ASAP7_75t_R
*I *847:Y O *D BUFx4_ASAP7_75t_R
*CAP
1 *715:CLK 0
2 *720:CLK 2.98873e-06
3 *714:CLK 4.47781e-06
4 *721:CLK 0
5 *716:CLK 9.10817e-06
6 *401:CLK 5.44892e-06
7 *717:CLK 0
8 *402:CLK 1.07751e-05
9 *404:CLK 0
10 *405:CLK 0
11 *403:CLK 1.21294e-05
12 *847:Y 3.72804e-06
13 *391:168 0.000133844
14 *391:159 0.000179212
15 *391:146 7.17663e-05
16 *391:139 3.29721e-05
17 *391:131 0.000111223
18 *391:129 7.82508e-05
19 *391:127 8.55051e-05
20 *391:116 5.36094e-05
21 *391:105 4.99501e-05
22 *391:103 0.000109078
23 *391:101 0.000128134
24 *391:88 2.70208e-05
25 *391:84 5.1191e-05
26 *391:78 5.07111e-05
27 *391:56 3.44343e-05
28 *391:54 3.44343e-05
29 *391:45 7.60668e-05
30 *391:43 7.91623e-05
31 *391:39 0.000121699
32 *391:37 0.00013158
33 *391:33 3.32649e-05
34 *391:22 3.07753e-05
35 *391:18 3.60219e-05
36 *391:12 4.00653e-05
37 *391:8 7.00161e-05
38 *402:D *402:CLK 5.0551e-07
39 *403:D *403:CLK 3.73144e-06
40 *403:D *391:22 8.99409e-06
41 *404:D *391:56 7.72307e-07
42 *418:A *391:168 2.66797e-07
43 *714:D *714:CLK 1.60115e-05
44 *716:D *716:CLK 0
45 *720:D *720:CLK 8.87763e-06
46 *720:D *391:168 9.08513e-06
47 *721:D *391:139 0
48 *18:26 *391:84 0
49 *19:32 *391:127 0
50 *19:38 *391:12 0
51 *19:38 *391:18 2.14047e-05
52 *19:38 *391:33 0
53 *19:38 *391:127 0
54 *24:33 *391:168 2.5838e-05
55 *34:44 *391:45 0
56 *35:10 *391:56 2.82698e-06
57 *36:53 *391:45 0
58 *37:80 *391:45 2.64666e-05
59 *93:10 *391:37 3.54456e-05
60 *94:8 *391:37 0
61 *111:10 *391:101 2.22736e-06
62 *117:214 *391:127 3.01597e-06
63 *117:214 *391:146 4.7909e-06
64 *117:214 *391:159 5.37866e-07
65 *118:12 *391:139 5.63702e-07
66 *155:14 *391:101 2.88806e-06
67 *155:18 *391:45 0
68 *156:101 *391:101 0
69 *156:195 *391:101 2.01266e-05
70 *180:8 *391:18 0
71 *180:8 *391:33 2.22736e-06
72 *180:8 *391:37 1.15945e-05
73 *188:70 *391:84 3.47607e-06
74 *188:82 *391:131 6.53432e-05
75 *215:26 *391:78 4.83862e-06
76 *215:30 *391:8 1.04475e-06
77 *215:30 *391:18 3.0511e-05
78 *215:30 *391:78 1.2768e-05
79 *215:30 *391:84 2.03526e-06
80 *282:14 *391:159 0
81 *328:10 *391:168 1.08825e-06
82 *387:47 *391:18 1.71333e-06
*RES
1 *847:Y *391:8 36.0045 
2 *391:8 *391:12 22.2685 
3 *391:12 *391:18 42.6238 
4 *391:18 *391:22 25.2224 
5 *391:22 *403:CLK 25.2224 
6 *391:22 *391:33 23.958 
7 *391:33 *391:37 33.5318 
8 *391:37 *391:39 58.2959 
9 *391:39 *391:43 18.8895 
10 *391:43 *391:45 58.5693 
11 *391:45 *405:CLK 34.4 
12 *391:43 *391:54 17.2 
13 *391:54 *391:56 33.694 
14 *391:56 *404:CLK 17.2 
15 *391:33 *402:CLK 40.2831 
16 *391:12 *391:78 42.0859 
17 *391:78 *391:84 43.0133 
18 *391:84 *391:88 21.4786 
19 *391:88 *717:CLK 17.2 
20 *391:88 *391:101 49.7152 
21 *391:101 *391:103 49.7387 
22 *391:103 *391:105 17.2 
23 *391:105 *401:CLK 37.779 
24 *391:105 *391:116 34.3531 
25 *391:116 *716:CLK 38.1438 
26 *391:8 *391:127 45.6164 
27 *391:127 *391:129 17.2 
28 *391:129 *391:131 39.0422 
29 *391:131 *391:139 47.9407 
30 *391:139 *721:CLK 17.2 
31 *391:127 *391:146 18.5845 
32 *391:146 *714:CLK 39.2134 
33 *391:146 *391:159 46.4846 
34 *391:159 *720:CLK 19.8741 
35 *391:159 *391:168 79.6889 
36 *391:168 *715:CLK 17.2 
*END
