*SPEF "ieee 1481-1999"
*DESIGN "gcd"
*DATE "17:16:29 Monday January 12, 2026"
*VENDOR "The OpenROAD Project"
*PROGRAM "OpenROAD"
*VERSION "v2.0-24458-g96512a37e9"
*DESIGN_FLOW "NAME_SCOPE LOCAL" "PIN_CAP NONE"
*DIVIDER /
*DELIMITER :
*BUS_DELIMITER []
*T_UNIT 1 NS
*C_UNIT 1 PF
*R_UNIT 1 OHM
*L_UNIT 1 HENRY

*NAME_MAP
*1 _000_
*2 _001_
*3 _002_
*4 _003_
*5 _004_
*6 _005_
*7 _006_
*8 _007_
*9 _008_
*10 _009_
*11 _010_
*12 _011_
*13 _012_
*14 _013_
*15 _014_
*16 _015_
*17 _016_
*18 _017_
*19 _018_
*20 _019_
*21 _020_
*22 _021_
*23 _022_
*24 _023_
*25 _024_
*26 _025_
*27 _026_
*28 _027_
*29 _028_
*30 _029_
*31 _030_
*32 _031_
*33 _032_
*34 _033_
*35 _034_
*36 _035_
*37 _036_
*38 _037_
*39 _038_
*40 _039_
*41 _040_
*42 _041_
*43 _042_
*44 _043_
*45 _044_
*46 _045_
*47 _046_
*48 _047_
*49 _048_
*50 _049_
*51 _050_
*52 _051_
*53 _052_
*54 _053_
*55 _054_
*56 _055_
*57 _056_
*58 _057_
*59 _058_
*60 _059_
*61 _060_
*62 _061_
*63 _062_
*64 _063_
*65 _064_
*66 _065_
*67 _066_
*68 _067_
*69 _068_
*70 _069_
*71 _070_
*72 _071_
*73 _072_
*74 _073_
*75 _074_
*76 _075_
*77 _076_
*78 _077_
*79 _078_
*80 _079_
*81 _080_
*82 _081_
*83 _082_
*84 _083_
*85 _084_
*86 _085_
*87 _086_
*88 _087_
*89 _088_
*90 _089_
*91 _090_
*92 _091_
*93 _092_
*94 _093_
*95 _094_
*96 _095_
*97 _096_
*98 _097_
*99 _098_
*100 _099_
*101 _100_
*102 _101_
*103 _102_
*104 net15
*105 net14
*106 _105_
*107 net13
*108 _107_
*109 _108_
*110 _109_
*111 _110_
*112 _111_
*113 _112_
*114 _113_
*115 net12
*116 _115_
*117 _116_
*118 _117_
*119 net11
*120 net10
*121 _120_
*122 _121_
*123 _122_
*124 _123_
*125 _124_
*126 _125_
*127 _126_
*128 _127_
*129 net9
*130 _129_
*131 _130_
*132 _131_
*133 _132_
*134 _133_
*135 _134_
*136 _135_
*137 _136_
*138 _137_
*139 _138_
*140 _139_
*141 _140_
*142 _141_
*143 net8
*144 _143_
*145 _144_
*146 _145_
*147 _146_
*148 _147_
*149 _148_
*150 net7
*151 _150_
*152 _151_
*153 _152_
*154 _153_
*155 _154_
*156 _155_
*157 _156_
*158 _157_
*159 _158_
*160 _159_
*161 _160_
*162 _161_
*163 _162_
*164 _163_
*165 _164_
*166 _165_
*167 _166_
*168 _167_
*169 _168_
*170 _169_
*171 _170_
*172 _171_
*173 _172_
*174 _173_
*175 _174_
*176 _175_
*177 _176_
*178 _177_
*179 _178_
*180 _179_
*181 _180_
*182 _181_
*183 _182_
*184 _183_
*185 _184_
*186 _185_
*187 _186_
*188 _187_
*189 _188_
*190 _189_
*191 _190_
*192 _191_
*193 _192_
*194 _193_
*195 _194_
*196 _195_
*197 _196_
*198 _197_
*199 _198_
*200 _199_
*201 _200_
*202 _201_
*203 _202_
*204 _203_
*205 _204_
*206 _205_
*207 _206_
*208 _207_
*209 _208_
*210 _209_
*211 net6
*212 _211_
*213 _212_
*214 net5
*215 net4
*216 _215_
*217 _216_
*218 _217_
*219 _218_
*220 _219_
*221 _220_
*222 _221_
*223 _222_
*224 _223_
*225 _224_
*226 _225_
*227 _226_
*228 _227_
*229 _228_
*230 _229_
*231 _230_
*232 _231_
*233 _232_
*234 _233_
*235 _234_
*236 _235_
*237 _236_
*238 _237_
*239 _238_
*240 _239_
*241 _240_
*242 _241_
*243 _242_
*244 _243_
*245 _244_
*246 _245_
*247 _246_
*248 _247_
*249 _248_
*250 _249_
*251 _250_
*252 _251_
*253 _252_
*254 _253_
*255 _254_
*256 _255_
*257 _256_
*258 _257_
*259 _258_
*260 _259_
*261 _260_
*262 _261_
*263 _262_
*264 _263_
*265 _264_
*266 _265_
*267 _266_
*268 _267_
*269 _268_
*270 _269_
*271 _270_
*272 _271_
*273 _272_
*274 _273_
*275 net3
*276 _275_
*277 net2
*278 _277_
*279 _278_
*280 net1
*281 _280_
*282 _281_
*283 _282_
*284 _283_
*285 _284_
*286 clk
*287 dpath\.a_lt_b\$in0\[10\]
*288 dpath\.a_lt_b\$in0\[11\]
*289 dpath\.a_lt_b\$in0\[12\]
*290 dpath\.a_lt_b\$in0\[13\]
*291 dpath\.a_lt_b\$in0\[14\]
*292 dpath\.a_lt_b\$in0\[15\]
*293 dpath\.a_lt_b\$in0\[1\]
*294 dpath\.a_lt_b\$in0\[2\]
*295 dpath\.a_lt_b\$in0\[3\]
*296 dpath\.a_lt_b\$in0\[4\]
*297 dpath\.a_lt_b\$in0\[5\]
*298 dpath\.a_lt_b\$in0\[6\]
*299 dpath\.a_lt_b\$in0\[7\]
*300 dpath\.a_lt_b\$in0\[8\]
*301 dpath\.a_lt_b\$in0\[9\]
*302 dpath\.a_lt_b\$in1\[0\]
*303 dpath\.a_lt_b\$in1\[1\]
*304 req_msg[0]
*305 req_msg[10]
*306 req_msg[11]
*307 req_msg[12]
*308 req_msg[13]
*309 req_msg[14]
*310 req_msg[15]
*311 req_msg[16]
*312 req_msg[17]
*313 req_msg[18]
*314 req_msg[19]
*315 req_msg[1]
*316 req_msg[20]
*317 req_msg[21]
*318 req_msg[22]
*319 req_msg[23]
*320 req_msg[24]
*321 req_msg[25]
*322 req_msg[26]
*323 req_msg[27]
*324 req_msg[28]
*325 req_msg[29]
*326 req_msg[2]
*327 req_msg[30]
*328 req_msg[31]
*329 req_msg[3]
*330 req_msg[4]
*331 req_msg[5]
*332 req_msg[6]
*333 req_msg[7]
*334 req_msg[8]
*335 req_msg[9]
*336 net36
*337 req_val
*338 reset
*339 net37
*340 net38
*341 net39
*342 net40
*343 net41
*344 net42
*345 net43
*346 net44
*347 net45
*348 net46
*349 net47
*350 net48
*351 net49
*352 net50
*353 net51
*354 net52
*355 resp_rdy
*356 net53
*359 net16
*360 net17
*361 net18
*362 net19
*363 net20
*364 net21
*365 net22
*366 net23
*367 net24
*368 net25
*369 net26
*370 net27
*371 net28
*372 net29
*373 net30
*374 net31
*375 net32
*376 net33
*377 net34
*378 net35
*379 req_rdy
*380 resp_msg[0]
*381 resp_msg[10]
*382 resp_msg[11]
*383 resp_msg[12]
*384 resp_msg[13]
*385 resp_msg[14]
*386 resp_msg[15]
*387 resp_msg[1]
*388 resp_msg[2]
*389 resp_msg[3]
*390 resp_msg[4]
*391 resp_msg[5]
*392 resp_msg[6]
*393 resp_msg[7]
*394 resp_msg[8]
*395 resp_msg[9]
*396 resp_val
*397 net140
*398 net143
*399 net144
*400 net312
*401 net145
*402 net146
*403 net311
*404 net155
*405 net147
*406 net150
*407 net148
*408 net149
*409 net152
*410 net151
*411 net154
*412 net153
*413 net156
*414 net157
*415 net158
*416 net159
*417 net160
*418 net161
*419 net163
*420 net162
*421 net304
*422 net301
*423 net164
*424 net165
*425 net167
*426 net166
*427 net219
*428 net168
*429 net170
*430 net169
*431 net171
*432 net172
*433 net214
*434 net173
*435 net213
*436 net211
*437 net212
*438 net210
*439 net209
*440 net174
*441 net175
*442 net176
*443 net177
*444 net208
*445 net207
*446 net206
*447 net178
*448 net179
*449 net180
*450 net181
*451 net182
*452 net183
*453 net184
*454 net185
*455 net205
*456 clknet_2_3__leaf_clk
*457 net186
*458 clknet_2_2__leaf_clk
*459 clknet_2_1__leaf_clk
*460 net193
*461 net187
*462 net188
*463 net189
*464 net190
*465 net191
*466 net192
*467 net194
*468 net195
*469 net197
*470 net196
*471 net204
*472 net198
*473 net199
*474 net200
*475 net201
*476 net202
*477 net203
*478 clknet_2_0__leaf_clk
*479 clknet_0_clk
*480 net137
*481 net138
*482 net139
*483 net141
*484 net142
*485 net313
*486 net314
*487 net315
*488 net320
*489 net321
*490 net324
*491 net327
*492 net328
*493 net338
*494 net347
*495 _285_
*496 _286_
*497 input15
*498 _288_
*499 input14
*500 _290_
*501 input13
*502 _292_
*503 _293_
*504 _294_
*505 _295_
*506 _296_
*507 _297_
*508 _298_
*509 input12
*510 _300_
*511 _301_
*512 _302_
*513 input11
*514 input10
*515 _305_
*516 _306_
*517 _307_
*518 _308_
*519 _309_
*520 _310_
*521 _311_
*522 _312_
*523 input9
*524 _314_
*525 _315_
*526 _316_
*527 _317_
*528 _318_
*529 _319_
*530 _320_
*531 _321_
*532 _322_
*533 _323_
*534 _324_
*535 _325_
*536 _326_
*537 input8
*538 _328_
*539 _329_
*540 _330_
*541 _331_
*542 _332_
*543 _333_
*544 _334_
*545 _335_
*546 input7
*547 _337_
*548 _338_
*549 _339_
*550 _340_
*551 _341_
*552 _342_
*553 _343_
*554 _344_
*555 _345_
*556 _346_
*557 _347_
*558 _348_
*559 _349_
*560 _350_
*561 _351_
*562 _352_
*563 _353_
*564 _354_
*565 _355_
*566 _356_
*567 _357_
*568 _358_
*569 _359_
*570 _360_
*571 _361_
*572 _362_
*573 _363_
*574 _364_
*575 _365_
*576 _366_
*577 _367_
*578 _368_
*579 _369_
*580 _370_
*581 _371_
*582 _372_
*583 _373_
*584 _374_
*585 _375_
*586 _376_
*587 _377_
*588 _378_
*589 _379_
*590 _380_
*591 _381_
*592 _382_
*593 _383_
*594 _384_
*595 _385_
*596 _386_
*597 _387_
*598 _388_
*599 _389_
*600 _390_
*601 _391_
*602 _392_
*603 _393_
*604 _394_
*605 _395_
*606 _396_
*607 _397_
*608 _398_
*609 _399_
*610 _400_
*611 _401_
*612 _402_
*613 _403_
*614 _404_
*615 _405_
*616 _406_
*617 _407_
*618 _408_
*619 _409_
*620 _410_
*621 _411_
*622 _412_
*623 _413_
*624 _414_
*625 _415_
*626 _416_
*627 _417_
*628 _418_
*629 _419_
*630 _420_
*631 _421_
*632 _422_
*633 _423_
*634 _424_
*635 _425_
*636 _426_
*637 _427_
*638 _428_
*639 input6
*640 _430_
*641 _431_
*642 input5
*643 input4
*644 _434_
*645 _435_
*646 _436_
*647 _437_
*648 _438_
*649 _439_
*650 _440_
*651 _441_
*652 _442_
*653 _443_
*654 _444_
*655 _445_
*656 _446_
*657 _447_
*658 _448_
*659 _449_
*660 _450_
*661 _451_
*662 _452_
*663 _453_
*664 _454_
*665 _455_
*666 _456_
*667 _457_
*668 _458_
*669 _459_
*670 _460_
*671 _461_
*672 _462_
*673 _463_
*674 _464_
*675 _465_
*676 _466_
*677 _467_
*678 _468_
*679 _469_
*680 _470_
*681 _471_
*682 _472_
*683 _473_
*684 _474_
*685 _475_
*686 _476_
*687 _477_
*688 _478_
*689 _479_
*690 _480_
*691 _481_
*692 _482_
*693 _483_
*694 _484_
*695 _485_
*696 _486_
*697 _487_
*698 _488_
*699 _489_
*700 _490_
*701 _491_
*702 _492_
*703 _493_
*704 _494_
*705 _495_
*706 _496_
*707 _497_
*708 _498_
*709 _499_
*710 _500_
*711 _501_
*712 _502_
*713 _503_
*714 _504_
*715 _505_
*716 _506_
*717 _507_
*718 _508_
*719 input3
*720 _510_
*721 input2
*722 _512_
*723 _513_
*724 input1
*725 _515_
*726 _516_
*727 _517_
*728 _518_
*729 _519_
*730 _520_
*731 _521_
*732 _522_
*733 _523_
*734 _524_
*735 _525_
*736 _526_
*737 _527_
*738 _528_
*739 _529_
*740 _530_
*741 _531_
*742 _532_
*743 _533_
*744 _534_
*745 _535_
*746 _536_
*747 _537_
*748 _538_
*749 _539_
*750 _540_
*751 _541_
*752 _542_
*753 _543_
*754 _544_
*755 _545_
*756 _546_
*757 _547_
*758 _548_
*759 _549_
*760 _550_
*761 _551_
*762 _552_
*763 ctrl\.state\.out\[0\]\$_DFF_P_
*764 ctrl\.state\.out\[1\]\$_DFF_P_
*765 ctrl\.state\.out\[2\]\$_DFF_P_
*766 dpath\.a_reg\.out\[0\]\$_DFFE_PP_
*767 dpath\.a_reg\.out\[10\]\$_DFFE_PP_
*768 dpath\.a_reg\.out\[11\]\$_DFFE_PP_
*769 dpath\.a_reg\.out\[12\]\$_DFFE_PP_
*770 dpath\.a_reg\.out\[13\]\$_DFFE_PP_
*771 dpath\.a_reg\.out\[14\]\$_DFFE_PP_
*772 dpath\.a_reg\.out\[15\]\$_DFFE_PP_
*773 dpath\.a_reg\.out\[1\]\$_DFFE_PP_
*774 dpath\.a_reg\.out\[2\]\$_DFFE_PP_
*775 dpath\.a_reg\.out\[3\]\$_DFFE_PP_
*776 dpath\.a_reg\.out\[4\]\$_DFFE_PP_
*777 dpath\.a_reg\.out\[5\]\$_DFFE_PP_
*778 dpath\.a_reg\.out\[6\]\$_DFFE_PP_
*779 dpath\.a_reg\.out\[7\]\$_DFFE_PP_
*780 dpath\.a_reg\.out\[8\]\$_DFFE_PP_
*781 dpath\.a_reg\.out\[9\]\$_DFFE_PP_
*782 dpath\.b_reg\.out\[0\]\$_DFFE_PP_
*783 dpath\.b_reg\.out\[10\]\$_DFFE_PP_
*784 dpath\.b_reg\.out\[11\]\$_DFFE_PP_
*785 dpath\.b_reg\.out\[12\]\$_DFFE_PP_
*786 dpath\.b_reg\.out\[13\]\$_DFFE_PP_
*787 dpath\.b_reg\.out\[14\]\$_DFFE_PP_
*788 dpath\.b_reg\.out\[15\]\$_DFFE_PP_
*789 dpath\.b_reg\.out\[1\]\$_DFFE_PP_
*790 dpath\.b_reg\.out\[2\]\$_DFFE_PP_
*791 dpath\.b_reg\.out\[3\]\$_DFFE_PP_
*792 dpath\.b_reg\.out\[4\]\$_DFFE_PP_
*793 dpath\.b_reg\.out\[5\]\$_DFFE_PP_
*794 dpath\.b_reg\.out\[6\]\$_DFFE_PP_
*795 dpath\.b_reg\.out\[7\]\$_DFFE_PP_
*796 dpath\.b_reg\.out\[8\]\$_DFFE_PP_
*797 dpath\.b_reg\.out\[9\]\$_DFFE_PP_
*798 PHY_EDGE_ROW_0_Right_0
*799 PHY_EDGE_ROW_1_Right_1
*800 PHY_EDGE_ROW_2_Right_2
*801 PHY_EDGE_ROW_3_Right_3
*802 PHY_EDGE_ROW_4_Right_4
*803 PHY_EDGE_ROW_5_Right_5
*804 PHY_EDGE_ROW_6_Right_6
*805 PHY_EDGE_ROW_7_Right_7
*806 PHY_EDGE_ROW_8_Right_8
*807 PHY_EDGE_ROW_9_Right_9
*808 PHY_EDGE_ROW_10_Right_10
*809 PHY_EDGE_ROW_11_Right_11
*810 PHY_EDGE_ROW_12_Right_12
*811 PHY_EDGE_ROW_13_Right_13
*812 PHY_EDGE_ROW_14_Right_14
*813 PHY_EDGE_ROW_15_Right_15
*814 PHY_EDGE_ROW_16_Right_16
*815 PHY_EDGE_ROW_17_Right_17
*816 PHY_EDGE_ROW_18_Right_18
*817 PHY_EDGE_ROW_19_Right_19
*818 PHY_EDGE_ROW_20_Right_20
*819 PHY_EDGE_ROW_21_Right_21
*820 PHY_EDGE_ROW_22_Right_22
*821 PHY_EDGE_ROW_23_Right_23
*822 PHY_EDGE_ROW_24_Right_24
*823 PHY_EDGE_ROW_25_Right_25
*824 PHY_EDGE_ROW_26_Right_26
*825 PHY_EDGE_ROW_27_Right_27
*826 PHY_EDGE_ROW_28_Right_28
*827 PHY_EDGE_ROW_29_Right_29
*828 PHY_EDGE_ROW_30_Right_30
*829 PHY_EDGE_ROW_31_Right_31
*830 PHY_EDGE_ROW_32_Right_32
*831 PHY_EDGE_ROW_33_Right_33
*832 PHY_EDGE_ROW_34_Right_34
*833 PHY_EDGE_ROW_35_Right_35
*834 PHY_EDGE_ROW_36_Right_36
*835 PHY_EDGE_ROW_37_Right_37
*836 PHY_EDGE_ROW_38_Right_38
*837 PHY_EDGE_ROW_39_Right_39
*838 PHY_EDGE_ROW_40_Right_40
*839 PHY_EDGE_ROW_41_Right_41
*840 PHY_EDGE_ROW_42_Right_42
*841 PHY_EDGE_ROW_43_Right_43
*842 PHY_EDGE_ROW_44_Right_44
*843 PHY_EDGE_ROW_45_Right_45
*844 PHY_EDGE_ROW_46_Right_46
*845 PHY_EDGE_ROW_47_Right_47
*846 PHY_EDGE_ROW_48_Right_48
*847 PHY_EDGE_ROW_49_Right_49
*848 PHY_EDGE_ROW_50_Right_50
*849 PHY_EDGE_ROW_51_Right_51
*850 PHY_EDGE_ROW_0_Left_52
*851 PHY_EDGE_ROW_1_Left_53
*852 PHY_EDGE_ROW_2_Left_54
*853 PHY_EDGE_ROW_3_Left_55
*854 PHY_EDGE_ROW_4_Left_56
*855 PHY_EDGE_ROW_5_Left_57
*856 PHY_EDGE_ROW_6_Left_58
*857 PHY_EDGE_ROW_7_Left_59
*858 PHY_EDGE_ROW_8_Left_60
*859 PHY_EDGE_ROW_9_Left_61
*860 PHY_EDGE_ROW_10_Left_62
*861 PHY_EDGE_ROW_11_Left_63
*862 PHY_EDGE_ROW_12_Left_64
*863 PHY_EDGE_ROW_13_Left_65
*864 PHY_EDGE_ROW_14_Left_66
*865 PHY_EDGE_ROW_15_Left_67
*866 PHY_EDGE_ROW_16_Left_68
*867 PHY_EDGE_ROW_17_Left_69
*868 PHY_EDGE_ROW_18_Left_70
*869 PHY_EDGE_ROW_19_Left_71
*870 PHY_EDGE_ROW_20_Left_72
*871 PHY_EDGE_ROW_21_Left_73
*872 PHY_EDGE_ROW_22_Left_74
*873 PHY_EDGE_ROW_23_Left_75
*874 PHY_EDGE_ROW_24_Left_76
*875 PHY_EDGE_ROW_25_Left_77
*876 PHY_EDGE_ROW_26_Left_78
*877 PHY_EDGE_ROW_27_Left_79
*878 PHY_EDGE_ROW_28_Left_80
*879 PHY_EDGE_ROW_29_Left_81
*880 PHY_EDGE_ROW_30_Left_82
*881 PHY_EDGE_ROW_31_Left_83
*882 PHY_EDGE_ROW_32_Left_84
*883 PHY_EDGE_ROW_33_Left_85
*884 PHY_EDGE_ROW_34_Left_86
*885 PHY_EDGE_ROW_35_Left_87
*886 PHY_EDGE_ROW_36_Left_88
*887 PHY_EDGE_ROW_37_Left_89
*888 PHY_EDGE_ROW_38_Left_90
*889 PHY_EDGE_ROW_39_Left_91
*890 PHY_EDGE_ROW_40_Left_92
*891 PHY_EDGE_ROW_41_Left_93
*892 PHY_EDGE_ROW_42_Left_94
*893 PHY_EDGE_ROW_43_Left_95
*894 PHY_EDGE_ROW_44_Left_96
*895 PHY_EDGE_ROW_45_Left_97
*896 PHY_EDGE_ROW_46_Left_98
*897 PHY_EDGE_ROW_47_Left_99
*898 PHY_EDGE_ROW_48_Left_100
*899 PHY_EDGE_ROW_49_Left_101
*900 PHY_EDGE_ROW_50_Left_102
*901 PHY_EDGE_ROW_51_Left_103
*902 input16
*903 input17
*904 input18
*905 input19
*906 input20
*907 input21
*908 input22
*909 input23
*910 input24
*911 input25
*912 input26
*913 input27
*914 input28
*915 input29
*916 input30
*917 input31
*918 input32
*919 input33
*920 input34
*921 input35
*922 output36
*923 output37
*924 output38
*925 output39
*926 output40
*927 output41
*928 output42
*929 output43
*930 output44
*931 output45
*932 output46
*933 output47
*934 output48
*935 output49
*936 output50
*937 output51
*938 output52
*939 output53
*940 place140
*941 place143
*942 place144
*943 rebuffer311
*944 place145
*945 place146
*946 rebuffer304
*947 place155
*948 place147
*949 place150
*950 place148
*951 place149
*952 place152
*953 place151
*954 place154
*955 place153
*956 place156
*957 place157
*958 place158
*959 place159
*960 place160
*961 place161
*962 place163
*963 place162
*964 rebuffer301
*965 rebuffer219
*966 place164
*967 place165
*968 place167
*969 place166
*970 rebuffer214
*971 place168
*972 place170
*973 place169
*974 place171
*975 place172
*976 rebuffer213
*977 place173
*978 clone212
*979 rebuffer210
*980 rebuffer211
*981 rebuffer209
*982 rebuffer208
*983 place174
*984 place175
*985 place176
*986 place177
*987 rebuffer207
*988 rebuffer206
*989 clone205
*990 place178
*991 place179
*992 place180
*993 place181
*994 place182
*995 place183
*996 place184
*997 place185
*998 clkload0
*999 clkbuf_2_3__f_clk
*1000 place186
*1001 clkbuf_2_2__f_clk
*1002 clkbuf_2_1__f_clk
*1003 place193
*1004 place187
*1005 place188
*1006 place189
*1007 place190
*1008 place191
*1009 place192
*1010 place194
*1011 place195
*1012 place197
*1013 place196
*1014 place204
*1015 place198
*1016 place199
*1017 place200
*1018 place201
*1019 place202
*1020 place203
*1021 clkbuf_2_0__f_clk
*1022 clkbuf_0_clk
*1023 place137
*1024 place138
*1025 place139
*1026 place141
*1027 place142
*1028 rebuffer312
*1029 rebuffer313
*1030 rebuffer314
*1031 rebuffer315
*1032 rebuffer320
*1033 rebuffer321
*1034 rebuffer324
*1035 rebuffer327
*1036 rebuffer328
*1037 clone338
*1038 rebuffer347
*1039 FILLER_0_2
*1040 FILLER_0_24
*1041 FILLER_0_46
*1042 FILLER_0_68
*1043 FILLER_0_90
*1044 FILLER_0_112
*1045 FILLER_0_134
*1046 FILLER_0_156
*1047 FILLER_0_178
*1048 FILLER_0_200
*1049 FILLER_0_222
*1050 FILLER_0_244
*1051 FILLER_1_2
*1052 FILLER_1_24
*1053 FILLER_1_46
*1054 FILLER_1_68
*1055 FILLER_1_78
*1056 FILLER_1_85
*1057 FILLER_1_107
*1058 FILLER_1_129
*1059 FILLER_1_151
*1060 FILLER_1_173
*1061 FILLER_1_195
*1062 FILLER_1_217
*1063 FILLER_1_239
*1064 FILLER_1_253
*1065 FILLER_1_257
*1066 FILLER_2_2
*1067 FILLER_2_24
*1068 FILLER_2_46
*1069 FILLER_2_68
*1070 FILLER_2_90
*1071 FILLER_2_109
*1072 FILLER_2_131
*1073 FILLER_2_145
*1074 FILLER_2_154
*1075 FILLER_2_176
*1076 FILLER_2_198
*1077 FILLER_2_220
*1078 FILLER_2_242
*1079 FILLER_2_256
*1080 FILLER_3_2
*1081 FILLER_3_24
*1082 FILLER_3_46
*1083 FILLER_3_68
*1084 FILLER_3_90
*1085 FILLER_3_104
*1086 FILLER_3_106
*1087 FILLER_3_112
*1088 FILLER_3_134
*1089 FILLER_3_156
*1090 FILLER_3_170
*1091 FILLER_3_177
*1092 FILLER_3_199
*1093 FILLER_3_221
*1094 FILLER_3_243
*1095 FILLER_3_257
*1096 FILLER_4_2
*1097 FILLER_4_24
*1098 FILLER_4_46
*1099 FILLER_4_68
*1100 FILLER_4_90
*1101 FILLER_4_112
*1102 FILLER_4_134
*1103 FILLER_4_145
*1104 FILLER_4_167
*1105 FILLER_4_189
*1106 FILLER_4_211
*1107 FILLER_4_233
*1108 FILLER_4_255
*1109 FILLER_4_257
*1110 FILLER_5_2
*1111 FILLER_5_24
*1112 FILLER_5_46
*1113 FILLER_5_68
*1114 FILLER_5_90
*1115 FILLER_5_112
*1116 FILLER_5_134
*1117 FILLER_5_156
*1118 FILLER_5_178
*1119 FILLER_5_200
*1120 FILLER_5_222
*1121 FILLER_5_244
*1122 FILLER_6_2
*1123 FILLER_6_24
*1124 FILLER_6_46
*1125 FILLER_6_68
*1126 FILLER_6_90
*1127 FILLER_6_112
*1128 FILLER_6_134
*1129 FILLER_6_140
*1130 FILLER_6_145
*1131 FILLER_6_167
*1132 FILLER_6_189
*1133 FILLER_6_211
*1134 FILLER_6_233
*1135 FILLER_6_255
*1136 FILLER_6_257
*1137 FILLER_7_2
*1138 FILLER_7_24
*1139 FILLER_7_46
*1140 FILLER_7_68
*1141 FILLER_7_90
*1142 FILLER_7_112
*1143 FILLER_7_134
*1144 FILLER_7_156
*1145 FILLER_7_178
*1146 FILLER_7_200
*1147 FILLER_7_222
*1148 FILLER_7_244
*1149 FILLER_8_2
*1150 FILLER_8_24
*1151 FILLER_8_46
*1152 FILLER_8_68
*1153 FILLER_8_72
*1154 FILLER_8_78
*1155 FILLER_8_87
*1156 FILLER_8_109
*1157 FILLER_8_131
*1158 FILLER_8_137
*1159 FILLER_8_144
*1160 FILLER_8_166
*1161 FILLER_8_188
*1162 FILLER_8_210
*1163 FILLER_8_232
*1164 FILLER_8_254
*1165 FILLER_9_2
*1166 FILLER_9_24
*1167 FILLER_9_46
*1168 FILLER_9_68
*1169 FILLER_9_78
*1170 FILLER_9_85
*1171 FILLER_9_107
*1172 FILLER_9_129
*1173 FILLER_9_135
*1174 FILLER_9_137
*1175 FILLER_9_148
*1176 FILLER_9_170
*1177 FILLER_9_192
*1178 FILLER_9_214
*1179 FILLER_9_236
*1180 FILLER_10_2
*1181 FILLER_10_24
*1182 FILLER_10_46
*1183 FILLER_10_68
*1184 FILLER_10_78
*1185 FILLER_10_92
*1186 FILLER_10_98
*1187 FILLER_10_104
*1188 FILLER_10_126
*1189 FILLER_10_146
*1190 FILLER_10_168
*1191 FILLER_10_190
*1192 FILLER_10_212
*1193 FILLER_10_234
*1194 FILLER_10_256
*1195 FILLER_11_2
*1196 FILLER_11_24
*1197 FILLER_11_46
*1198 FILLER_11_68
*1199 FILLER_11_90
*1200 FILLER_11_112
*1201 FILLER_11_126
*1202 FILLER_11_149
*1203 FILLER_11_155
*1204 FILLER_11_177
*1205 FILLER_11_199
*1206 FILLER_11_221
*1207 FILLER_11_243
*1208 FILLER_11_257
*1209 FILLER_12_2
*1210 FILLER_12_24
*1211 FILLER_12_46
*1212 FILLER_12_68
*1213 FILLER_12_89
*1214 FILLER_12_103
*1215 FILLER_12_111
*1216 FILLER_12_162
*1217 FILLER_12_181
*1218 FILLER_12_203
*1219 FILLER_12_225
*1220 FILLER_12_247
*1221 FILLER_12_257
*1222 FILLER_13_2
*1223 FILLER_13_24
*1224 FILLER_13_38
*1225 FILLER_13_95
*1226 FILLER_13_101
*1227 FILLER_13_118
*1228 FILLER_13_132
*1229 FILLER_13_151
*1230 FILLER_13_153
*1231 FILLER_13_160
*1232 FILLER_13_170
*1233 FILLER_13_184
*1234 FILLER_13_206
*1235 FILLER_13_228
*1236 FILLER_13_250
*1237 FILLER_13_256
*1238 FILLER_14_2
*1239 FILLER_14_24
*1240 FILLER_14_30
*1241 FILLER_14_32
*1242 FILLER_14_53
*1243 FILLER_14_60
*1244 FILLER_14_67
*1245 FILLER_14_77
*1246 FILLER_14_122
*1247 FILLER_14_155
*1248 FILLER_14_183
*1249 FILLER_14_205
*1250 FILLER_14_227
*1251 FILLER_14_249
*1252 FILLER_14_255
*1253 FILLER_14_257
*1254 FILLER_15_2
*1255 FILLER_15_24
*1256 FILLER_15_34
*1257 FILLER_15_59
*1258 FILLER_15_65
*1259 FILLER_15_85
*1260 FILLER_15_129
*1261 FILLER_15_139
*1262 FILLER_15_141
*1263 FILLER_15_155
*1264 FILLER_15_159
*1265 FILLER_15_180
*1266 FILLER_15_202
*1267 FILLER_15_224
*1268 FILLER_15_246
*1269 FILLER_15_256
*1270 FILLER_16_2
*1271 FILLER_16_43
*1272 FILLER_16_45
*1273 FILLER_16_82
*1274 FILLER_16_86
*1275 FILLER_16_112
*1276 FILLER_16_117
*1277 FILLER_16_131
*1278 FILLER_16_145
*1279 FILLER_16_152
*1280 FILLER_16_172
*1281 FILLER_16_199
*1282 FILLER_16_214
*1283 FILLER_16_236
*1284 FILLER_17_2
*1285 FILLER_17_13
*1286 FILLER_17_19
*1287 FILLER_17_21
*1288 FILLER_17_42
*1289 FILLER_17_93
*1290 FILLER_17_105
*1291 FILLER_17_127
*1292 FILLER_17_141
*1293 FILLER_17_147
*1294 FILLER_17_168
*1295 FILLER_17_193
*1296 FILLER_17_215
*1297 FILLER_17_237
*1298 FILLER_17_251
*1299 FILLER_17_257
*1300 FILLER_18_2
*1301 FILLER_18_4
*1302 FILLER_18_10
*1303 FILLER_18_24
*1304 FILLER_18_28
*1305 FILLER_18_49
*1306 FILLER_18_62
*1307 FILLER_18_64
*1308 FILLER_18_72
*1309 FILLER_18_85
*1310 FILLER_18_95
*1311 FILLER_18_97
*1312 FILLER_18_111
*1313 FILLER_18_121
*1314 FILLER_18_143
*1315 FILLER_18_147
*1316 FILLER_18_194
*1317 FILLER_18_216
*1318 FILLER_18_238
*1319 FILLER_18_252
*1320 FILLER_19_2
*1321 FILLER_19_12
*1322 FILLER_19_14
*1323 FILLER_19_20
*1324 FILLER_19_34
*1325 FILLER_19_55
*1326 FILLER_19_73
*1327 FILLER_19_81
*1328 FILLER_19_95
*1329 FILLER_19_105
*1330 FILLER_19_117
*1331 FILLER_19_162
*1332 FILLER_19_169
*1333 FILLER_19_205
*1334 FILLER_19_227
*1335 FILLER_19_249
*1336 FILLER_19_255
*1337 FILLER_19_257
*1338 FILLER_20_2
*1339 FILLER_20_8
*1340 FILLER_20_18
*1341 FILLER_20_25
*1342 FILLER_20_47
*1343 FILLER_20_55
*1344 FILLER_20_64
*1345 FILLER_20_74
*1346 FILLER_20_88
*1347 FILLER_20_94
*1348 FILLER_20_136
*1349 FILLER_20_148
*1350 FILLER_20_150
*1351 FILLER_20_166
*1352 FILLER_20_187
*1353 FILLER_20_192
*1354 FILLER_20_202
*1355 FILLER_20_216
*1356 FILLER_20_222
*1357 FILLER_20_233
*1358 FILLER_20_255
*1359 FILLER_20_257
*1360 FILLER_21_12
*1361 FILLER_21_22
*1362 FILLER_21_35
*1363 FILLER_21_45
*1364 FILLER_21_87
*1365 FILLER_21_89
*1366 FILLER_21_96
*1367 FILLER_21_148
*1368 FILLER_21_171
*1369 FILLER_21_177
*1370 FILLER_21_189
*1371 FILLER_21_195
*1372 FILLER_21_197
*1373 FILLER_21_204
*1374 FILLER_21_218
*1375 FILLER_21_225
*1376 FILLER_21_236
*1377 FILLER_22_2
*1378 FILLER_22_16
*1379 FILLER_22_22
*1380 FILLER_22_38
*1381 FILLER_22_46
*1382 FILLER_22_48
*1383 FILLER_22_55
*1384 FILLER_22_59
*1385 FILLER_22_69
*1386 FILLER_22_73
*1387 FILLER_22_80
*1388 FILLER_22_90
*1389 FILLER_22_104
*1390 FILLER_22_115
*1391 FILLER_22_131
*1392 FILLER_22_146
*1393 FILLER_22_148
*1394 FILLER_22_161
*1395 FILLER_22_171
*1396 FILLER_22_183
*1397 FILLER_22_185
*1398 FILLER_22_209
*1399 FILLER_22_231
*1400 FILLER_22_253
*1401 FILLER_22_257
*1402 FILLER_23_2
*1403 FILLER_23_24
*1404 FILLER_23_26
*1405 FILLER_23_47
*1406 FILLER_23_51
*1407 FILLER_23_55
*1408 FILLER_23_64
*1409 FILLER_23_70
*1410 FILLER_23_93
*1411 FILLER_23_95
*1412 FILLER_23_122
*1413 FILLER_23_124
*1414 FILLER_23_150
*1415 FILLER_23_159
*1416 FILLER_23_220
*1417 FILLER_23_242
*1418 FILLER_23_256
*1419 FILLER_24_2
*1420 FILLER_24_9
*1421 FILLER_24_13
*1422 FILLER_24_31
*1423 FILLER_24_33
*1424 FILLER_24_54
*1425 FILLER_24_71
*1426 FILLER_24_77
*1427 FILLER_24_101
*1428 FILLER_24_127
*1429 FILLER_24_137
*1430 FILLER_24_161
*1431 FILLER_24_182
*1432 FILLER_24_202
*1433 FILLER_24_224
*1434 FILLER_24_230
*1435 FILLER_24_232
*1436 FILLER_24_238
*1437 FILLER_24_252
*1438 FILLER_25_7
*1439 FILLER_25_21
*1440 FILLER_25_23
*1441 FILLER_25_41
*1442 FILLER_25_50
*1443 FILLER_25_61
*1444 FILLER_25_82
*1445 FILLER_25_104
*1446 FILLER_25_108
*1447 FILLER_25_114
*1448 FILLER_25_131
*1449 FILLER_25_137
*1450 FILLER_25_144
*1451 FILLER_25_155
*1452 FILLER_25_167
*1453 FILLER_25_189
*1454 FILLER_25_211
*1455 FILLER_25_233
*1456 FILLER_25_243
*1457 FILLER_25_249
*1458 FILLER_25_255
*1459 FILLER_25_257
*1460 FILLER_26_2
*1461 FILLER_26_9
*1462 FILLER_26_15
*1463 FILLER_26_19
*1464 FILLER_26_62
*1465 FILLER_26_76
*1466 FILLER_26_80
*1467 FILLER_26_104
*1468 FILLER_26_118
*1469 FILLER_26_134
*1470 FILLER_26_136
*1471 FILLER_26_149
*1472 FILLER_26_168
*1473 FILLER_26_210
*1474 FILLER_26_224
*1475 FILLER_26_226
*1476 FILLER_26_230
*1477 FILLER_26_239
*1478 FILLER_26_253
*1479 FILLER_26_257
*1480 FILLER_27_2
*1481 FILLER_27_21
*1482 FILLER_27_25
*1483 FILLER_27_50
*1484 FILLER_27_58
*1485 FILLER_27_80
*1486 FILLER_27_94
*1487 FILLER_27_106
*1488 FILLER_27_140
*1489 FILLER_27_151
*1490 FILLER_27_170
*1491 FILLER_27_176
*1492 FILLER_27_178
*1493 FILLER_27_220
*1494 FILLER_27_239
*1495 FILLER_27_253
*1496 FILLER_27_257
*1497 FILLER_28_7
*1498 FILLER_28_22
*1499 FILLER_28_52
*1500 FILLER_28_79
*1501 FILLER_28_83
*1502 FILLER_28_96
*1503 FILLER_28_103
*1504 FILLER_28_121
*1505 FILLER_28_214
*1506 FILLER_28_228
*1507 FILLER_28_237
*1508 FILLER_28_243
*1509 FILLER_28_249
*1510 FILLER_28_251
*1511 FILLER_28_257
*1512 FILLER_29_2
*1513 FILLER_29_24
*1514 FILLER_29_30
*1515 FILLER_29_32
*1516 FILLER_29_39
*1517 FILLER_29_41
*1518 FILLER_29_68
*1519 FILLER_29_72
*1520 FILLER_29_82
*1521 FILLER_29_98
*1522 FILLER_29_113
*1523 FILLER_29_129
*1524 FILLER_29_135
*1525 FILLER_29_169
*1526 FILLER_29_207
*1527 FILLER_29_209
*1528 FILLER_29_216
*1529 FILLER_29_230
*1530 FILLER_29_239
*1531 FILLER_29_253
*1532 FILLER_29_257
*1533 FILLER_30_2
*1534 FILLER_30_21
*1535 FILLER_30_45
*1536 FILLER_30_61
*1537 FILLER_30_71
*1538 FILLER_30_105
*1539 FILLER_30_107
*1540 FILLER_30_111
*1541 FILLER_30_128
*1542 FILLER_30_137
*1543 FILLER_30_159
*1544 FILLER_30_194
*1545 FILLER_30_214
*1546 FILLER_30_228
*1547 FILLER_30_232
*1548 FILLER_30_238
*1549 FILLER_30_252
*1550 FILLER_31_2
*1551 FILLER_31_4
*1552 FILLER_31_10
*1553 FILLER_31_32
*1554 FILLER_31_54
*1555 FILLER_31_66
*1556 FILLER_31_72
*1557 FILLER_31_106
*1558 FILLER_31_114
*1559 FILLER_31_116
*1560 FILLER_31_123
*1561 FILLER_31_137
*1562 FILLER_31_141
*1563 FILLER_31_148
*1564 FILLER_31_156
*1565 FILLER_31_167
*1566 FILLER_31_174
*1567 FILLER_31_203
*1568 FILLER_31_225
*1569 FILLER_31_247
*1570 FILLER_31_257
*1571 FILLER_32_2
*1572 FILLER_32_24
*1573 FILLER_32_46
*1574 FILLER_32_68
*1575 FILLER_32_99
*1576 FILLER_32_111
*1577 FILLER_32_123
*1578 FILLER_32_129
*1579 FILLER_32_138
*1580 FILLER_32_150
*1581 FILLER_32_169
*1582 FILLER_32_194
*1583 FILLER_32_196
*1584 FILLER_32_204
*1585 FILLER_32_214
*1586 FILLER_32_222
*1587 FILLER_32_233
*1588 FILLER_32_255
*1589 FILLER_32_257
*1590 FILLER_33_2
*1591 FILLER_33_24
*1592 FILLER_33_46
*1593 FILLER_33_68
*1594 FILLER_33_74
*1595 FILLER_33_87
*1596 FILLER_33_91
*1597 FILLER_33_98
*1598 FILLER_33_116
*1599 FILLER_33_124
*1600 FILLER_33_146
*1601 FILLER_33_177
*1602 FILLER_33_190
*1603 FILLER_33_192
*1604 FILLER_33_213
*1605 FILLER_33_235
*1606 FILLER_33_245
*1607 FILLER_33_252
*1608 FILLER_34_2
*1609 FILLER_34_8
*1610 FILLER_34_15
*1611 FILLER_34_37
*1612 FILLER_34_59
*1613 FILLER_34_81
*1614 FILLER_34_89
*1615 FILLER_34_119
*1616 FILLER_34_131
*1617 FILLER_34_154
*1618 FILLER_34_158
*1619 FILLER_34_173
*1620 FILLER_34_183
*1621 FILLER_34_197
*1622 FILLER_34_204
*1623 FILLER_34_226
*1624 FILLER_34_248
*1625 FILLER_35_2
*1626 FILLER_35_24
*1627 FILLER_35_46
*1628 FILLER_35_68
*1629 FILLER_35_90
*1630 FILLER_35_104
*1631 FILLER_35_140
*1632 FILLER_35_181
*1633 FILLER_35_203
*1634 FILLER_35_225
*1635 FILLER_35_247
*1636 FILLER_35_257
*1637 FILLER_36_2
*1638 FILLER_36_24
*1639 FILLER_36_46
*1640 FILLER_36_68
*1641 FILLER_36_90
*1642 FILLER_36_104
*1643 FILLER_36_108
*1644 FILLER_36_117
*1645 FILLER_36_143
*1646 FILLER_36_165
*1647 FILLER_36_187
*1648 FILLER_36_209
*1649 FILLER_36_231
*1650 FILLER_36_253
*1651 FILLER_36_257
*1652 FILLER_37_2
*1653 FILLER_37_24
*1654 FILLER_37_46
*1655 FILLER_37_68
*1656 FILLER_37_90
*1657 FILLER_37_112
*1658 FILLER_37_124
*1659 FILLER_37_138
*1660 FILLER_37_145
*1661 FILLER_37_167
*1662 FILLER_37_189
*1663 FILLER_37_211
*1664 FILLER_37_233
*1665 FILLER_37_255
*1666 FILLER_37_257
*1667 FILLER_38_2
*1668 FILLER_38_24
*1669 FILLER_38_46
*1670 FILLER_38_68
*1671 FILLER_38_90
*1672 FILLER_38_112
*1673 FILLER_38_134
*1674 FILLER_38_156
*1675 FILLER_38_178
*1676 FILLER_38_200
*1677 FILLER_38_222
*1678 FILLER_38_244
*1679 FILLER_39_2
*1680 FILLER_39_24
*1681 FILLER_39_46
*1682 FILLER_39_68
*1683 FILLER_39_90
*1684 FILLER_39_112
*1685 FILLER_39_134
*1686 FILLER_39_156
*1687 FILLER_39_178
*1688 FILLER_39_200
*1689 FILLER_39_222
*1690 FILLER_39_244
*1691 FILLER_40_2
*1692 FILLER_40_24
*1693 FILLER_40_46
*1694 FILLER_40_68
*1695 FILLER_40_90
*1696 FILLER_40_112
*1697 FILLER_40_134
*1698 FILLER_40_156
*1699 FILLER_40_178
*1700 FILLER_40_200
*1701 FILLER_40_222
*1702 FILLER_40_244
*1703 FILLER_41_2
*1704 FILLER_41_24
*1705 FILLER_41_46
*1706 FILLER_41_68
*1707 FILLER_41_90
*1708 FILLER_41_112
*1709 FILLER_41_134
*1710 FILLER_41_156
*1711 FILLER_41_178
*1712 FILLER_41_200
*1713 FILLER_41_222
*1714 FILLER_41_244
*1715 FILLER_42_2
*1716 FILLER_42_24
*1717 FILLER_42_46
*1718 FILLER_42_68
*1719 FILLER_42_90
*1720 FILLER_42_112
*1721 FILLER_42_134
*1722 FILLER_42_156
*1723 FILLER_42_178
*1724 FILLER_42_200
*1725 FILLER_42_222
*1726 FILLER_42_244
*1727 FILLER_43_2
*1728 FILLER_43_24
*1729 FILLER_43_46
*1730 FILLER_43_68
*1731 FILLER_43_90
*1732 FILLER_43_112
*1733 FILLER_43_134
*1734 FILLER_43_156
*1735 FILLER_43_178
*1736 FILLER_43_200
*1737 FILLER_43_222
*1738 FILLER_43_244
*1739 FILLER_44_2
*1740 FILLER_44_24
*1741 FILLER_44_46
*1742 FILLER_44_68
*1743 FILLER_44_90
*1744 FILLER_44_112
*1745 FILLER_44_134
*1746 FILLER_44_156
*1747 FILLER_44_178
*1748 FILLER_44_200
*1749 FILLER_44_222
*1750 FILLER_44_244
*1751 FILLER_45_2
*1752 FILLER_45_24
*1753 FILLER_45_46
*1754 FILLER_45_68
*1755 FILLER_45_90
*1756 FILLER_45_112
*1757 FILLER_45_134
*1758 FILLER_45_156
*1759 FILLER_45_178
*1760 FILLER_45_200
*1761 FILLER_45_222
*1762 FILLER_45_244
*1763 FILLER_46_2
*1764 FILLER_46_24
*1765 FILLER_46_46
*1766 FILLER_46_68
*1767 FILLER_46_90
*1768 FILLER_46_98
*1769 FILLER_46_118
*1770 FILLER_46_140
*1771 FILLER_46_162
*1772 FILLER_46_184
*1773 FILLER_46_206
*1774 FILLER_46_228
*1775 FILLER_46_250
*1776 FILLER_46_256
*1777 FILLER_47_2
*1778 FILLER_47_24
*1779 FILLER_47_46
*1780 FILLER_47_68
*1781 FILLER_47_90
*1782 FILLER_47_112
*1783 FILLER_47_134
*1784 FILLER_47_156
*1785 FILLER_47_178
*1786 FILLER_47_200
*1787 FILLER_47_222
*1788 FILLER_47_244
*1789 FILLER_48_2
*1790 FILLER_48_24
*1791 FILLER_48_46
*1792 FILLER_48_68
*1793 FILLER_48_90
*1794 FILLER_48_112
*1795 FILLER_48_134
*1796 FILLER_48_156
*1797 FILLER_48_178
*1798 FILLER_48_200
*1799 FILLER_48_222
*1800 FILLER_48_244
*1801 FILLER_49_2
*1802 FILLER_49_24
*1803 FILLER_49_46
*1804 FILLER_49_68
*1805 FILLER_49_90
*1806 FILLER_49_104
*1807 FILLER_49_110
*1808 FILLER_49_121
*1809 FILLER_49_135
*1810 FILLER_49_146
*1811 FILLER_49_168
*1812 FILLER_49_190
*1813 FILLER_49_212
*1814 FILLER_49_234
*1815 FILLER_49_256
*1816 FILLER_50_2
*1817 FILLER_50_24
*1818 FILLER_50_46
*1819 FILLER_50_68
*1820 FILLER_50_90
*1821 FILLER_50_96
*1822 FILLER_50_103
*1823 FILLER_50_125
*1824 FILLER_50_147
*1825 FILLER_50_169
*1826 FILLER_50_191
*1827 FILLER_50_213
*1828 FILLER_50_235
*1829 FILLER_50_257
*1830 FILLER_51_2
*1831 FILLER_51_24
*1832 FILLER_51_46
*1833 FILLER_51_68
*1834 FILLER_51_90
*1835 FILLER_51_112
*1836 FILLER_51_134
*1837 FILLER_51_156
*1838 FILLER_51_178
*1839 FILLER_51_200
*1840 FILLER_51_222
*1841 FILLER_51_244

*PORTS
clk I
req_msg[0] I
req_msg[10] I
req_msg[11] I
req_msg[12] I
req_msg[13] I
req_msg[14] I
req_msg[15] I
req_msg[16] I
req_msg[17] I
req_msg[18] I
req_msg[19] I
req_msg[1] I
req_msg[20] I
req_msg[21] I
req_msg[22] I
req_msg[23] I
req_msg[24] I
req_msg[25] I
req_msg[26] I
req_msg[27] I
req_msg[28] I
req_msg[29] I
req_msg[2] I
req_msg[30] I
req_msg[31] I
req_msg[3] I
req_msg[4] I
req_msg[5] I
req_msg[6] I
req_msg[7] I
req_msg[8] I
req_msg[9] I
req_rdy O
req_val I
reset I
resp_msg[0] O
resp_msg[10] O
resp_msg[11] O
resp_msg[12] O
resp_msg[13] O
resp_msg[14] O
resp_msg[15] O
resp_msg[1] O
resp_msg[2] O
resp_msg[3] O
resp_msg[4] O
resp_msg[5] O
resp_msg[6] O
resp_msg[7] O
resp_msg[8] O
resp_msg[9] O
resp_rdy I
resp_val O

*D_NET *1 2.54508e-05
*CONN
*I *763:D I *D DFFHQNx1_ASAP7_75t_SL
*I *550:Y O *D AO221x1_ASAP7_75t_SL
*CAP
1 *763:D 0
2 *550:Y 1.05651e-05
3 *1:10 1.05651e-05
4 *1:10 *336:46 3.19161e-06
5 *1:10 *377:16 1.12894e-06
*RES
1 *550:Y *1:10 40.4531 
2 *1:10 *763:D 34.4 
*END

*D_NET *2 9.6372e-05
*CONN
*I *764:D I *D DFFHQNx1_ASAP7_75t_SL
*I *549:Y O *D OA21x2_ASAP7_75t_SL
*CAP
1 *764:D 0
2 *549:Y 4.67043e-06
3 *2:12 4.15405e-05
4 *2:8 4.6211e-05
5 *2:8 *148:10 3.95007e-06
6 *2:8 *378:21 0
*RES
1 *549:Y *2:8 37.779 
2 *2:8 *2:12 35.9189 
3 *2:12 *764:D 17.2 
*END

*D_NET *3 0.000155093
*CONN
*I *765:D I *D DFFHQNx1_ASAP7_75t_SL
*I *540:Y O *D NOR2x1_ASAP7_75t_SL
*CAP
1 *765:D 0
2 *540:Y 2.13462e-05
3 *3:14 3.20351e-05
4 *3:10 5.33813e-05
5 *3:10 *540:A 2.66797e-07
6 *3:10 *540:B 5.41446e-06
7 *3:10 *547:B 2.52755e-07
8 *3:10 *763:CLK 9.67723e-06
9 *3:10 *106:18 9.8079e-06
10 *3:14 *458:84 2.29115e-05
*RES
1 *540:Y *3:10 45.8014 
2 *3:10 *3:14 33.7796 
3 *3:14 *765:D 17.2 
*END

*D_NET *4 0.00125852
*CONN
*I *1020:A I *D BUFx3_ASAP7_75t_SL
*I *745:A1 I *D OA222x2_ASAP7_75t_SL
*I *723:A I *D NAND2x2_ASAP7_75t_SL
*I *637:A I *D NAND2x1_ASAP7_75t_SL
*I *545:A I *D AND2x2_ASAP7_75t_SL
*I *498:A I *D INVx1_ASAP7_75t_SL
*I *1014:A I *D BUFx3_ASAP7_75t_SL
*I *541:A I *D NAND2x1_ASAP7_75t_SL
*I *763:QN O *D DFFHQNx1_ASAP7_75t_SL
*CAP
1 *1020:A 0
2 *745:A1 1.00523e-05
3 *723:A 2.3309e-05
4 *637:A 1.75942e-06
5 *545:A 0
6 *498:A 0
7 *1014:A 0
8 *541:A 0
9 *763:QN 0
10 *4:116 4.47779e-05
11 *4:110 7.22646e-05
12 *4:104 7.2785e-05
13 *4:91 3.19158e-05
14 *4:83 5.52154e-05
15 *4:72 5.52227e-05
16 *4:70 4.21007e-05
17 *4:51 2.51395e-05
18 *4:45 2.85977e-05
19 *4:41 2.18768e-05
20 *4:26 3.14235e-05
21 *4:24 2.35491e-05
22 *4:20 3.36123e-05
23 *4:14 5.09376e-05
24 *4:12 4.50056e-05
25 *4:10 5.09256e-05
26 *4:6 3.37895e-05
27 *637:A *147:48 3.89037e-06
28 *723:A *301:6 6.7842e-07
29 *745:A1 *375:14 7.97373e-06
30 *745:A1 *454:25 5.63702e-07
31 *745:A1 *483:28 6.19506e-06
32 *4:10 *91:8 0
33 *4:10 *149:116 0
34 *4:10 *149:129 3.2798e-06
35 *4:10 *458:137 0
36 *4:10 *458:152 4.83862e-06
37 *4:12 *458:71 1.25483e-05
38 *4:12 *458:131 3.61574e-05
39 *4:12 *458:152 2.0561e-05
40 *4:12 *477:18 1.42799e-05
41 *4:12 *477:31 2.40363e-05
42 *4:14 *539:A1 2.52755e-07
43 *4:14 *539:A2 3.16328e-06
44 *4:14 *149:89 1.19623e-05
45 *4:14 *458:71 3.09505e-05
46 *4:14 *476:135 1.60115e-05
47 *4:14 *477:18 1.66706e-05
48 *4:20 *765:CLK 7.53363e-06
49 *4:20 *148:10 0
50 *4:20 *149:89 8.23084e-06
51 *4:20 *458:92 3.19982e-06
52 *4:20 *458:111 4.06224e-06
53 *4:24 *765:CLK 9.08513e-06
54 *4:24 *149:83 2.6409e-06
55 *4:24 *476:38 1.42799e-05
56 *4:26 *146:128 5.25278e-06
57 *4:26 *476:38 1.2768e-05
58 *4:26 *476:40 2.29378e-05
59 *4:26 *476:46 1.79628e-05
60 *4:26 *476:117 7.35354e-06
61 *4:41 *96:8 0
62 *4:41 *493:43 0
63 *4:45 *336:12 5.49212e-07
64 *4:45 *493:43 0
65 *4:51 *336:12 8.67664e-06
66 *4:51 *366:16 1.30519e-05
67 *4:51 *493:60 0
68 *4:51 *493:62 1.62361e-05
69 *4:72 *147:24 2.41555e-05
70 *4:72 *147:33 0
71 *4:72 *148:10 5.52807e-07
72 *4:72 *232:28 0
73 *4:72 *279:22 0
74 *4:72 *480:8 0
75 *4:83 *209:23 0
76 *4:91 *209:23 0
77 *4:91 *301:6 9.30483e-06
78 *4:104 *133:12 0
79 *4:104 *133:16 0
80 *4:104 *209:23 0
81 *4:104 *210:10 3.42044e-06
82 *4:104 *213:8 3.24654e-05
83 *4:104 *439:10 1.49407e-08
84 *4:110 *745:C2 7.61899e-06
85 *4:110 *43:21 1.1353e-05
86 *4:110 *103:8 2.8275e-06
87 *4:110 *276:14 1.48785e-05
88 *4:110 *483:10 1.73841e-05
89 *4:116 *745:C1 6.49184e-07
90 *4:116 *745:C2 7.9646e-06
91 *4:116 *375:14 1.36155e-06
92 *4:116 *483:28 2.47522e-06
*RES
1 *763:QN *4:6 34.4 
2 *4:6 *4:10 41.9793 
3 *4:10 *4:12 19.7885 
4 *4:12 *4:14 25.1368 
5 *4:14 *4:20 34.3464 
6 *4:20 *4:24 26.292 
7 *4:24 *4:26 14.9751 
8 *4:26 *541:A 17.2 
9 *4:26 *4:41 46.0848 
10 *4:41 *4:45 20.0158 
11 *4:45 *4:51 39.4112 
12 *4:51 *1014:A 17.2 
13 *4:45 *498:A 34.4 
14 *4:24 *545:A 17.2 
15 *4:14 *4:70 17.2 
16 *4:70 *4:72 33.2268 
17 *4:72 *637:A 35.4697 
18 *4:72 *4:83 6.75799 
19 *4:83 *4:91 41.0163 
20 *4:91 *723:A 46.701 
21 *4:83 *4:104 44.232 
22 *4:104 *4:110 45.2093 
23 *4:110 *4:116 46.701 
24 *4:116 *745:A1 41.073 
25 *4:12 *1020:A 17.2 
*END

*D_NET *5 0.000318945
*CONN
*I *496:A I *D INVx1_ASAP7_75t_SL
*I *980:A I *D BUFx3_ASAP7_75t_SL
*I *782:QN O *D DFFHQNx1_ASAP7_75t_SL
*CAP
1 *496:A 0
2 *980:A 0
3 *782:QN 1.26005e-05
4 *5:28 2.79533e-05
5 *5:22 3.16705e-05
6 *5:14 6.96782e-05
7 *5:10 7.85614e-05
8 *5:14 *71:20 1.37139e-06
9 *5:14 *149:164 0
10 *5:14 *458:169 4.75792e-05
11 *5:22 *280:8 2.41931e-06
12 *5:22 *302:8 2.19482e-06
13 *5:22 *477:43 2.03526e-06
14 *5:28 *34:12 4.24712e-06
15 *5:28 *91:8 0
16 *5:28 *458:163 2.62428e-05
17 *5:28 *477:39 0
18 *5:28 *477:43 1.23909e-05
*RES
1 *782:QN *5:10 40.1715 
2 *5:10 *5:14 41.6575 
3 *5:14 *5:22 36.8492 
4 *5:22 *5:28 36.429 
5 *5:28 *980:A 34.4 
6 *5:22 *496:A 17.2 
*END

*D_NET *6 9.25658e-05
*CONN
*I *621:A I *D INVx1_ASAP7_75t_SL
*I *781:QN O *D DFFHQNx1_ASAP7_75t_SL
*CAP
1 *621:A 0
2 *781:QN 3.81715e-05
3 *6:6 3.81715e-05
4 *6:6 *301:6 1.62227e-05
5 *6:6 *409:6 0
*RES
1 *781:QN *6:6 35.9189 
2 *6:6 *621:A 17.2 
*END

*D_NET *7 1.24191e-05
*CONN
*I *622:A I *D INVx1_ASAP7_75t_SL
*I *780:QN O *D DFFHQNx1_ASAP7_75t_SL
*CAP
1 *622:A 6.20953e-06
2 *780:QN 6.20953e-06
3 *622:A *300:10 0
*RES
1 *780:QN *622:A 37.0741 
*END

*D_NET *8 1.21696e-05
*CONN
*I *623:A I *D INVx1_ASAP7_75t_SL
*I *779:QN O *D DFFHQNx1_ASAP7_75t_SL
*CAP
1 *623:A 6.08481e-06
2 *779:QN 6.08481e-06
3 *623:A *299:10 0
*RES
1 *779:QN *623:A 37.0741 
*END

*D_NET *9 1.35482e-05
*CONN
*I *624:A I *D INVx1_ASAP7_75t_SL
*I *778:QN O *D DFFHQNx1_ASAP7_75t_SL
*CAP
1 *624:A 5.71171e-06
2 *778:QN 5.71171e-06
3 *624:A *298:14 2.12481e-06
*RES
1 *778:QN *624:A 37.0741 
*END

*D_NET *10 2.2723e-05
*CONN
*I *625:A I *D INVx1_ASAP7_75t_SL
*I *777:QN O *D DFFHQNx1_ASAP7_75t_SL
*CAP
1 *625:A 4.56906e-06
2 *777:QN 5.16267e-06
3 *10:8 9.73173e-06
4 *10:8 *146:72 3.25955e-06
5 *10:8 *210:54 0
*RES
1 *777:QN *10:8 37.779 
2 *10:8 *625:A 36.0045 
*END

*D_NET *11 3.99435e-05
*CONN
*I *626:A I *D INVx1_ASAP7_75t_SL
*I *776:QN O *D DFFHQNx1_ASAP7_75t_SL
*CAP
1 *626:A 0
2 *776:QN 1.67727e-05
3 *11:10 1.67727e-05
4 *11:10 *758:B 0
5 *11:10 *58:10 4.10928e-06
6 *11:10 *58:16 2.28884e-06
*RES
1 *776:QN *11:10 43.6621 
2 *11:10 *626:A 34.4 
*END

*D_NET *12 1.13607e-05
*CONN
*I *627:A I *D INVx1_ASAP7_75t_SL
*I *775:QN O *D DFFHQNx1_ASAP7_75t_SL
*CAP
1 *627:A 5.68035e-06
2 *775:QN 5.68035e-06
3 *627:A *295:10 0
*RES
1 *775:QN *627:A 37.0741 
*END

*D_NET *13 4.81803e-05
*CONN
*I *628:A I *D INVx1_ASAP7_75t_SL
*I *774:QN O *D DFFHQNx1_ASAP7_75t_SL
*CAP
1 *628:A 0
2 *774:QN 2.09079e-05
3 *13:10 2.09079e-05
4 *13:10 *96:8 4.41094e-06
5 *13:10 *146:8 0
6 *13:10 *476:46 7.58265e-07
7 *13:10 *493:43 1.19526e-06
*RES
1 *774:QN *13:10 47.831 
2 *13:10 *628:A 34.4 
*END

*D_NET *14 7.33811e-05
*CONN
*I *1016:A I *D BUFx3_ASAP7_75t_SL
*I *630:A I *D INVx1_ASAP7_75t_SL
*I *772:QN O *D DFFHQNx1_ASAP7_75t_SL
*CAP
1 *1016:A 4.89032e-06
2 *630:A 9.64873e-06
3 *772:QN 2.17664e-06
4 *14:10 1.45391e-05
5 *14:8 2.17664e-06
6 *630:A *484:20 6.7842e-07
7 *630:A *484:41 9.59239e-06
8 *1016:A *484:41 2.79851e-06
9 *14:8 *341:10 1.34402e-05
10 *14:8 *456:88 1.34402e-05
*RES
1 *772:QN *14:8 38.9053 
2 *14:8 *14:10 17.2 
3 *14:10 *630:A 24.1527 
4 *14:10 *1016:A 19.8741 
*END

*D_NET *15 0.000299165
*CONN
*I *631:A I *D INVx1_ASAP7_75t_SL
*I *1017:A I *D BUFx3_ASAP7_75t_SL
*I *771:QN O *D DFFHQNx1_ASAP7_75t_SL
*CAP
1 *631:A 1.72169e-05
2 *1017:A 1.31606e-05
3 *771:QN 6.22522e-06
4 *15:29 3.94739e-05
5 *15:25 6.75342e-05
6 *15:10 8.56494e-05
7 *15:8 3.34368e-05
8 *631:A *674:A1 7.58265e-07
9 *631:A *291:10 2.6409e-06
10 *1017:A *677:B 6.39567e-06
11 *15:8 *345:21 7.72307e-07
12 *15:25 *78:12 0
13 *15:25 *245:22 2.03526e-06
14 *15:29 *210:104 5.32397e-06
15 *15:29 *245:12 1.62854e-06
16 *15:29 *245:22 1.69127e-05
17 *15:29 *341:10 0
18 *15:29 *484:41 0
*RES
1 *771:QN *15:8 37.0741 
2 *15:8 *15:10 17.4581 
3 *15:10 *1017:A 42.6491 
4 *15:10 *15:25 34.8492 
5 *15:25 *15:29 34.6581 
6 *15:29 *631:A 42.4224 
*END

*D_NET *16 0.00023854
*CONN
*I *1031:A I *D BUFx3_ASAP7_75t_SL
*I *632:A I *D INVx1_ASAP7_75t_SL
*I *770:QN O *D DFFHQNx1_ASAP7_75t_SL
*CAP
1 *1031:A 6.10299e-07
2 *632:A 0
3 *770:QN 1.42672e-05
4 *16:20 1.06117e-06
5 *16:14 2.79144e-05
6 *16:10 4.17308e-05
7 *1031:A *31:31 2.9059e-07
8 *16:10 *770:CLK 1.01102e-06
9 *16:10 *31:31 2.64303e-05
10 *16:10 *397:127 9.52454e-06
11 *16:10 *397:133 1.25811e-06
12 *16:14 *290:12 0.000106889
13 *16:14 *291:24 9.47507e-07
14 *16:14 *484:22 0
15 *16:20 *28:33 4.69884e-06
16 *16:20 *456:56 1.90588e-06
*RES
1 *770:QN *16:10 47.0606 
2 *16:10 *16:14 34.515 
3 *16:14 *16:20 35.9956 
4 *16:20 *632:A 17.2 
5 *16:10 *1031:A 35.057 
*END

*D_NET *17 7.22166e-05
*CONN
*I *633:A I *D INVx1_ASAP7_75t_SL
*I *769:QN O *D DFFHQNx1_ASAP7_75t_SL
*CAP
1 *633:A 0
2 *769:QN 1.54519e-05
3 *17:10 1.54519e-05
4 *17:10 *990:A 5.53723e-06
5 *17:10 *34:18 0
6 *17:10 *210:77 3.45856e-05
7 *17:10 *458:163 1.18996e-06
*RES
1 *769:QN *17:10 47.831 
2 *17:10 *633:A 34.4 
*END

*D_NET *18 0.000165163
*CONN
*I *634:A I *D INVx1_ASAP7_75t_SL
*I *1018:A I *D BUFx3_ASAP7_75t_SL
*I *768:QN O *D DFFHQNx1_ASAP7_75t_SL
*CAP
1 *634:A 0
2 *1018:A 9.10518e-06
3 *768:QN 3.688e-05
4 *18:23 1.42241e-05
5 *18:8 6.02093e-05
6 *1018:A *336:106 2.45021e-07
7 *1018:A *340:41 2.8275e-06
8 *1018:A *475:10 3.38221e-06
9 *18:23 *275:10 1.76569e-05
10 *18:23 *336:106 7.21451e-07
11 *18:23 *475:10 1.99117e-05
*RES
1 *768:QN *18:8 48.8403 
2 *18:8 *1018:A 40.5098 
3 *18:8 *18:23 34.6581 
4 *18:23 *634:A 17.2 
*END

*D_NET *19 1.17736e-05
*CONN
*I *635:A I *D INVx1_ASAP7_75t_SL
*I *767:QN O *D DFFHQNx1_ASAP7_75t_SL
*CAP
1 *635:A 5.2549e-06
2 *767:QN 5.2549e-06
3 *635:A *287:6 1.26378e-06
*RES
1 *767:QN *635:A 37.0741 
*END

*D_NET *20 8.53832e-05
*CONN
*I *543:A I *D INVx1_ASAP7_75t_SL
*I *1019:A I *D BUFx3_ASAP7_75t_SL
*I *765:QN O *D DFFHQNx1_ASAP7_75t_SL
*CAP
1 *543:A 1.33054e-05
2 *1019:A 1.44578e-06
3 *765:QN 8.6073e-06
4 *20:8 2.33585e-05
5 *543:A *215:8 0
6 *543:A *336:57 3.2613e-05
7 *543:A *458:65 5.79724e-07
8 *543:A *477:8 3.73518e-07
9 *1019:A *215:8 0
10 *1019:A *336:57 5.09995e-06
*RES
1 *765:QN *20:8 37.0741 
2 *20:8 *1019:A 36.0895 
3 *20:8 *543:A 46.2265 
*END

*D_NET *21 0.000192243
*CONN
*I *547:B I *D AOI21x1_ASAP7_75t_SL
*I *542:A I *D NOR2x1_ASAP7_75t_SL
*I *764:QN O *D DFFHQNx1_ASAP7_75t_SL
*CAP
1 *547:B 8.08163e-06
2 *542:A 0
3 *764:QN 5.17411e-06
4 *21:14 1.44143e-05
5 *21:8 2.767e-05
6 *547:B *106:18 1.31716e-05
7 *547:B *378:21 1.182e-05
8 *21:14 *550:C 2.61531e-06
9 *21:14 *106:10 2.35211e-06
10 *21:14 *106:18 3.0215e-05
11 *21:14 *146:134 1.59615e-06
12 *21:14 *146:143 5.22376e-07
13 *21:14 *377:8 1.72763e-05
14 *21:14 *378:8 2.68658e-05
15 *21:14 *378:21 3.0215e-05
16 *3:10 *547:B 2.52755e-07
*RES
1 *764:QN *21:8 36.0045 
2 *21:8 *21:14 38.4586 
3 *21:14 *542:A 17.2 
4 *21:8 *547:B 41.5795 
*END

*D_NET *22 0.000250055
*CONN
*I *746:A I *D FAx1_ASAP7_75t_SL
*I *1034:A I *D BUFx3_ASAP7_75t_SL
*I *552:Y O *D INVx1_ASAP7_75t_SL
*CAP
1 *746:A 1.10042e-06
2 *1034:A 0
3 *552:Y 8.92014e-06
4 *22:28 2.03603e-05
5 *22:22 3.96049e-05
6 *22:14 3.65644e-05
7 *22:8 2.73404e-05
8 *746:A *493:68 3.37358e-06
9 *22:8 *71:26 7.84037e-07
10 *22:8 *79:10 0
11 *22:8 *416:38 1.09067e-06
12 *22:14 *24:14 2.03526e-06
13 *22:14 *79:16 9.33789e-06
14 *22:14 *438:10 9.9223e-06
15 *22:22 *746:CI 1.68784e-06
16 *22:22 *24:8 1.96598e-05
17 *22:22 *303:33 2.58414e-05
18 *22:22 *346:8 2.83874e-07
19 *22:28 *246:10 1.02693e-05
20 *22:28 *247:10 9.15354e-08
21 *22:28 *293:14 5.55931e-06
22 *22:28 *346:31 0
23 *22:28 *415:10 2.32626e-06
24 *22:28 *493:68 2.39014e-05
*RES
1 *552:Y *22:8 41.158 
2 *22:8 *22:14 49.9099 
3 *22:14 *22:22 49.4071 
4 *22:22 *22:28 35.0796 
5 *22:28 *1034:A 17.2 
6 *22:22 *746:A 18.8895 
*END

*D_NET *23 5.4197e-05
*CONN
*I *746:B I *D FAx1_ASAP7_75t_SL
*I *629:A I *D INVx1_ASAP7_75t_SL
*I *773:QN O *D DFFHQNx1_ASAP7_75t_SL
*CAP
1 *746:B 8.85484e-06
2 *629:A 1.36731e-05
3 *773:QN 4.43713e-06
4 *23:8 2.69651e-05
5 *629:A *346:31 0
6 *746:B *346:8 0
7 *746:B *346:31 0
8 *23:8 *493:62 2.66797e-07
*RES
1 *773:QN *23:8 36.0045 
2 *23:8 *629:A 43.4107 
3 *23:8 *746:B 22.8317 
*END

*D_NET *24 0.000176548
*CONN
*I *979:A I *D BUFx3_ASAP7_75t_SL
*I *502:A I *D INVx1_ASAP7_75t_SL
*I *746:CON O *D FAx1_ASAP7_75t_SL
*CAP
1 *979:A 0
2 *502:A 8.18016e-06
3 *746:CON 8.32325e-06
4 *24:14 2.70797e-05
5 *24:8 2.72228e-05
6 *502:A *554:B 1.32074e-05
7 *502:A *154:10 1.29755e-05
8 *502:A *416:6 3.65131e-06
9 *502:A *416:14 2.80323e-06
10 *502:A *478:86 2.66992e-06
11 *24:8 *303:33 2.32117e-06
12 *24:8 *346:8 3.74903e-06
13 *24:14 *65:12 1.15945e-06
14 *24:14 *154:10 5.09995e-06
15 *24:14 *303:33 1.66514e-05
16 *24:14 *303:41 8.06436e-06
17 *24:14 *346:8 5.52807e-07
18 *24:14 *476:77 5.49212e-07
19 *24:14 *494:58 1.05922e-05
20 *22:14 *24:14 2.03526e-06
21 *22:22 *24:8 1.96598e-05
*RES
1 *746:CON *24:8 43.4107 
2 *24:8 *24:14 34.01 
3 *24:14 *502:A 42.4224 
4 *24:8 *979:A 17.2 
*END

*D_NET *25 0.000754506
*CONN
*I *676:A I *D INVx1_ASAP7_75t_SL
*I *747:B I *D HAxp5_ASAP7_75t_SL
*I *528:B I *D AND4x1_ASAP7_75t_SL
*I *788:QN O *D DFFHQNx1_ASAP7_75t_SL
*CAP
1 *676:A 0
2 *747:B 0
3 *528:B 1.03643e-05
4 *788:QN 3.72953e-05
5 *25:41 3.57496e-05
6 *25:26 6.18564e-05
7 *25:20 7.3961e-05
8 *25:16 5.82185e-05
9 *25:14 7.45949e-05
10 *25:12 8.50751e-05
11 *25:8 4.77755e-05
12 *528:B *528:C 1.00935e-05
13 *528:B *134:10 2.78871e-06
14 *25:12 *651:B 2.70427e-06
15 *25:12 *679:A1 2.35211e-06
16 *25:12 *210:92 0
17 *25:12 *210:104 1.09067e-06
18 *25:12 *242:23 3.31686e-06
19 *25:14 *213:166 8.65476e-06
20 *25:14 *214:40 7.57397e-05
21 *25:20 *42:10 0
22 *25:20 *342:8 1.09067e-06
23 *25:20 *456:12 7.49326e-06
24 *25:20 *456:34 5.8503e-05
25 *25:26 *35:10 1.49407e-08
26 *25:26 *210:88 2.78655e-06
27 *25:26 *479:38 8.86767e-07
28 *25:26 *479:66 2.06826e-05
29 *25:41 *26:8 1.56713e-06
30 *25:41 *42:10 0
31 *25:41 *397:141 2.20028e-06
32 *25:41 *456:34 6.7649e-05
33 *25:41 *456:56 0
*RES
1 *788:QN *25:8 48.8403 
2 *25:8 *25:12 26.2107 
3 *25:12 *25:14 39.0422 
4 *25:14 *25:16 17.2 
5 *25:16 *25:20 39.4451 
6 *25:20 *25:26 35.1875 
7 *25:26 *528:B 41.8876 
8 *25:16 *25:41 46.9061 
9 *25:41 *747:B 17.2 
10 *25:12 *676:A 17.2 
*END

*D_NET *26 0.000255443
*CONN
*I *535:A1 I *D AOI21x1_ASAP7_75t_SL
*I *534:B I *D AND4x1_ASAP7_75t_SL
*I *526:B I *D OAI21x1_ASAP7_75t_SL
*I *747:CON O *D HAxp5_ASAP7_75t_SL
*CAP
1 *535:A1 0
2 *534:B 0
3 *526:B 0
4 *747:CON 1.3301e-05
5 *26:44 5.69062e-06
6 *26:31 1.06521e-05
7 *26:23 5.33684e-05
8 *26:10 5.1269e-05
9 *26:8 2.75442e-05
10 *26:10 *29:68 0
11 *26:10 *31:31 0
12 *26:10 *488:30 0
13 *26:23 *29:18 1.31716e-05
14 *26:23 *29:26 0
15 *26:23 *29:68 0
16 *26:23 *138:10 5.49212e-07
17 *26:23 *403:14 0
18 *26:23 *427:14 3.24742e-05
19 *26:23 *430:36 9.22732e-06
20 *26:23 *488:30 0
21 *26:31 *29:34 8.54745e-06
22 *26:31 *139:29 6.10236e-07
23 *26:31 *427:14 0
24 *26:31 *430:36 2.48419e-06
25 *26:31 *443:14 6.91714e-06
26 *26:44 *29:26 1.26641e-06
27 *26:44 *139:29 1.62504e-05
28 *26:44 *443:14 5.52807e-07
29 *25:41 *26:8 1.56713e-06
*RES
1 *747:CON *26:8 42.4224 
2 *26:8 *26:10 9.01066 
3 *26:10 *526:B 34.4 
4 *26:10 *26:23 42.8044 
5 *26:23 *26:31 41.6693 
6 *26:31 *534:B 17.2 
7 *26:23 *26:44 40.0405 
8 *26:44 *535:A1 17.2 
*END

*D_NET *27 0.000104282
*CONN
*I *1032:A I *D BUFx3_ASAP7_75t_SL
*I *747:SN O *D HAxp5_ASAP7_75t_SL
*CAP
1 *1032:A 6.63094e-06
2 *747:SN 6.1286e-06
3 *27:8 1.27595e-05
4 *1032:A *28:33 0
5 *1032:A *30:12 2.0613e-06
6 *1032:A *291:37 1.29983e-05
7 *1032:A *484:10 0
8 *27:8 *732:A1 5.22376e-07
9 *27:8 *732:A2 1.73158e-06
10 *27:8 *747:A 2.70479e-05
11 *27:8 *456:60 3.44014e-05
*RES
1 *747:SN *27:8 44.5617 
2 *27:8 *1032:A 40.0317 
*END

*D_NET *28 0.000404
*CONN
*I *748:A I *D HAxp5_ASAP7_75t_SL
*I *1013:A I *D BUFx3_ASAP7_75t_SL
*I *787:QN O *D DFFHQNx1_ASAP7_75t_SL
*CAP
1 *748:A 0
2 *1013:A 4.87652e-06
3 *787:QN 2.44871e-05
4 *28:33 3.16931e-05
5 *28:22 5.27e-05
6 *28:18 5.66048e-05
7 *28:12 4.24733e-05
8 *28:6 2.6486e-05
9 *1013:A *477:112 1.25483e-05
10 *28:6 *150:6 6.21781e-05
11 *28:6 *239:14 4.26578e-06
12 *28:12 *210:104 7.77987e-06
13 *28:12 *245:12 7.6492e-06
14 *28:18 *150:18 2.01511e-05
15 *28:18 *214:34 0
16 *28:18 *238:14 1.49407e-08
17 *28:18 *341:23 6.74052e-06
18 *28:18 *481:74 9.94604e-06
19 *28:22 *671:A 1.01102e-06
20 *28:22 *731:C1 1.35684e-06
21 *28:22 *238:8 2.52755e-07
22 *28:22 *477:112 1.06092e-05
23 *28:33 *732:A1 4.85405e-06
24 *28:33 *733:B2 0
25 *28:33 *30:12 1.04585e-07
26 *28:33 *290:8 3.04043e-06
27 *28:33 *291:37 0
28 *28:33 *340:18 3.17441e-06
29 *28:33 *456:34 0
30 *28:33 *456:56 1.47033e-06
31 *28:33 *456:99 1.35839e-06
32 *28:33 *477:133 1.47405e-06
33 *1032:A *28:33 0
34 *16:20 *28:33 4.69884e-06
*RES
1 *787:QN *28:6 35.9189 
2 *28:6 *28:12 37.122 
3 *28:12 *28:18 35.3906 
4 *28:18 *28:22 27.3617 
5 *28:22 *1013:A 20.9438 
6 *28:22 *28:33 39.7266 
7 *28:33 *748:A 34.4 
*END

*D_NET *29 0.000419387
*CONN
*I *532:A1 I *D AO21x1_ASAP7_75t_SL
*I *525:B I *D OA21x2_ASAP7_75t_SL
*I *618:B I *D OAI21x1_ASAP7_75t_SL
*I *534:A I *D AND4x1_ASAP7_75t_SL
*I *748:CON O *D HAxp5_ASAP7_75t_SL
*CAP
1 *532:A1 0
2 *525:B 0
3 *618:B 5.96528e-06
4 *534:A 3.87235e-06
5 *748:CON 3.25223e-06
6 *29:68 7.00963e-06
7 *29:53 2.15949e-05
8 *29:34 3.33375e-05
9 *29:26 3.68668e-05
10 *29:20 3.88912e-05
11 *29:18 1.10642e-05
12 *29:12 5.14163e-05
13 *29:8 5.24546e-05
14 *534:A *534:C 1.08167e-05
15 *618:B *618:A1 2.61188e-06
16 *29:8 *30:12 8.42151e-06
17 *29:8 *456:99 0
18 *29:12 *526:A2 8.23084e-06
19 *29:12 *488:22 3.74496e-05
20 *29:20 *403:22 9.67251e-06
21 *29:26 *31:31 2.61792e-06
22 *29:26 *33:14 2.98814e-07
23 *29:26 *138:18 8.71771e-06
24 *29:26 *139:29 1.60287e-05
25 *29:26 *202:10 2.74606e-06
26 *29:26 *403:22 1.03991e-05
27 *29:26 *427:14 0
28 *29:34 *534:C 0
29 *29:34 *33:14 0
30 *29:34 *139:29 3.25332e-06
31 *29:34 *443:14 2.12201e-06
32 *29:53 *33:14 0
33 *29:53 *186:28 5.10152e-07
34 *29:53 *430:36 1.02633e-06
35 *29:53 *443:27 0
36 *29:68 *31:31 8.60306e-07
37 *29:68 *403:22 4.89331e-06
38 *26:10 *29:68 0
39 *26:23 *29:18 1.31716e-05
40 *26:23 *29:26 0
41 *26:23 *29:68 0
42 *26:31 *29:34 8.54745e-06
43 *26:44 *29:26 1.26641e-06
*RES
1 *748:CON *29:8 37.2158 
2 *29:8 *29:12 41.2671 
3 *29:12 *29:18 38.9053 
4 *29:18 *29:20 6.95272 
5 *29:20 *29:26 35.1363 
6 *29:26 *29:34 43.2123 
7 *29:34 *534:A 37.609 
8 *29:34 *29:53 42.3263 
9 *29:53 *618:B 38.1438 
10 *29:20 *29:68 41.158 
11 *29:68 *525:B 17.2 
12 *29:18 *532:A1 17.2 
*END

*D_NET *30 0.000135173
*CONN
*I *943:A I *D BUFx3_ASAP7_75t_SL
*I *748:SN O *D HAxp5_ASAP7_75t_SL
*CAP
1 *943:A 0
2 *748:SN 0
3 *30:12 2.42414e-05
4 *30:6 2.42414e-05
5 *30:12 *344:6 1.11142e-05
6 *30:12 *403:6 2.68404e-05
7 *30:12 *403:40 0
8 *30:12 *456:99 0
9 *30:12 *484:20 0
10 *30:12 *488:10 9.93857e-06
11 *30:12 *488:46 2.82101e-05
12 *1032:A *30:12 2.0613e-06
13 *28:33 *30:12 1.04585e-07
14 *29:8 *30:12 8.42151e-06
*RES
1 *748:SN *30:6 34.4 
2 *30:6 *30:12 43.8069 
3 *30:12 *943:A 17.2 
*END

*D_NET *31 0.000491095
*CONN
*I *749:A I *D HAxp5_ASAP7_75t_SL
*I *1012:A I *D BUFx3_ASAP7_75t_SL
*I *786:QN O *D DFFHQNx1_ASAP7_75t_SL
*CAP
1 *749:A 1.48468e-05
2 *1012:A 0
3 *786:QN 3.95875e-05
4 *31:31 4.29141e-05
5 *31:22 2.05139e-05
6 *31:16 4.85812e-05
7 *31:14 1.5619e-05
8 *31:6 5.52065e-05
9 *749:A *32:14 7.97634e-06
10 *31:6 *397:133 9.75735e-06
11 *31:6 *456:38 0
12 *31:6 *456:56 0
13 *31:14 *290:12 3.62796e-06
14 *31:14 *340:14 4.44257e-05
15 *31:22 *731:B2 4.57677e-07
16 *31:22 *38:12 2.07807e-05
17 *31:22 *92:8 0
18 *31:22 *282:8 0
19 *31:22 *397:102 1.2903e-05
20 *31:22 *397:110 8.07162e-06
21 *31:22 *397:127 2.55432e-05
22 *31:22 *470:16 2.10126e-05
23 *31:31 *731:B2 5.01362e-06
24 *31:31 *32:8 8.36385e-06
25 *31:31 *139:10 1.09566e-05
26 *31:31 *290:31 1.80596e-06
27 *31:31 *403:22 2.03503e-05
28 *31:31 *427:50 2.25802e-05
29 *1031:A *31:31 2.9059e-07
30 *16:10 *31:31 2.64303e-05
31 *26:10 *31:31 0
32 *29:26 *31:31 2.61792e-06
33 *29:68 *31:31 8.60306e-07
*RES
1 *786:QN *31:6 35.9189 
2 *31:6 *31:14 43.0078 
3 *31:14 *31:16 17.2 
4 *31:16 *31:22 36.5052 
5 *31:22 *1012:A 17.2 
6 *31:16 *31:31 48.268 
7 *31:31 *749:A 24.1527 
*END

*D_NET *32 0.000181613
*CONN
*I *986:A I *D BUFx3_ASAP7_75t_SL
*I *524:B I *D OA21x2_ASAP7_75t_SL
*I *749:CON O *D HAxp5_ASAP7_75t_SL
*CAP
1 *986:A 0
2 *524:B 1.5681e-06
3 *749:CON 1.52851e-06
4 *32:29 2.01987e-05
5 *32:14 4.12507e-05
6 *32:8 2.10124e-05
7 *524:B *35:41 7.84037e-07
8 *524:B *199:10 5.17387e-06
9 *32:8 *139:10 8.36385e-06
10 *32:14 *35:33 2.31575e-05
11 *32:14 *35:41 2.0895e-06
12 *32:14 *290:31 2.03526e-06
13 *32:29 *199:10 2.15078e-05
14 *32:29 *199:23 8.06436e-06
15 *32:29 *201:14 6.31056e-06
16 *32:29 *431:60 2.22736e-06
17 *749:A *32:14 7.97634e-06
18 *31:31 *32:8 8.36385e-06
*RES
1 *749:CON *32:8 37.2158 
2 *32:8 *32:14 49.9099 
3 *32:14 *524:B 36.0895 
4 *32:14 *32:29 34.01 
5 *32:29 *986:A 17.2 
*END

*D_NET *33 0.000105918
*CONN
*I *965:A I *D BUFx3_ASAP7_75t_SL
*I *749:SN O *D HAxp5_ASAP7_75t_SL
*CAP
1 *965:A 0
2 *749:SN 2.98259e-06
3 *33:14 3.19964e-05
4 *33:8 3.49789e-05
5 *33:8 *403:22 2.28976e-06
6 *33:14 *595:B 0
7 *33:14 *618:A1 5.51397e-07
8 *33:14 *138:18 1.12894e-06
9 *33:14 *139:29 0
10 *33:14 *140:10 1.30791e-05
11 *33:14 *202:10 1.16704e-05
12 *33:14 *427:14 6.94205e-06
13 *29:26 *33:14 2.98814e-07
14 *29:34 *33:14 0
15 *29:53 *33:14 0
*RES
1 *749:SN *33:8 36.0045 
2 *33:8 *33:14 40.2048 
3 *33:14 *965:A 17.2 
*END

*D_NET *34 0.000278508
*CONN
*I *656:A I *D INVx1_ASAP7_75t_SL
*I *529:A I *D AND4x1_ASAP7_75t_SL
*I *750:A I *D HAxp5_ASAP7_75t_SL
*I *785:QN O *D DFFHQNx1_ASAP7_75t_SL
*CAP
1 *656:A 0
2 *529:A 0
3 *750:A 1.61944e-05
4 *785:QN 3.29167e-05
5 *34:22 1.84842e-05
6 *34:18 2.5995e-05
7 *34:12 5.68384e-05
8 *34:8 6.605e-05
9 *750:A *135:6 7.72307e-07
10 *750:A *289:23 6.29754e-06
11 *34:8 *339:25 5.0551e-07
12 *34:12 *91:8 0
13 *34:12 *146:161 2.5698e-06
14 *34:12 *225:8 6.88103e-06
15 *34:12 *436:12 9.46595e-06
16 *34:12 *458:163 1.46419e-06
17 *34:18 *783:CLK 3.56648e-06
18 *34:18 *990:A 7.43024e-06
19 *34:18 *40:18 2.20128e-06
20 *34:18 *289:23 1.67815e-06
21 *34:18 *436:12 1.0817e-05
22 *34:18 *458:163 3.62704e-06
23 *34:22 *135:6 5.0551e-07
24 *5:28 *34:12 4.24712e-06
25 *17:10 *34:18 0
*RES
1 *785:QN *34:8 47.7706 
2 *34:8 *34:12 43.1056 
3 *34:12 *34:18 38.4586 
4 *34:18 *34:22 18.8045 
5 *34:22 *750:A 27.3617 
6 *34:22 *529:A 17.2 
7 *34:12 *656:A 17.2 
*END

*D_NET *35 0.000785486
*CONN
*I *524:A1 I *D OA21x2_ASAP7_75t_SL
*I *985:A I *D BUFx3_ASAP7_75t_SL
*I *533:A1 I *D AO21x1_ASAP7_75t_SL
*I *750:CON O *D HAxp5_ASAP7_75t_SL
*CAP
1 *524:A1 0
2 *985:A 0
3 *533:A1 2.69485e-06
4 *750:CON 5.57718e-06
5 *35:57 2.80737e-05
6 *35:53 3.80132e-05
7 *35:47 4.02495e-05
8 *35:41 5.10653e-05
9 *35:33 4.8467e-05
10 *35:18 4.60999e-05
11 *35:16 3.14636e-05
12 *35:10 6.65012e-05
13 *35:8 5.63081e-05
14 *533:A1 *670:A1 7.63254e-07
15 *533:A1 *487:8 2.52755e-07
16 *35:8 *289:23 9.08513e-06
17 *35:10 *731:B2 7.73798e-06
18 *35:10 *36:8 0
19 *35:10 *36:16 3.82736e-06
20 *35:10 *36:24 3.41251e-05
21 *35:10 *134:10 2.83075e-06
22 *35:10 *135:14 5.06565e-06
23 *35:10 *137:20 2.23522e-05
24 *35:10 *397:22 1.46086e-05
25 *35:10 *397:102 0.000109225
26 *35:10 *397:127 1.56599e-05
27 *35:10 *410:27 4.62374e-07
28 *35:10 *410:35 3.14372e-05
29 *35:10 *470:20 1.18996e-06
30 *35:16 *731:B2 2.03526e-06
31 *35:16 *214:44 1.40419e-08
32 *35:18 *36:24 6.57673e-06
33 *35:18 *76:8 6.68208e-06
34 *35:18 *236:10 0
35 *35:33 *610:C 4.68554e-06
36 *35:33 *670:A1 8.06436e-06
37 *35:33 *36:24 2.22736e-06
38 *35:33 *76:8 1.09842e-06
39 *35:33 *130:10 1.84666e-05
40 *35:33 *199:10 0
41 *35:33 *290:31 1.49407e-08
42 *35:33 *427:42 2.0915e-06
43 *35:41 *975:A 1.59615e-06
44 *35:41 *199:10 5.79724e-07
45 *35:47 *975:A 5.8332e-06
46 *35:47 *343:21 5.52807e-07
47 *35:47 *428:93 1.83949e-05
48 *35:53 *975:A 2.79851e-06
49 *35:57 *343:21 0
50 *35:57 *428:93 3.95845e-06
51 *35:57 *432:20 6.33206e-07
52 *524:B *35:41 7.84037e-07
53 *25:26 *35:10 1.49407e-08
54 *32:14 *35:33 2.31575e-05
55 *32:14 *35:41 2.0895e-06
*RES
1 *750:CON *35:8 37.0741 
2 *35:8 *35:10 59.6956 
3 *35:10 *35:16 40.2831 
4 *35:16 *35:18 12.9528 
5 *35:18 *533:A1 36.0045 
6 *35:18 *35:33 42.7372 
7 *35:33 *35:41 45.2382 
8 *35:41 *35:47 33.5565 
9 *35:47 *35:53 38.1438 
10 *35:53 *35:57 38.6003 
11 *35:57 *985:A 17.2 
12 *35:41 *524:A1 17.2 
*END

*D_NET *36 0.000486847
*CONN
*I *974:A I *D BUFx3_ASAP7_75t_SL
*I *533:A2 I *D AO21x1_ASAP7_75t_SL
*I *750:SN O *D HAxp5_ASAP7_75t_SL
*CAP
1 *974:A 0
2 *533:A2 1.93297e-06
3 *750:SN 1.01751e-05
4 *36:24 3.87647e-05
5 *36:22 4.35757e-05
6 *36:16 3.8266e-05
7 *36:10 3.15221e-05
8 *36:8 1.01751e-05
9 *533:A2 *487:8 5.41446e-06
10 *36:8 *137:20 0
11 *36:8 *210:77 2.66544e-05
12 *36:16 *666:A1 1.4927e-05
13 *36:16 *135:14 6.7842e-07
14 *36:16 *142:8 1.59615e-06
15 *36:16 *147:122 5.21252e-07
16 *36:16 *210:77 0
17 *36:16 *397:22 1.41369e-05
18 *36:16 *397:102 4.0423e-05
19 *36:16 *431:10 9.26382e-06
20 *36:16 *469:12 1.12374e-05
21 *36:22 *597:A 1.07377e-06
22 *36:22 *401:8 1.66828e-05
23 *36:24 *731:B2 3.98745e-05
24 *36:24 *236:10 0
25 *36:24 *290:31 1.51399e-05
26 *36:24 *470:20 6.50145e-05
27 *36:24 *477:126 3.04043e-06
28 *35:10 *36:8 0
29 *35:10 *36:16 3.82736e-06
30 *35:10 *36:24 3.41251e-05
31 *35:18 *36:24 6.57673e-06
32 *35:33 *36:24 2.22736e-06
*RES
1 *750:SN *36:8 43.4107 
2 *36:8 *36:10 17.2 
3 *36:10 *36:16 45.6664 
4 *36:16 *36:22 39.2134 
5 *36:22 *36:24 46.1796 
6 *36:24 *533:A2 36.0045 
7 *36:10 *974:A 17.2 
*END

*D_NET *37 0.000507679
*CONN
*I *1015:A I *D BUFx3_ASAP7_75t_SL
*I *751:B I *D HAxp5_ASAP7_75t_SL
*I *784:QN O *D DFFHQNx1_ASAP7_75t_SL
*CAP
1 *1015:A 0
2 *751:B 6.80779e-06
3 *784:QN 5.40034e-05
4 *37:26 2.89991e-05
5 *37:22 3.6377e-05
6 *37:18 5.41801e-05
7 *37:12 4.78758e-05
8 *37:6 6.18848e-05
9 *751:B *39:6 1.02506e-06
10 *37:12 *210:92 1.49407e-08
11 *37:18 *210:88 9.23448e-05
12 *37:18 *397:87 1.88168e-06
13 *37:22 *768:CLK 4.71938e-05
14 *37:22 *281:8 2.92476e-07
15 *37:22 *397:79 2.62922e-05
16 *37:22 *456:12 1.32074e-05
17 *37:26 *653:A 7.86436e-06
18 *37:26 *653:B 6.54505e-06
19 *37:26 *340:18 1.34466e-06
20 *37:26 *456:12 2.02432e-06
21 *37:26 *456:34 3.3563e-06
22 *37:26 *477:92 1.2556e-05
23 *37:26 *477:100 1.60814e-06
*RES
1 *784:QN *37:6 39.1278 
2 *37:6 *37:12 38.8115 
3 *37:12 *37:18 35.8214 
4 *37:18 *37:22 34.8492 
5 *37:22 *37:26 34.6581 
6 *37:26 *751:B 38.1438 
7 *37:22 *1015:A 17.2 
*END

*D_NET *38 0.000462831
*CONN
*I *517:B I *D AND2x2_ASAP7_75t_SL
*I *984:A I *D BUFx3_ASAP7_75t_SL
*I *751:CON O *D HAxp5_ASAP7_75t_SL
*CAP
1 *517:B 4.1847e-06
2 *984:A 9.57937e-06
3 *751:CON 1.5217e-05
4 *38:33 1.2212e-05
5 *38:14 1.76067e-05
6 *38:12 5.83661e-05
7 *38:10 5.83661e-05
8 *38:8 1.5217e-05
9 *517:B *517:A 3.81627e-06
10 *517:B *123:10 1.96943e-05
11 *517:B *187:8 1.02506e-06
12 *984:A *39:35 1.89667e-07
13 *984:A *123:10 0
14 *984:A *133:8 0
15 *984:A *141:18 0
16 *984:A *440:10 0
17 *38:8 *340:18 0
18 *38:8 *456:34 4.48688e-05
19 *38:12 *517:A 5.41446e-06
20 *38:12 *149:143 1.66706e-05
21 *38:12 *213:166 0.000149568
22 *38:12 *470:16 7.63254e-06
23 *38:33 *39:35 2.10815e-06
24 *38:33 *133:8 3.13755e-07
25 *31:22 *38:12 2.07807e-05
*RES
1 *751:CON *38:8 49.6055 
2 *38:8 *38:10 17.2 
3 *38:10 *38:12 54.0173 
4 *38:12 *38:14 17.2 
5 *38:14 *984:A 41.158 
6 *38:14 *38:33 38.001 
7 *38:33 *517:B 40.2831 
*END

*D_NET *39 0.000693803
*CONN
*I *972:A I *D BUFx3_ASAP7_75t_SL
*I *508:A I *D INVx1_ASAP7_75t_SL
*I *973:A I *D BUFx3_ASAP7_75t_SL
*I *751:SN O *D HAxp5_ASAP7_75t_SL
*CAP
1 *972:A 0
2 *508:A 2.70187e-06
3 *973:A 0
4 *751:SN 4.2874e-05
5 *39:68 6.61872e-06
6 *39:55 2.50002e-05
7 *39:51 4.11059e-05
8 *39:43 3.35886e-05
9 *39:35 3.74745e-05
10 *39:18 3.69659e-05
11 *39:14 4.15739e-05
12 *39:10 5.10874e-05
13 *39:6 6.00413e-05
14 *508:A *520:B 5.41446e-06
15 *508:A *44:23 5.85387e-06
16 *508:A *114:10 2.20493e-06
17 *39:6 *477:104 1.29877e-05
18 *39:10 *597:B 6.76305e-06
19 *39:10 *42:10 5.53445e-05
20 *39:10 *234:8 1.35961e-06
21 *39:14 *730:A 8.65792e-06
22 *39:14 *213:166 9.50207e-05
23 *39:14 *469:10 5.62196e-06
24 *39:18 *149:149 1.68705e-05
25 *39:18 *236:10 1.09788e-05
26 *39:18 *431:60 1.12894e-06
27 *39:35 *42:14 1.2106e-05
28 *39:35 *123:10 0
29 *39:35 *149:149 8.29207e-07
30 *39:35 *236:10 1.04612e-06
31 *39:35 *440:10 0
32 *39:35 *441:14 7.31047e-06
33 *39:43 *123:10 6.41585e-07
34 *39:43 *132:28 2.11853e-06
35 *39:51 *441:26 1.53536e-05
36 *39:55 *527:A2 5.77141e-06
37 *39:55 *527:B 3.81627e-06
38 *39:55 *44:23 3.90258e-06
39 *39:55 *114:10 2.03526e-06
40 *39:68 *44:10 2.01457e-05
41 *39:68 *44:23 4.83862e-06
42 *39:68 *122:16 3.32579e-06
43 *39:68 *335:21 0
44 *751:B *39:6 1.02506e-06
45 *984:A *39:35 1.89667e-07
46 *38:33 *39:35 2.10815e-06
*RES
1 *751:SN *39:6 35.9189 
2 *39:6 *39:10 35.7845 
3 *39:10 *39:14 45.5457 
4 *39:14 *39:18 26.2107 
5 *39:18 *973:A 34.4 
6 *39:18 *39:35 48.7732 
7 *39:35 *39:43 39.364 
8 *39:43 *39:51 44.9557 
9 *39:51 *39:55 28.4313 
10 *39:55 *508:A 19.8741 
11 *39:55 *39:68 42.2843 
12 *39:68 *972:A 17.2 
*END

*D_NET *40 0.000424321
*CONN
*I *647:A I *D INVx1_ASAP7_75t_SL
*I *752:B I *D HAxp5_ASAP7_75t_SL
*I *529:C I *D AND4x1_ASAP7_75t_SL
*I *783:QN O *D DFFHQNx1_ASAP7_75t_SL
*CAP
1 *647:A 0
2 *752:B 1.45504e-05
3 *529:C 0
4 *783:QN 1.74695e-05
5 *40:29 4.12148e-05
6 *40:18 9.23993e-05
7 *40:12 8.34636e-05
8 *40:8 3.51982e-05
9 *752:B *41:6 3.54656e-05
10 *752:B *42:8 5.19475e-06
11 *752:B *147:122 8.65792e-06
12 *752:B *287:40 6.1473e-07
13 *752:B *397:22 5.96787e-07
14 *40:12 *336:93 4.42421e-06
15 *40:12 *455:35 0
16 *40:18 *726:A1 2.88806e-06
17 *40:18 *726:B1 3.13426e-06
18 *40:18 *726:B2 1.36155e-06
19 *40:18 *135:6 0
20 *40:18 *218:12 3.65663e-06
21 *40:18 *436:12 5.00557e-06
22 *40:18 *481:44 3.90258e-06
23 *40:18 *481:53 2.29378e-05
24 *40:29 *287:40 2.49851e-06
25 *40:29 *289:23 0
26 *40:29 *397:26 0
27 *40:29 *397:79 0
28 *40:29 *436:12 8.71771e-06
29 *40:29 *472:22 2.87676e-05
30 *40:29 *477:77 0
31 *40:29 *477:92 0
32 *34:18 *40:18 2.20128e-06
*RES
1 *783:QN *40:8 41.3527 
2 *40:8 *40:12 29.0265 
3 *40:12 *40:18 48.3049 
4 *40:18 *529:C 34.4 
5 *40:18 *40:29 38.0371 
6 *40:29 *752:B 29.501 
7 *40:12 *647:A 17.2 
*END

*D_NET *41 0.000461499
*CONN
*I *517:A I *D AND2x2_ASAP7_75t_SL
*I *983:A I *D BUFx3_ASAP7_75t_SL
*I *752:CON O *D HAxp5_ASAP7_75t_SL
*CAP
1 *517:A 8.09673e-06
2 *983:A 0
3 *752:CON 0
4 *41:10 5.00213e-05
5 *41:6 8.89847e-05
6 *41:4 4.70601e-05
7 *517:A *123:10 2.0895e-06
8 *517:A *133:8 0
9 *517:A *141:18 0
10 *517:A *187:8 5.25794e-06
11 *41:6 *658:A 1.00854e-05
12 *41:6 *940:A 2.26674e-05
13 *41:6 *978:A 1.95129e-06
14 *41:6 *141:83 8.72403e-06
15 *41:6 *147:122 3.92497e-06
16 *41:6 *212:23 2.48004e-05
17 *41:6 *287:40 4.18905e-06
18 *41:6 *397:16 3.41442e-05
19 *41:6 *397:22 5.00848e-06
20 *41:6 *431:14 7.09814e-05
21 *41:10 *720:A2 0
22 *41:10 *133:8 0
23 *41:10 *141:18 0
24 *41:10 *187:14 3.32579e-06
25 *41:10 *209:57 9.15354e-08
26 *41:10 *209:72 0
27 *41:10 *402:8 2.53979e-05
28 *517:B *517:A 3.81627e-06
29 *752:B *41:6 3.54656e-05
30 *38:12 *517:A 5.41446e-06
*RES
1 *752:CON *41:4 17.2 
2 *41:4 *41:6 42.2512 
3 *41:6 *41:10 49.3005 
4 *41:10 *983:A 34.4 
5 *41:10 *517:A 43.0422 
*END

*D_NET *42 0.000784367
*CONN
*I *515:A I *D NOR2x1_ASAP7_75t_SL
*I *971:A I *D BUFx3_ASAP7_75t_SL
*I *752:SN O *D HAxp5_ASAP7_75t_SL
*CAP
1 *515:A 0
2 *971:A 0
3 *752:SN 3.34419e-06
4 *42:47 8.7436e-06
5 *42:39 6.60579e-05
6 *42:37 9.17002e-05
7 *42:26 6.16772e-05
8 *42:20 3.24535e-05
9 *42:14 4.48533e-05
10 *42:10 9.2213e-05
11 *42:8 5.58662e-05
12 *42:10 *92:8 4.43863e-07
13 *42:10 *147:122 0
14 *42:10 *147:139 8.14361e-06
15 *42:10 *234:8 0
16 *42:10 *282:8 0
17 *42:10 *336:116 1.09842e-06
18 *42:10 *342:8 9.48496e-06
19 *42:10 *456:12 0
20 *42:10 *477:77 6.85928e-07
21 *42:10 *479:66 1.59095e-06
22 *42:14 *340:14 0.000130761
23 *42:14 *477:120 2.22283e-05
24 *42:20 *440:10 1.20066e-05
25 *42:20 *441:20 0
26 *42:26 *770:CLK 1.01102e-06
27 *42:26 *123:18 0
28 *42:26 *123:31 0
29 *42:26 *127:10 0
30 *42:26 *428:12 1.76928e-06
31 *42:26 *428:80 2.02204e-06
32 *42:37 *127:10 0
33 *42:37 *179:20 0
34 *42:37 *179:31 2.18135e-06
35 *42:37 *180:10 0
36 *42:37 *428:12 5.67735e-06
37 *42:37 *428:80 0
38 *42:37 *428:93 0
39 *42:37 *440:18 0
40 *42:39 *440:22 1.36688e-05
41 *42:47 *968:A 8.52021e-06
42 *42:47 *121:12 5.85387e-06
43 *42:47 *121:25 5.37866e-07
44 *42:47 *354:23 2.71272e-05
45 *752:B *42:8 5.19475e-06
46 *25:20 *42:10 0
47 *25:41 *42:10 0
48 *39:10 *42:10 5.53445e-05
49 *39:35 *42:14 1.2106e-05
*RES
1 *752:SN *42:8 36.0045 
2 *42:8 *42:10 43.0822 
3 *42:10 *42:14 42.3068 
4 *42:14 *42:20 38.6237 
5 *42:20 *42:26 35.5824 
6 *42:26 *971:A 34.4 
7 *42:26 *42:37 41.9793 
8 *42:37 *42:39 33.694 
9 *42:39 *42:47 45.0151 
10 *42:47 *515:A 17.2 
*END

*D_NET *43 0.000155011
*CONN
*I *753:A I *D HAxp5_ASAP7_75t_SL
*I *1004:A I *D BUFx3_ASAP7_75t_SL
*I *797:QN O *D DFFHQNx1_ASAP7_75t_SL
*CAP
1 *753:A 0
2 *1004:A 0
3 *797:QN 4.73808e-06
4 *43:21 3.24752e-05
5 *43:12 2.46907e-05
6 *43:8 6.19039e-05
7 *43:8 *454:6 0
8 *43:12 *147:54 6.72662e-07
9 *43:12 *285:10 0
10 *43:12 *493:35 1.04735e-05
11 *43:21 *285:10 0
12 *43:21 *301:25 0
13 *43:21 *437:10 3.88042e-07
14 *43:21 *437:79 4.62887e-06
15 *43:21 *493:33 1.60814e-06
16 *43:21 *493:35 2.07851e-06
17 *4:110 *43:21 1.1353e-05
*RES
1 *797:QN *43:8 36.0045 
2 *43:8 *43:12 35.7845 
3 *43:12 *1004:A 17.2 
4 *43:8 *43:21 37.474 
5 *43:21 *753:A 17.2 
*END

*D_NET *44 0.00028176
*CONN
*I *591:A2 I *D OA21x2_ASAP7_75t_SL
*I *520:B I *D OA21x2_ASAP7_75t_SL
*I *753:CON O *D HAxp5_ASAP7_75t_SL
*CAP
1 *591:A2 0
2 *520:B 1.1047e-05
3 *753:CON 0
4 *44:23 2.9252e-05
5 *44:10 6.53421e-05
6 *44:6 2.50431e-05
7 *520:B *527:A2 5.85387e-06
8 *44:10 *527:A2 1.66659e-05
9 *44:10 *45:8 0
10 *44:10 *122:16 1.6136e-06
11 *44:10 *335:21 1.37455e-06
12 *44:10 *408:33 8.33296e-06
13 *44:10 *479:11 3.61852e-06
14 *44:10 *479:32 2.95425e-06
15 *44:23 *522:B1 0
16 *44:23 *527:A2 7.57325e-06
17 *44:23 *114:10 6.94376e-06
18 *44:23 *122:10 5.78288e-06
19 *44:23 *122:16 4.43244e-06
20 *44:23 *125:27 8.06436e-06
21 *44:23 *126:8 0
22 *44:23 *126:16 1.2903e-05
23 *44:23 *160:41 0
24 *44:23 *179:10 1.80102e-05
25 *44:23 *335:21 0
26 *44:23 *428:37 1.67815e-06
27 *44:23 *428:50 5.49212e-07
28 *44:23 *441:26 4.5698e-06
29 *508:A *520:B 5.41446e-06
30 *508:A *44:23 5.85387e-06
31 *39:55 *44:23 3.90258e-06
32 *39:68 *44:10 2.01457e-05
33 *39:68 *44:23 4.83862e-06
*RES
1 *753:CON *44:6 34.4 
2 *44:6 *44:10 40.853 
3 *44:10 *520:B 24.1527 
4 *44:10 *44:23 45.7798 
5 *44:23 *591:A2 34.4 
*END

*D_NET *45 1.91614e-05
*CONN
*I *970:A I *D BUFx3_ASAP7_75t_SL
*I *753:SN O *D HAxp5_ASAP7_75t_SL
*CAP
1 *970:A 2.81977e-06
2 *753:SN 6.50069e-06
3 *45:8 9.32046e-06
4 *970:A *433:8 5.0551e-07
5 *45:8 *479:32 1.49407e-08
6 *44:10 *45:8 0
*RES
1 *753:SN *45:8 38.9053 
2 *45:8 *970:A 36.0045 
*END

*D_NET *46 0.000188759
*CONN
*I *754:B I *D HAxp5_ASAP7_75t_SL
*I *1005:A I *D BUFx3_ASAP7_75t_SL
*I *796:QN O *D DFFHQNx1_ASAP7_75t_SL
*CAP
1 *754:B 1.42788e-05
2 *1005:A 0
3 *796:QN 8.07811e-06
4 *46:10 2.36347e-05
5 *46:6 4.59916e-05
6 *754:B *422:12 3.85237e-05
7 *46:6 *422:12 9.30483e-06
8 *46:6 *453:6 4.41457e-06
9 *46:10 *113:10 0
10 *46:10 *146:95 0
11 *46:10 *159:10 0
12 *46:10 *159:33 2.27142e-05
13 *46:10 *453:31 2.18185e-05
*RES
1 *796:QN *46:6 23.0831 
2 *46:6 *46:10 41.9793 
3 *46:10 *1005:A 34.4 
4 *46:6 *754:B 28.4313 
*END

*D_NET *47 0.000344208
*CONN
*I *520:A1 I *D OA21x2_ASAP7_75t_SL
*I *580:B I *D OA21x2_ASAP7_75t_SL
*I *754:CON O *D HAxp5_ASAP7_75t_SL
*CAP
1 *520:A1 1.37618e-05
2 *580:B 5.65403e-06
3 *754:CON 3.7929e-05
4 *47:18 3.23925e-05
5 *47:14 5.20376e-05
6 *47:10 3.27273e-05
7 *47:6 5.91189e-05
8 *520:A1 *518:A 7.15893e-06
9 *520:A1 *518:B 7.50891e-06
10 *520:A1 *433:30 7.46759e-06
11 *580:B *125:6 5.92989e-06
12 *580:B *446:63 1.36155e-06
13 *47:6 *1036:A 2.6401e-05
14 *47:6 *422:12 1.01102e-06
15 *47:10 *717:B1 0
16 *47:10 *213:63 2.52123e-05
17 *47:10 *408:20 0
18 *47:10 *424:10 8.45637e-06
19 *47:14 *518:A 6.13663e-06
20 *47:14 *424:10 4.10256e-06
21 *47:18 *116:21 7.9052e-06
22 *47:18 *361:10 0
23 *47:18 *424:10 0
24 *47:18 *424:26 0
25 *47:18 *446:63 1.93482e-06
*RES
1 *754:CON *47:6 35.9189 
2 *47:6 *47:10 38.0371 
3 *47:10 *47:14 24.1527 
4 *47:14 *47:18 34.6581 
5 *47:18 *580:B 38.1438 
6 *47:14 *520:A1 28.9662 
*END

*D_NET *48 6.02716e-05
*CONN
*I *967:A I *D BUFx6f_ASAP7_75t_SL
*I *754:SN O *D HAxp5_ASAP7_75t_SL
*CAP
1 *967:A 4.83611e-06
2 *754:SN 1.67588e-05
3 *48:8 2.15949e-05
4 *967:A *213:65 2.79851e-06
5 *48:8 *113:27 3.76935e-06
6 *48:8 *269:16 0
7 *48:8 *408:12 5.52807e-07
8 *48:8 *408:20 9.67723e-06
9 *48:8 *422:8 2.83874e-07
10 *48:8 *492:8 0
*RES
1 *754:SN *48:8 46.2265 
2 *48:8 *967:A 36.5393 
*END

*D_NET *49 6.73985e-05
*CONN
*I *755:A I *D HAxp5_ASAP7_75t_SL
*I *1006:A I *D BUFx3_ASAP7_75t_SL
*I *795:QN O *D DFFHQNx1_ASAP7_75t_SL
*CAP
1 *755:A 2.88737e-05
2 *1006:A 0
3 *795:QN 3.43537e-06
4 *49:6 3.23091e-05
5 *755:A *463:8 1.51653e-06
6 *49:6 *463:8 1.26378e-06
*RES
1 *795:QN *49:6 19.8741 
2 *49:6 *1006:A 17.2 
3 *49:6 *755:A 34.8492 
*END

*D_NET *50 0.00027953
*CONN
*I *519:B I *D OA21x2_ASAP7_75t_SL
*I *988:A I *D BUFx3_ASAP7_75t_SL
*I *755:CON O *D HAxp5_ASAP7_75t_SL
*CAP
1 *519:B 3.03478e-05
2 *988:A 0
3 *755:CON 8.63536e-06
4 *50:20 7.89351e-06
5 *50:14 4.7331e-05
6 *50:10 1.7725e-05
7 *519:B *519:A1 2.90209e-08
8 *519:B *519:A2 1.2768e-05
9 *519:B *569:A 5.85387e-06
10 *519:B *576:A 4.16007e-06
11 *519:B *956:A 2.79851e-06
12 *519:B *53:29 9.53674e-06
13 *519:B *53:40 4.37185e-05
14 *519:B *53:46 2.05732e-05
15 *519:B *424:26 1.07377e-06
16 *50:10 *53:25 1.89962e-06
17 *50:10 *160:10 8.33296e-06
18 *50:14 *576:A 8.146e-06
19 *50:14 *51:10 2.12481e-06
20 *50:14 *53:29 2.68282e-05
21 *50:20 *159:33 0
22 *50:20 *446:27 1.97537e-05
*RES
1 *755:CON *50:10 39.89 
2 *50:10 *50:14 27.3617 
3 *50:14 *50:20 41.158 
4 *50:20 *988:A 17.2 
5 *50:14 *519:B 42.8716 
*END

*D_NET *51 8.91797e-05
*CONN
*I *982:A I *D BUFx3_ASAP7_75t_SL
*I *755:SN O *D HAxp5_ASAP7_75t_SL
*CAP
1 *982:A 0
2 *755:SN 1.0829e-05
3 *51:10 1.0829e-05
4 *51:10 *53:25 9.14504e-06
5 *51:10 *160:10 3.90706e-05
6 *51:10 *407:12 1.71813e-05
7 *50:14 *51:10 2.12481e-06
*RES
1 *755:SN *51:10 48.9573 
2 *51:10 *982:A 34.4 
*END

*D_NET *52 9.98916e-05
*CONN
*I *1007:A I *D BUFx3_ASAP7_75t_SL
*I *756:A I *D HAxp5_ASAP7_75t_SL
*I *794:QN O *D DFFHQNx1_ASAP7_75t_SL
*CAP
1 *1007:A 1.76018e-05
2 *756:A 0
3 *794:QN 2.3365e-05
4 *52:10 4.09668e-05
5 *1007:A *756:B 1.4417e-05
6 *52:10 *463:10 5.52807e-07
7 *52:10 *464:8 2.98814e-06
*RES
1 *794:QN *52:10 48.9006 
2 *52:10 *756:A 34.4 
3 *52:10 *1007:A 49.6302 
*END

*D_NET *53 0.000656059
*CONN
*I *572:B I *D OR3x1_ASAP7_75t_SL
*I *519:A2 I *D OA21x2_ASAP7_75t_SL
*I *569:B I *D AND3x1_ASAP7_75t_SL
*I *566:B I *D OA21x2_ASAP7_75t_SL
*I *756:CON O *D HAxp5_ASAP7_75t_SL
*CAP
1 *572:B 0
2 *519:A2 7.48479e-06
3 *569:B 0
4 *566:B 0
5 *756:CON 2.95904e-05
6 *53:63 1.97449e-05
7 *53:46 3.62371e-05
8 *53:40 1.88083e-05
9 *53:29 2.23028e-05
10 *53:25 4.24809e-05
11 *53:14 4.96831e-05
12 *53:6 4.92945e-05
13 *519:A2 *519:A1 7.63254e-07
14 *519:A2 *424:26 7.08932e-07
15 *519:A2 *444:48 8.17138e-06
16 *53:6 *299:25 4.37168e-05
17 *53:14 *566:A1 5.85387e-06
18 *53:14 *56:27 3.3563e-06
19 *53:14 *351:12 0
20 *53:14 *445:8 2.03526e-06
21 *53:14 *445:10 8.06436e-06
22 *53:25 *159:33 2.36359e-05
23 *53:25 *160:10 1.64764e-06
24 *53:25 *162:8 6.28016e-06
25 *53:25 *407:12 2.38942e-05
26 *53:29 *446:29 7.80516e-06
27 *53:40 *956:A 1.94746e-05
28 *53:40 *117:16 2.03997e-06
29 *53:40 *168:10 8.03731e-06
30 *53:40 *408:20 8.03005e-06
31 *53:40 *446:29 5.62196e-06
32 *53:40 *446:38 1.2768e-05
33 *53:63 *424:26 5.58366e-06
34 *53:63 *424:32 1.81825e-05
35 *53:63 *444:48 4.02915e-05
36 *519:B *519:A2 1.2768e-05
37 *519:B *53:29 9.53674e-06
38 *519:B *53:40 4.37185e-05
39 *519:B *53:46 2.05732e-05
40 *50:10 *53:25 1.89962e-06
41 *50:14 *53:29 2.68282e-05
42 *51:10 *53:25 9.14504e-06
*RES
1 *756:CON *53:6 40.1975 
2 *53:6 *53:14 48.7589 
3 *53:14 *566:B 17.2 
4 *53:14 *53:25 45.4113 
5 *53:25 *53:29 27.8965 
6 *53:29 *569:B 17.2 
7 *53:29 *53:40 32.8516 
8 *53:40 *53:46 40.2831 
9 *53:46 *519:A2 40.9596 
10 *53:46 *53:63 36.6274 
11 *53:63 *572:B 17.2 
*END

*D_NET *54 2.07048e-05
*CONN
*I *987:A I *D BUFx3_ASAP7_75t_SL
*I *756:SN O *D HAxp5_ASAP7_75t_SL
*CAP
1 *987:A 2.71613e-06
2 *756:SN 6.57385e-06
3 *54:8 9.28998e-06
4 *987:A *351:14 2.12481e-06
*RES
1 *756:SN *54:8 38.9053 
2 *54:8 *987:A 36.0045 
*END

*D_NET *55 0.000168775
*CONN
*I *757:B I *D HAxp5_ASAP7_75t_SL
*I *1008:A I *D BUFx3_ASAP7_75t_SL
*I *793:QN O *D DFFHQNx1_ASAP7_75t_SL
*CAP
1 *757:B 2.47783e-05
2 *1008:A 0
3 *793:QN 2.05001e-05
4 *55:12 2.47783e-05
5 *55:10 2.05001e-05
6 *757:B *697:A 1.64509e-05
7 *757:B *757:A 4.94096e-06
8 *757:B *297:23 1.33301e-05
9 *757:B *465:17 2.87917e-05
10 *55:10 *146:42 1.88168e-06
11 *55:10 *210:54 1.28234e-05
12 *55:10 *297:8 0
*RES
1 *793:QN *55:10 44.7884 
2 *55:10 *55:12 17.2 
3 *55:12 *1008:A 17.2 
4 *55:12 *757:B 38.0582 
*END

*D_NET *56 0.000406505
*CONN
*I *566:A2 I *D OA21x2_ASAP7_75t_SL
*I *506:B I *D OA21x2_ASAP7_75t_SL
*I *757:CON O *D HAxp5_ASAP7_75t_SL
*CAP
1 *566:A2 0
2 *506:B 1.23595e-05
3 *757:CON 2.36518e-05
4 *56:27 1.36037e-05
5 *56:19 9.77837e-05
6 *56:8 0.000120191
7 *506:B *437:37 0
8 *506:B *476:81 4.91691e-06
9 *506:B *494:14 1.12969e-05
10 *506:B *494:58 1.98018e-05
11 *56:8 *494:20 3.95499e-05
12 *56:19 *159:22 8.0706e-06
13 *56:19 *299:10 1.09067e-06
14 *56:19 *299:25 1.10561e-06
15 *56:19 *419:17 2.80195e-05
16 *56:19 *437:37 0
17 *56:19 *476:81 9.99467e-06
18 *56:27 *299:25 2.20128e-06
19 *56:27 *351:6 8.87763e-06
20 *56:27 *419:17 0
21 *56:27 *445:10 6.33206e-07
22 *53:14 *56:27 3.3563e-06
*RES
1 *757:CON *56:8 49.9099 
2 *56:8 *506:B 45.6633 
3 *56:8 *56:19 64.7641 
4 *56:19 *56:27 46.0848 
5 *56:27 *566:A2 34.4 
*END

*D_NET *57 5.54839e-05
*CONN
*I *963:A I *D BUFx3_ASAP7_75t_SL
*I *504:A I *D OR3x1_ASAP7_75t_SL
*I *757:SN O *D HAxp5_ASAP7_75t_SL
*CAP
1 *963:A 3.0289e-06
2 *504:A 1.72791e-05
3 *757:SN 6.54929e-06
4 *57:8 2.68573e-05
5 *504:A *531:D 1.26378e-06
6 *504:A *349:8 0
7 *504:A *437:16 0
8 *504:A *468:10 0
9 *963:A *349:12 5.0551e-07
*RES
1 *757:SN *57:8 38.9053 
2 *57:8 *504:A 46.0848 
3 *57:8 *963:A 36.0045 
*END

*D_NET *58 0.000120847
*CONN
*I *1009:A I *D BUFx3_ASAP7_75t_SL
*I *758:B I *D HAxp5_ASAP7_75t_SL
*I *792:QN O *D DFFHQNx1_ASAP7_75t_SL
*CAP
1 *1009:A 8.95128e-06
2 *758:B 1.29502e-05
3 *792:QN 1.4707e-05
4 *58:16 2.97765e-05
5 *58:10 4.04846e-05
6 *758:B *60:10 5.97901e-06
7 *758:B *460:23 0
8 *758:B *480:36 3.36331e-07
9 *1009:A *82:8 0
10 *58:10 *480:44 1.26378e-06
11 *11:10 *758:B 0
12 *11:10 *58:10 4.10928e-06
13 *11:10 *58:16 2.28884e-06
*RES
1 *792:QN *58:10 44.9585 
2 *58:10 *58:16 44.5617 
3 *58:16 *758:B 46.7897 
4 *58:10 *1009:A 40.0317 
*END

*D_NET *59 9.98166e-05
*CONN
*I *505:B I *D OA21x2_ASAP7_75t_SL
*I *758:CON O *D HAxp5_ASAP7_75t_SL
*CAP
1 *505:B 0
2 *758:CON 2.27214e-05
3 *59:6 2.27214e-05
4 *59:6 *505:A1 1.23408e-05
5 *59:6 *60:10 1.16766e-05
6 *59:6 *62:14 9.30483e-06
7 *59:6 *62:27 9.30483e-06
8 *59:6 *480:28 1.17468e-05
*RES
1 *758:CON *59:6 38.0582 
2 *59:6 *505:B 17.2 
*END

*D_NET *60 6.01318e-05
*CONN
*I *961:A I *D BUFx3_ASAP7_75t_SL
*I *758:SN O *D HAxp5_ASAP7_75t_SL
*CAP
1 *961:A 0
2 *758:SN 2.01244e-05
3 *60:10 2.01244e-05
4 *60:10 *460:23 2.22736e-06
5 *758:B *60:10 5.97901e-06
6 *59:6 *60:10 1.16766e-05
*RES
1 *758:SN *60:10 46.9277 
2 *60:10 *961:A 34.4 
*END

*D_NET *61 6.87222e-05
*CONN
*I *759:B I *D HAxp5_ASAP7_75t_SL
*I *1003:A I *D BUFx3_ASAP7_75t_SL
*I *791:QN O *D DFFHQNx1_ASAP7_75t_SL
*CAP
1 *759:B 1.67228e-05
2 *1003:A 5.8569e-06
3 *791:QN 8.62611e-06
4 *61:8 3.12058e-05
5 *759:B *991:A 2.35211e-06
6 *759:B *295:10 3.95845e-06
7 *759:B *460:8 0
*RES
1 *791:QN *61:8 38.1438 
2 *61:8 *1003:A 37.694 
3 *61:8 *759:B 47.3528 
*END

*D_NET *62 0.000276067
*CONN
*I *556:B I *D OA21x2_ASAP7_75t_SL
*I *505:A2 I *D OA21x2_ASAP7_75t_SL
*I *759:CON O *D HAxp5_ASAP7_75t_SL
*CAP
1 *556:B 1.61512e-05
2 *505:A2 0
3 *759:CON 1.36951e-05
4 *62:27 3.20693e-05
5 *62:14 4.09283e-05
6 *62:8 3.87053e-05
7 *556:B *557:A 9.30483e-06
8 *556:B *109:14 2.96818e-06
9 *556:B *155:10 6.44983e-06
10 *556:B *155:16 3.48408e-05
11 *62:8 *960:A 3.05302e-06
12 *62:8 *154:22 1.25559e-05
13 *62:14 *505:A1 2.20128e-06
14 *62:14 *65:44 0
15 *62:14 *417:8 2.21732e-05
16 *62:14 *417:25 2.68933e-07
17 *62:14 *418:44 1.95129e-06
18 *62:14 *437:16 0
19 *62:14 *468:10 0
20 *62:14 *478:8 0
21 *62:14 *479:110 1.39984e-06
22 *62:14 *480:28 2.88806e-06
23 *62:27 *505:A1 3.16603e-06
24 *62:27 *557:B 3.05118e-08
25 *62:27 *418:10 4.43244e-06
26 *62:27 *418:36 2.68933e-07
27 *62:27 *418:44 7.95558e-06
28 *62:27 *468:10 0
29 *59:6 *62:14 9.30483e-06
30 *59:6 *62:27 9.30483e-06
*RES
1 *759:CON *62:8 45.6313 
2 *62:8 *62:14 36.2059 
3 *62:14 *505:A2 17.2 
4 *62:14 *62:27 47.2111 
5 *62:27 *556:B 31.6403 
*END

*D_NET *63 8.14893e-06
*CONN
*I *960:A I *D BUFx3_ASAP7_75t_SL
*I *759:SN O *D HAxp5_ASAP7_75t_SL
*CAP
1 *960:A 2.54796e-06
2 *759:SN 2.54796e-06
3 *62:8 *960:A 3.05302e-06
*RES
1 *759:SN *960:A 36.5393 
*END

*D_NET *64 0.000428727
*CONN
*I *1010:A I *D BUFx3_ASAP7_75t_SL
*I *760:B I *D HAxp5_ASAP7_75t_SL
*I *790:QN O *D DFFHQNx1_ASAP7_75t_SL
*CAP
1 *1010:A 1.20289e-05
2 *760:B 4.70628e-06
3 *790:QN 5.25062e-05
4 *64:18 8.64536e-05
5 *64:12 7.67579e-05
6 *64:6 5.95457e-05
7 *760:B *65:6 2.28976e-06
8 *760:B *66:8 1.56713e-06
9 *1010:A *66:10 0
10 *1010:A *416:38 5.37866e-07
11 *1010:A *478:92 0
12 *64:6 *790:CLK 7.33751e-05
13 *64:6 *458:111 2.3365e-05
14 *64:12 *120:18 0
15 *64:12 *250:12 0
16 *64:12 *251:8 2.25464e-07
17 *64:12 *283:10 1.78389e-05
18 *64:18 *687:A2 3.82336e-06
19 *64:18 *687:B1 9.65342e-06
20 *64:18 *687:B2 1.13434e-06
21 *64:18 *66:8 0
22 *64:18 *250:20 2.27522e-06
23 *64:18 *294:18 0
24 *64:18 *416:38 6.42451e-07
*RES
1 *790:QN *64:6 45.5457 
2 *64:6 *64:12 40.5948 
3 *64:12 *64:18 48.3616 
4 *64:18 *760:B 38.1438 
5 *64:18 *1010:A 42.2843 
*END

*D_NET *65 0.000364783
*CONN
*I *503:B I *D OA21x2_ASAP7_75t_SL
*I *558:B I *D OA211x2_ASAP7_75t_SL
*I *560:A1 I *D AO21x1_ASAP7_75t_SL
*I *554:B I *D OA21x2_ASAP7_75t_SL
*I *760:CON O *D HAxp5_ASAP7_75t_SL
*CAP
1 *503:B 2.31077e-06
2 *558:B 0
3 *560:A1 0
4 *554:B 3.13336e-06
5 *760:CON 7.01774e-06
6 *65:53 2.31773e-05
7 *65:44 1.24896e-05
8 *65:36 3.95514e-05
9 *65:23 3.53471e-05
10 *65:12 4.62151e-05
11 *65:6 6.26807e-05
12 *503:B *66:25 5.62196e-06
13 *554:B *478:86 5.09299e-06
14 *65:6 *66:8 1.25483e-05
15 *65:12 *79:10 7.72307e-07
16 *65:12 *154:10 3.16603e-06
17 *65:12 *346:16 5.0551e-07
18 *65:12 *416:27 4.43244e-06
19 *65:23 *154:10 2.20966e-06
20 *65:23 *416:27 8.18584e-06
21 *65:23 *476:81 1.49407e-08
22 *65:23 *494:58 0
23 *65:36 *559:B 1.07377e-06
24 *65:36 *157:10 2.0895e-06
25 *65:36 *416:27 6.35292e-07
26 *65:36 *417:27 1.62517e-06
27 *65:36 *476:77 3.3921e-06
28 *65:36 *478:84 8.00358e-06
29 *65:44 *68:27 7.63254e-07
30 *65:44 *154:22 7.58545e-06
31 *65:44 *437:16 4.70383e-06
32 *65:44 *478:8 1.25267e-05
33 *65:53 *66:10 6.6421e-06
34 *65:53 *66:25 8.66322e-06
35 *65:53 *108:10 1.59491e-05
36 *65:53 *158:10 0
37 *65:53 *416:27 0
38 *502:A *554:B 1.32074e-05
39 *760:B *65:6 2.28976e-06
40 *24:14 *65:12 1.15945e-06
41 *62:14 *65:44 0
*RES
1 *760:CON *65:6 23.0831 
2 *65:6 *65:12 38.4549 
3 *65:12 *554:B 38.1438 
4 *65:12 *65:23 6.75799 
5 *65:23 *560:A1 34.4 
6 *65:23 *65:36 34.3994 
7 *65:36 *65:44 43.2973 
8 *65:44 *558:B 17.2 
9 *65:6 *65:53 33.5318 
10 *65:53 *503:B 36.0045 
*END

*D_NET *66 0.000201629
*CONN
*I *503:A1 I *D OA21x2_ASAP7_75t_SL
*I *959:A I *D BUFx3_ASAP7_75t_SL
*I *760:SN O *D HAxp5_ASAP7_75t_SL
*CAP
1 *503:A1 0
2 *959:A 4.7436e-06
3 *760:SN 2.53242e-05
4 *66:25 2.05128e-05
5 *66:10 3.07647e-05
6 *66:8 3.08325e-05
7 *959:A *108:10 2.28976e-06
8 *959:A *416:6 6.6195e-06
9 *959:A *478:86 1.59615e-06
10 *66:8 *294:26 5.25794e-06
11 *66:10 *416:38 9.67723e-06
12 *66:25 *109:8 1.92671e-05
13 *66:25 *158:10 0
14 *66:25 *457:86 9.70123e-06
15 *503:B *66:25 5.62196e-06
16 *760:B *66:8 1.56713e-06
17 *1010:A *66:10 0
18 *64:18 *66:8 0
19 *65:6 *66:8 1.25483e-05
20 *65:53 *66:10 6.6421e-06
21 *65:53 *66:25 8.66322e-06
*RES
1 *760:SN *66:8 46.701 
2 *66:8 *66:10 5.63166 
3 *66:10 *959:A 39.2134 
4 *66:10 *66:25 34.8812 
5 *66:25 *503:A1 17.2 
*END

*D_NET *67 4.06272e-05
*CONN
*I *1011:A I *D BUFx3_ASAP7_75t_SL
*I *495:A I *D INVx1_ASAP7_75t_SL
*I *789:QN O *D DFFHQNx1_ASAP7_75t_SL
*CAP
1 *1011:A 0
2 *495:A 0
3 *789:QN 2.11151e-06
4 *67:19 1.10314e-05
5 *67:6 1.31429e-05
6 *67:6 *478:21 6.92634e-06
7 *67:19 *468:35 2.68933e-07
8 *67:19 *478:21 7.14604e-06
*RES
1 *789:QN *67:6 19.3393 
2 *67:6 *495:A 17.2 
3 *67:6 *67:19 42.171 
4 *67:19 *1011:A 17.2 
*END

*D_NET *68 9.62096e-05
*CONN
*I *558:C I *D OA211x2_ASAP7_75t_SL
*I *553:B I *D OA21x2_ASAP7_75t_SL
*I *761:CON O *D HAxp5_ASAP7_75t_SL
*CAP
1 *558:C 0
2 *553:B 3.82584e-06
3 *761:CON 6.05473e-06
4 *68:27 1.22714e-05
5 *68:10 1.60973e-05
6 *68:8 6.05473e-06
7 *68:8 *247:10 0
8 *68:8 *346:16 8.06799e-07
9 *68:8 *478:8 2.01457e-05
10 *68:27 *154:22 5.22376e-07
11 *68:27 *247:10 5.52807e-07
12 *68:27 *437:16 1.82423e-05
13 *68:27 *437:24 0
14 *68:27 *478:8 1.08723e-05
15 *65:44 *68:27 7.63254e-07
*RES
1 *761:CON *68:8 41.158 
2 *68:8 *68:10 17.2 
3 *68:10 *553:B 18.8045 
4 *68:10 *68:27 46.6196 
5 *68:27 *558:C 17.2 
*END

*D_NET *69 0.000152622
*CONN
*I *558:A1 I *D OA211x2_ASAP7_75t_SL
*I *553:A1 I *D OA21x2_ASAP7_75t_SL
*I *761:SN O *D HAxp5_ASAP7_75t_SL
*CAP
1 *558:A1 1.08907e-05
2 *553:A1 3.99882e-06
3 *761:SN 2.89283e-05
4 *69:10 2.26858e-05
5 *69:8 3.67246e-05
6 *553:A1 *415:28 9.30483e-06
7 *558:A1 *154:22 5.51397e-07
8 *558:A1 *415:28 6.15972e-06
9 *558:A1 *417:8 0
10 *558:A1 *478:8 2.22736e-06
11 *69:8 *293:58 2.66797e-07
12 *69:8 *468:35 7.72307e-07
13 *69:8 *476:60 8.06588e-06
14 *69:10 *415:20 2.01457e-05
15 *69:10 *415:28 1.89962e-06
16 *69:10 *468:10 0
*RES
1 *761:SN *69:8 46.701 
2 *69:8 *69:10 7.88432 
3 *69:10 *553:A1 37.0741 
4 *69:10 *558:A1 42.7625 
*END

*D_NET *70 0.000191475
*CONN
*I *636:A I *D INVx1_ASAP7_75t_SL
*I *762:B I *D HAxp5_ASAP7_75t_SL
*I *766:QN O *D DFFHQNx1_ASAP7_75t_SL
*CAP
1 *636:A 1.7942e-05
2 *762:B 9.21952e-06
3 *766:QN 1.03427e-05
4 *70:18 2.49064e-05
5 *70:10 4.39715e-05
6 *636:A *762:A 2.03526e-06
7 *636:A *208:10 0
8 *762:B *923:A 1.50458e-05
9 *762:B *339:8 5.85387e-06
10 *70:10 *71:8 2.21622e-06
11 *70:10 *72:6 9.31704e-06
12 *70:10 *146:180 8.20229e-06
13 *70:10 *208:25 2.98532e-06
14 *70:10 *302:8 2.14973e-05
15 *70:18 *923:A 5.79724e-07
16 *70:18 *71:8 5.1866e-06
17 *70:18 *208:10 4.10928e-06
18 *70:18 *302:8 8.06436e-06
*RES
1 *766:QN *70:10 44.9585 
2 *70:10 *70:18 45.4083 
3 *70:18 *762:B 43.2123 
4 *70:10 *636:A 41.3527 
*END

*D_NET *71 0.000848817
*CONN
*I *552:A I *D INVx1_ASAP7_75t_SL
*I *762:CON O *D HAxp5_ASAP7_75t_SL
*CAP
1 *552:A 0
2 *762:CON 4.00911e-06
3 *71:26 1.8057e-06
4 *71:20 0.000239075
5 *71:18 0.000237269
6 *71:16 1.8882e-05
7 *71:8 2.28911e-05
8 *71:8 *923:A 1.16821e-05
9 *71:8 *339:25 3.86483e-06
10 *71:16 *149:164 0
11 *71:16 *217:14 0
12 *71:16 *339:25 3.18474e-05
13 *71:20 *149:95 0
14 *71:20 *149:110 8.89558e-05
15 *71:20 *149:125 2.11769e-05
16 *71:20 *149:164 0.000116197
17 *71:20 *250:12 1.38979e-05
18 *71:20 *457:56 3.7915e-06
19 *71:20 *458:38 0
20 *71:20 *458:169 0
21 *71:20 *476:34 1.43509e-05
22 *71:20 *476:50 9.56234e-06
23 *5:14 *71:20 1.37139e-06
24 *22:8 *71:26 7.84037e-07
25 *70:10 *71:8 2.21622e-06
26 *70:18 *71:8 5.1866e-06
*RES
1 *762:CON *71:8 39.7501 
2 *71:8 *71:16 47.2071 
3 *71:16 *71:18 17.2 
4 *71:18 *71:20 90.6875 
5 *71:20 *71:26 35.6202 
6 *71:26 *552:A 17.2 
*END

*D_NET *72 0.000173671
*CONN
*I *766:D I *D DFFHQNx1_ASAP7_75t_SL
*I *646:Y O *D OA21x2_ASAP7_75t_SL
*CAP
1 *766:D 0
2 *646:Y 0
3 *72:6 7.95054e-05
4 *72:4 7.95054e-05
5 *72:6 *146:157 0
6 *72:6 *217:14 5.34278e-06
7 *70:10 *72:6 9.31704e-06
*RES
1 *646:Y *72:4 17.2 
2 *72:4 *72:6 34.7636 
3 *72:6 *766:D 17.2 
*END

*D_NET *73 4.44661e-05
*CONN
*I *767:D I *D DFFHQNx1_ASAP7_75t_SL
*I *650:Y O *D OA21x2_ASAP7_75t_SL
*CAP
1 *767:D 2.08359e-05
2 *650:Y 2.08359e-05
3 *767:D *287:6 2.79435e-06
*RES
1 *650:Y *767:D 43.492 
*END

*D_NET *74 8.81989e-05
*CONN
*I *768:D I *D DFFHQNx1_ASAP7_75t_SL
*I *655:Y O *D AOI22x1_ASAP7_75t_SL
*CAP
1 *768:D 0
2 *655:Y 0
3 *74:12 2.3383e-05
4 *74:6 2.3383e-05
5 *74:12 *655:B1 8.2174e-07
6 *74:12 *728:C1 1.5876e-05
7 *74:12 *149:185 1.15414e-05
8 *74:12 *221:10 0
9 *74:12 *275:16 1.88951e-06
10 *74:12 *281:14 5.73634e-06
11 *74:12 *288:20 0
12 *74:12 *336:106 1.64764e-06
13 *74:12 *475:20 3.92018e-06
*RES
1 *655:Y *74:6 34.4 
2 *74:6 *74:12 36.2059 
3 *74:12 *768:D 17.2 
*END

*D_NET *75 6.95584e-05
*CONN
*I *769:D I *D DFFHQNx1_ASAP7_75t_SL
*I *663:Y O *D OA33x2_ASAP7_75t_SL
*CAP
1 *769:D 0
2 *663:Y 7.65041e-06
3 *75:18 6.23464e-06
4 *75:10 1.38851e-05
5 *75:10 *142:18 7.07219e-06
6 *75:10 *336:57 1.59139e-06
7 *75:10 *461:16 1.04475e-06
8 *75:18 *663:A2 3.45062e-06
9 *75:18 *231:18 3.45062e-06
10 *75:18 *336:61 9.57673e-06
11 *75:18 *336:74 7.16111e-06
12 *75:18 *458:20 2.28578e-06
13 *75:18 *458:30 7.79015e-07
14 *75:18 *458:50 5.37605e-06
*RES
1 *663:Y *75:10 38.7264 
2 *75:10 *75:18 38.6503 
3 *75:18 *769:D 34.4 
*END

*D_NET *76 0.000158646
*CONN
*I *770:D I *D DFFHQNx1_ASAP7_75t_SL
*I *670:Y O *D AOI22x1_ASAP7_75t_SL
*CAP
1 *770:D 3.6077e-05
2 *670:Y 1.21247e-05
3 *76:8 4.82017e-05
4 *770:D *770:CLK 0
5 *770:D *149:149 2.03412e-05
6 *76:8 *670:A1 3.47607e-06
7 *76:8 *132:10 0
8 *76:8 *149:155 3.06142e-05
9 *76:8 *236:10 3.05118e-08
10 *35:18 *76:8 6.68208e-06
11 *35:33 *76:8 1.09842e-06
*RES
1 *670:Y *76:8 49.0423 
2 *76:8 *770:D 49.9099 
*END

*D_NET *77 5.0687e-05
*CONN
*I *771:D I *D DFFHQNx1_ASAP7_75t_SL
*I *675:Y O *D AO21x2_ASAP7_75t_SL
*CAP
1 *771:D 1.82315e-05
2 *675:Y 5.84125e-06
3 *77:8 2.40727e-05
4 *771:D *345:6 5.0551e-07
5 *771:D *345:21 2.03608e-06
*RES
1 *675:Y *77:8 37.779 
2 *77:8 *771:D 42.4224 
*END

*D_NET *78 0.000182699
*CONN
*I *772:D I *D DFFHQNx1_ASAP7_75t_SL
*I *680:Y O *D AO21x2_ASAP7_75t_SL
*CAP
1 *772:D 0
2 *680:Y 3.06758e-06
3 *78:12 8.34829e-05
4 *78:10 8.34829e-05
5 *78:8 3.06758e-06
6 *78:8 *241:14 3.61852e-06
7 *78:8 *484:58 0
8 *78:12 *680:A2 3.89037e-06
9 *78:12 *245:22 2.0895e-06
10 *78:12 *488:18 0
11 *15:25 *78:12 0
*RES
1 *680:Y *78:8 37.2158 
2 *78:8 *78:10 17.2 
3 *78:10 *78:12 34.7636 
4 *78:12 *772:D 17.2 
*END

*D_NET *79 0.000201306
*CONN
*I *773:D I *D DFFHQNx1_ASAP7_75t_SL
*I *683:Y O *D AO221x2_ASAP7_75t_SL
*CAP
1 *773:D 1.00113e-05
2 *683:Y 1.72372e-05
3 *79:16 4.42775e-05
4 *79:10 5.15034e-05
5 *773:D *115:10 1.32406e-05
6 *773:D *247:10 7.05036e-06
7 *773:D *476:66 3.37925e-05
8 *79:10 *346:8 1.03681e-05
9 *79:16 *476:60 3.71468e-06
10 *22:8 *79:10 0
11 *22:14 *79:16 9.33789e-06
12 *65:12 *79:10 7.72307e-07
*RES
1 *683:Y *79:10 46.0848 
2 *79:10 *79:16 49.9099 
3 *79:16 *773:D 46.2265 
*END

*D_NET *80 6.911e-05
*CONN
*I *774:D I *D DFFHQNx1_ASAP7_75t_SL
*I *688:Y O *D OA22x2_ASAP7_75t_SL
*CAP
1 *774:D 0
2 *688:Y 1.27505e-05
3 *80:8 1.27505e-05
4 *80:8 *294:18 9.5813e-06
5 *80:8 *478:92 0
6 *80:8 *483:158 3.40276e-05
*RES
1 *688:Y *80:8 46.2265 
2 *80:8 *774:D 34.4 
*END

*D_NET *81 2.46726e-05
*CONN
*I *775:D I *D DFFHQNx1_ASAP7_75t_SL
*I *692:Y O *D OA21x2_ASAP7_75t_SL
*CAP
1 *775:D 6.45951e-06
2 *692:Y 5.87678e-06
3 *81:8 1.23363e-05
4 *81:8 *97:14 0
*RES
1 *692:Y *81:8 37.779 
2 *81:8 *775:D 37.0741 
*END

*D_NET *82 4.64119e-05
*CONN
*I *776:D I *D DFFHQNx1_ASAP7_75t_SL
*I *696:Y O *D OA21x2_ASAP7_75t_SL
*CAP
1 *776:D 1.72071e-05
2 *696:Y 5.85692e-06
3 *82:8 2.3064e-05
4 *82:8 *296:14 2.83874e-07
5 *1009:A *82:8 0
*RES
1 *696:Y *82:8 37.779 
2 *82:8 *776:D 41.3527 
*END

*D_NET *83 2.89549e-05
*CONN
*I *777:D I *D DFFHQNx1_ASAP7_75t_SL
*I *700:Y O *D AO221x2_ASAP7_75t_SL
*CAP
1 *777:D 0
2 *700:Y 1.09962e-05
3 *83:10 1.09962e-05
4 *83:10 *149:50 2.46429e-06
5 *83:10 *258:29 3.42435e-06
6 *83:10 *471:120 1.07377e-06
*RES
1 *700:Y *83:10 40.4531 
2 *83:10 *777:D 34.4 
*END

*D_NET *84 0.000182547
*CONN
*I *778:D I *D DFFHQNx1_ASAP7_75t_SL
*I *704:Y O *D AO221x2_ASAP7_75t_SL
*CAP
1 *778:D 2.94794e-05
2 *704:Y 0
3 *84:10 7.06778e-05
4 *84:6 4.11984e-05
5 *778:D *459:97 1.59435e-05
6 *84:10 *100:8 9.94583e-06
7 *84:10 *373:10 0
8 *84:10 *451:10 1.00799e-05
9 *84:10 *459:62 1.07573e-06
10 *84:10 *459:64 1.67336e-06
11 *84:10 *480:110 2.47351e-06
*RES
1 *704:Y *84:6 34.4 
2 *84:6 *84:10 45.9215 
3 *84:10 *778:D 32.7099 
*END

*D_NET *85 5.87814e-05
*CONN
*I *779:D I *D DFFHQNx1_ASAP7_75t_SL
*I *708:Y O *D OA21x2_ASAP7_75t_SL
*CAP
1 *779:D 0
2 *708:Y 1.47458e-05
3 *85:10 1.47458e-05
4 *85:10 *452:12 1.94746e-05
5 *85:10 *459:41 9.81516e-06
*RES
1 *708:Y *85:10 43.6621 
2 *85:10 *779:D 34.4 
*END

*D_NET *86 4.15584e-05
*CONN
*I *780:D I *D DFFHQNx1_ASAP7_75t_SL
*I *713:Y O *D OA22x2_ASAP7_75t_SL
*CAP
1 *780:D 0
2 *713:Y 1.33251e-05
3 *86:10 1.33251e-05
4 *86:10 *159:31 1.23489e-06
5 *86:10 *159:33 9.72242e-06
6 *86:10 *350:8 3.95096e-06
*RES
1 *713:Y *86:10 41.5228 
2 *86:10 *780:D 34.4 
*END

*D_NET *87 3.00315e-05
*CONN
*I *781:D I *D DFFHQNx1_ASAP7_75t_SL
*I *718:Y O *D OA22x2_ASAP7_75t_SL
*CAP
1 *781:D 0
2 *718:Y 1.11084e-05
3 *87:10 1.11084e-05
4 *87:10 *232:44 0
5 *87:10 *409:12 3.79093e-06
6 *87:10 *409:16 4.02391e-06
7 *87:10 *461:58 0
*RES
1 *718:Y *87:10 40.4531 
2 *87:10 *781:D 34.4 
*END

*D_NET *88 4.71139e-05
*CONN
*I *782:D I *D DFFHQNx1_ASAP7_75t_SL
*I *725:Y O *D OA222x2_ASAP7_75t_SL
*CAP
1 *782:D 4.24919e-06
2 *725:Y 1.90179e-05
3 *88:8 2.32671e-05
4 *88:8 *149:170 0
5 *88:8 *217:14 5.79724e-07
6 *88:8 *455:35 0
7 *88:8 *491:8 0
*RES
1 *725:Y *88:8 46.2265 
2 *88:8 *782:D 36.0045 
*END

*D_NET *89 0.000172963
*CONN
*I *783:D I *D DFFHQNx1_ASAP7_75t_SL
*I *726:Y O *D OA222x2_ASAP7_75t_SL
*CAP
1 *783:D 0
2 *726:Y 1.68171e-05
3 *89:14 2.14268e-05
4 *89:8 3.82439e-05
5 *89:8 *726:A2 2.7707e-05
6 *89:14 *220:14 3.62745e-05
7 *89:14 *437:89 6.01974e-06
8 *89:14 *437:95 0
9 *89:14 *456:16 2.64738e-05
10 *89:14 *477:58 0
*RES
1 *726:Y *89:8 42.4224 
2 *89:8 *89:14 37.3323 
3 *89:14 *783:D 17.2 
*END

*D_NET *90 4.75852e-05
*CONN
*I *784:D I *D DFFHQNx1_ASAP7_75t_SL
*I *728:Y O *D OA222x2_ASAP7_75t_SL
*CAP
1 *784:D 2.37926e-05
2 *728:Y 2.37926e-05
3 *784:D *456:106 0
*RES
1 *728:Y *784:D 43.492 
*END

*D_NET *91 2.90976e-05
*CONN
*I *785:D I *D DFFHQNx1_ASAP7_75t_SL
*I *729:Y O *D OA222x2_ASAP7_75t_SL
*CAP
1 *785:D 0
2 *729:Y 1.42322e-05
3 *91:8 1.42322e-05
4 *91:8 *477:39 6.33206e-07
5 *4:10 *91:8 0
6 *5:28 *91:8 0
7 *34:12 *91:8 0
*RES
1 *729:Y *91:8 43.4107 
2 *91:8 *785:D 34.4 
*END

*D_NET *92 3.30463e-05
*CONN
*I *786:D I *D DFFHQNx1_ASAP7_75t_SL
*I *731:Y O *D OA222x2_ASAP7_75t_SL
*CAP
1 *786:D 6.85881e-06
2 *731:Y 6.81346e-06
3 *92:8 1.36723e-05
4 *786:D *397:133 5.25794e-06
5 *31:22 *92:8 0
6 *42:10 *92:8 4.43863e-07
*RES
1 *731:Y *92:8 37.779 
2 *92:8 *786:D 38.1438 
*END

*D_NET *93 9.3645e-05
*CONN
*I *787:D I *D DFFHQNx1_ASAP7_75t_SL
*I *732:Y O *D OA222x2_ASAP7_75t_SL
*CAP
1 *787:D 1.59513e-05
2 *732:Y 6.67527e-06
3 *93:8 2.26265e-05
4 *787:D *242:23 1.09492e-05
5 *93:8 *94:8 7.15974e-07
6 *93:8 *242:31 7.98637e-06
7 *93:8 *456:64 1.19507e-05
8 *93:8 *456:70 1.48772e-05
9 *93:8 *484:10 1.91241e-06
*RES
1 *732:Y *93:8 43.4107 
2 *93:8 *787:D 42.4224 
*END

*D_NET *94 3.18157e-05
*CONN
*I *788:D I *D DFFHQNx1_ASAP7_75t_SL
*I *733:Y O *D OA222x2_ASAP7_75t_SL
*CAP
1 *788:D 0
2 *733:Y 1.03779e-05
3 *94:8 1.03779e-05
4 *94:8 *651:B 0
5 *94:8 *341:10 0
6 *94:8 *456:70 3.05118e-08
7 *94:8 *484:10 1.03135e-05
8 *93:8 *94:8 7.15974e-07
*RES
1 *733:Y *94:8 43.4107 
2 *94:8 *788:D 34.4 
*END

*D_NET *95 0.000268958
*CONN
*I *789:D I *D DFFHQNx1_ASAP7_75t_SL
*I *734:Y O *D OA222x2_ASAP7_75t_SL
*CAP
1 *789:D 0
2 *734:Y 1.89099e-05
3 *95:20 5.42126e-06
4 *95:14 7.65628e-05
5 *95:12 7.11415e-05
6 *95:10 1.89099e-05
7 *95:10 *734:A2 2.49152e-05
8 *95:10 *415:20 9.67723e-06
9 *95:14 *471:14 0
10 *95:14 *471:18 4.34206e-05
*RES
1 *734:Y *95:10 44.7317 
2 *95:10 *95:12 17.2 
3 *95:12 *95:14 39.0422 
4 *95:14 *95:20 37.779 
5 *95:20 *789:D 17.2 
*END

*D_NET *96 4.18793e-05
*CONN
*I *790:D I *D DFFHQNx1_ASAP7_75t_SL
*I *736:Y O *D OA222x2_ASAP7_75t_SL
*CAP
1 *790:D 0
2 *736:Y 1.10925e-05
3 *96:8 1.10925e-05
4 *96:8 *476:117 0
5 *96:8 *493:43 1.52833e-05
6 *4:41 *96:8 0
7 *13:10 *96:8 4.41094e-06
*RES
1 *736:Y *96:8 46.2265 
2 *96:8 *790:D 34.4 
*END

*D_NET *97 6.99199e-05
*CONN
*I *791:D I *D DFFHQNx1_ASAP7_75t_SL
*I *737:Y O *D OA222x2_ASAP7_75t_SL
*CAP
1 *791:D 0
2 *737:Y 3.33502e-06
3 *97:14 1.99449e-05
4 *97:8 2.32799e-05
5 *97:8 *448:6 6.7842e-07
6 *97:8 *448:14 3.05302e-06
7 *97:14 *448:14 1.35961e-06
8 *97:14 *478:27 1.1648e-05
9 *97:14 *478:61 6.62106e-06
10 *81:8 *97:14 0
*RES
1 *737:Y *97:8 37.0741 
2 *97:8 *97:14 34.01 
3 *97:14 *791:D 17.2 
*END

*D_NET *98 0.000146692
*CONN
*I *792:D I *D DFFHQNx1_ASAP7_75t_SL
*I *738:Y O *D OA222x2_ASAP7_75t_SL
*CAP
1 *792:D 0
2 *738:Y 0
3 *98:12 1.73261e-05
4 *98:6 1.73261e-05
5 *98:12 *210:32 8.30358e-06
6 *98:12 *210:38 3.841e-05
7 *98:12 *255:22 5.22681e-06
8 *98:12 *480:50 5.0551e-07
9 *98:12 *480:61 5.95936e-05
*RES
1 *738:Y *98:6 34.4 
2 *98:6 *98:12 39.0784 
3 *98:12 *792:D 17.2 
*END

*D_NET *99 2.63138e-05
*CONN
*I *793:D I *D DFFHQNx1_ASAP7_75t_SL
*I *739:Y O *D OA222x2_ASAP7_75t_SL
*CAP
1 *793:D 6.06164e-06
2 *739:Y 3.50417e-06
3 *99:8 9.56581e-06
4 *793:D *450:14 2.47522e-06
5 *99:8 *480:87 3.74045e-06
6 *99:8 *483:88 9.66472e-07
*RES
1 *739:Y *99:8 37.779 
2 *99:8 *793:D 37.0741 
*END

*D_NET *100 1.77662e-05
*CONN
*I *794:D I *D DFFHQNx1_ASAP7_75t_SL
*I *740:Y O *D OA222x2_ASAP7_75t_SL
*CAP
1 *794:D 0
2 *740:Y 3.37622e-06
3 *100:8 3.37622e-06
4 *100:8 *373:10 2.83874e-07
5 *100:8 *480:110 7.84037e-07
6 *84:10 *100:8 9.94583e-06
*RES
1 *740:Y *100:8 37.779 
2 *100:8 *794:D 34.4 
*END

*D_NET *101 4.85923e-05
*CONN
*I *795:D I *D DFFHQNx1_ASAP7_75t_SL
*I *741:Y O *D OA222x2_ASAP7_75t_SL
*CAP
1 *795:D 0
2 *741:Y 2.18293e-05
3 *101:10 2.18293e-05
4 *101:10 *264:22 5.0551e-07
5 *101:10 *352:33 3.79494e-06
6 *101:10 *464:8 0
7 *101:10 *480:118 6.33206e-07
*RES
1 *741:Y *101:10 48.9006 
2 *101:10 *795:D 34.4 
*END

*D_NET *102 2.50208e-05
*CONN
*I *796:D I *D DFFHQNx1_ASAP7_75t_SL
*I *743:Y O *D OA222x2_ASAP7_75t_SL
*CAP
1 *796:D 3.81267e-06
2 *743:Y 8.69771e-06
3 *102:8 1.25104e-05
4 *796:D *453:6 0
5 *102:8 *437:37 0
6 *102:8 *453:22 0
*RES
1 *743:Y *102:8 38.9053 
2 *102:8 *796:D 36.0045 
*END

*D_NET *103 0.000216602
*CONN
*I *797:D I *D DFFHQNx1_ASAP7_75t_SL
*I *745:Y O *D OA222x2_ASAP7_75t_SL
*CAP
1 *797:D 0
2 *745:Y 1.65942e-05
3 *103:14 7.00267e-05
4 *103:8 8.66209e-05
5 *103:8 *745:C1 2.30405e-06
6 *103:8 *745:C2 3.04311e-07
7 *103:14 *274:10 2.92053e-06
8 *103:14 *454:6 0
9 *103:14 *483:18 1.91613e-06
10 *103:14 *493:35 3.30873e-05
11 *4:110 *103:8 2.8275e-06
*RES
1 *745:Y *103:8 41.3527 
2 *103:8 *103:14 47.7454 
3 *103:14 *797:D 17.2 
*END

*D_NET *104 5.99189e-05
*CONN
*I *703:A2 I *D AO21x1_ASAP7_75t_SL
*I *497:Y O *D BUFx2_ASAP7_75t_SL
*CAP
1 *703:A2 2.41207e-05
2 *497:Y 3.73918e-06
3 *104:8 2.78599e-05
4 *703:A2 *351:33 0
5 *703:A2 *372:12 1.70866e-06
6 *703:A2 *457:163 2.49049e-06
*RES
1 *497:Y *104:8 36.0045 
2 *104:8 *703:A2 49.5488 
*END

*D_NET *105 0.000124677
*CONN
*I *699:A2 I *D AO21x1_ASAP7_75t_SL
*I *499:Y O *D BUFx2_ASAP7_75t_SL
*CAP
1 *699:A2 0
2 *499:Y 4.96541e-05
3 *105:14 5.35633e-06
4 *105:6 5.50104e-05
5 *105:6 *331:13 5.4895e-06
6 *105:14 *259:10 5.79724e-07
7 *105:14 *457:169 8.58704e-06
8 *105:14 *471:74 0
*RES
1 *499:Y *105:6 38.0582 
2 *105:6 *105:14 38.8203 
3 *105:14 *699:A2 17.2 
*END

*D_NET *106 0.00037228
*CONN
*I *550:A1 I *D AO221x1_ASAP7_75t_SL
*I *539:A1 I *D OA21x2_ASAP7_75t_SL
*I *500:Y O *D INVx1_ASAP7_75t_SL
*CAP
1 *550:A1 0
2 *539:A1 2.60032e-06
3 *500:Y 4.36642e-06
4 *106:18 3.42547e-05
5 *106:12 3.16544e-05
6 *106:10 3.12307e-05
7 *106:8 3.55971e-05
8 *106:8 *355:19 6.7842e-07
9 *106:10 *550:C 3.6736e-06
10 *106:10 *939:A 2.67352e-05
11 *106:10 *146:145 0
12 *106:10 *336:35 8.37597e-06
13 *106:10 *355:25 2.26329e-05
14 *106:10 *356:27 1.16821e-05
15 *106:10 *377:8 6.50861e-05
16 *106:10 *377:16 6.72662e-07
17 *106:10 *396:8 0
18 *106:18 *540:A 3.32579e-06
19 *106:18 *547:A2 1.12894e-06
20 *106:18 *550:C 6.7842e-07
21 *106:18 *763:CLK 1.37152e-05
22 *106:18 *149:110 3.6307e-06
23 *106:18 *336:35 4.43244e-06
24 *106:18 *378:21 4.40256e-06
25 *106:18 *458:71 5.8968e-06
26 *106:18 *476:18 1.49407e-08
27 *106:18 *476:135 1.49407e-08
28 *547:B *106:18 1.31716e-05
29 *3:10 *106:18 9.8079e-06
30 *4:14 *539:A1 2.52755e-07
31 *21:14 *106:10 2.35211e-06
32 *21:14 *106:18 3.0215e-05
*RES
1 *500:Y *106:8 36.0045 
2 *106:8 *106:10 41.6743 
3 *106:10 *106:12 17.2 
4 *106:12 *106:18 48.6523 
5 *106:18 *539:A1 35.4697 
6 *106:12 *550:A1 17.2 
*END

*D_NET *107 9.91024e-05
*CONN
*I *694:A2 I *D AO21x1_ASAP7_75t_SL
*I *501:Y O *D BUFx2_ASAP7_75t_SL
*CAP
1 *694:A2 0
2 *501:Y 2.9816e-05
3 *107:12 6.93121e-06
4 *107:6 3.67472e-05
5 *107:6 *370:12 2.34111e-05
6 *107:12 *457:173 2.19685e-06
7 *107:12 *471:39 0
*RES
1 *501:Y *107:6 33.7796 
2 *107:6 *107:12 40.0317 
3 *107:12 *694:A2 17.2 
*END

*D_NET *108 5.91267e-05
*CONN
*I *503:A2 I *D OA21x2_ASAP7_75t_SL
*I *502:Y O *D INVx1_ASAP7_75t_SL
*CAP
1 *503:A2 2.63832e-06
2 *502:Y 9.14533e-06
3 *108:10 1.17836e-05
4 *108:10 *416:6 1.51653e-06
5 *108:10 *416:27 0
6 *108:10 *478:86 1.5804e-05
7 *959:A *108:10 2.28976e-06
8 *65:53 *108:10 1.59491e-05
*RES
1 *502:Y *108:10 44.8451 
2 *108:10 *503:A2 35.4697 
*END

*D_NET *109 0.000356249
*CONN
*I *563:A1 I *D OA21x2_ASAP7_75t_SL
*I *507:A2 I *D OAI21x1_ASAP7_75t_SL
*I *556:A2 I *D OA21x2_ASAP7_75t_SL
*I *503:Y O *D OA21x2_ASAP7_75t_SL
*CAP
1 *563:A1 1.22867e-05
2 *507:A2 1.22346e-06
3 *556:A2 0
4 *503:Y 1.84597e-05
5 *109:29 1.76034e-05
6 *109:27 2.86768e-05
7 *109:14 2.42139e-05
8 *109:10 6.63588e-05
9 *109:8 3.6021e-05
10 *507:A2 *507:A1 5.62196e-06
11 *507:A2 *507:B 5.62196e-06
12 *563:A1 *507:B 2.01965e-05
13 *563:A1 *110:14 1.8148e-05
14 *563:A1 *112:10 2.38741e-05
15 *563:A1 *159:10 1.01391e-06
16 *563:A1 *160:8 2.07283e-05
17 *109:10 *158:10 3.875e-06
18 *109:10 *159:10 0
19 *109:10 *457:86 0
20 *109:14 *155:10 5.19552e-07
21 *109:14 *467:55 1.73051e-05
22 *109:27 *507:A1 5.17782e-06
23 *109:27 *159:10 0
24 *109:27 *457:86 0
25 *109:29 *110:14 4.89142e-06
26 *109:29 *159:10 2.19685e-06
27 *556:B *109:14 2.96818e-06
28 *66:25 *109:8 1.92671e-05
*RES
1 *503:Y *109:8 43.492 
2 *109:8 *109:10 12.9528 
3 *109:10 *109:14 34.3144 
4 *109:14 *556:A2 17.2 
5 *109:10 *109:27 48.1674 
6 *109:27 *109:29 3.94216 
7 *109:29 *507:A2 36.0045 
8 *109:29 *563:A1 49.8852 
*END

*D_NET *110 0.000132024
*CONN
*I *507:A1 I *D OAI21x1_ASAP7_75t_SL
*I *563:A2 I *D OA21x2_ASAP7_75t_SL
*I *504:Y O *D OR3x1_ASAP7_75t_SL
*CAP
1 *507:A1 4.65075e-06
2 *563:A2 0
3 *504:Y 2.13963e-05
4 *110:14 7.15509e-06
5 *110:6 3.32022e-05
6 *507:A1 *507:B 1.35684e-06
7 *110:6 *504:C 2.20493e-06
8 *110:6 *507:B 3.56648e-06
9 *110:6 *531:D 1.37525e-05
10 *110:14 *112:10 1.44167e-06
11 *110:14 *159:10 9.45797e-06
12 *507:A2 *507:A1 5.62196e-06
13 *563:A1 *110:14 1.8148e-05
14 *109:27 *507:A1 5.17782e-06
15 *109:29 *110:14 4.89142e-06
*RES
1 *504:Y *110:6 32.7099 
2 *110:6 *110:14 43.354 
3 *110:14 *563:A2 17.2 
4 *110:6 *507:A1 22.0134 
*END

*D_NET *111 0.000183659
*CONN
*I *506:A2 I *D OA21x2_ASAP7_75t_SL
*I *561:B I *D OA21x2_ASAP7_75t_SL
*I *505:Y O *D OA21x2_ASAP7_75t_SL
*CAP
1 *506:A2 0
2 *561:B 1.34282e-05
3 *505:Y 8.17997e-06
4 *111:23 2.52318e-05
5 *111:8 4.68399e-05
6 *561:B *559:A 4.83862e-06
7 *561:B *561:A2 6.92634e-06
8 *561:B *156:12 7.13296e-06
9 *561:B *417:35 1.09842e-06
10 *561:B *418:61 1.35684e-06
11 *561:B *480:28 4.70139e-06
12 *111:8 *156:12 1.07377e-06
13 *111:8 *418:61 2.40241e-05
14 *111:8 *480:28 7.58265e-07
15 *111:23 *559:A 4.83862e-06
16 *111:23 *155:10 1.12901e-05
17 *111:23 *417:35 1.12894e-06
18 *111:23 *417:41 9.47947e-06
19 *111:23 *437:16 1.64348e-06
20 *111:23 *494:58 9.68811e-06
*RES
1 *505:Y *111:8 41.3527 
2 *111:8 *561:B 46.2512 
3 *111:8 *111:23 39.7266 
4 *111:23 *506:A2 17.2 
*END

*D_NET *112 0.000114385
*CONN
*I *563:B I *D OA21x2_ASAP7_75t_SL
*I *507:B I *D OAI21x1_ASAP7_75t_SL
*I *506:Y O *D OA21x2_ASAP7_75t_SL
*CAP
1 *563:B 0
2 *507:B 1.48165e-05
3 *506:Y 1.31976e-05
4 *112:10 2.80141e-05
5 *507:B *113:10 0
6 *507:B *457:86 0
7 *112:10 *160:8 2.29934e-06
8 *507:A1 *507:B 1.35684e-06
9 *507:A2 *507:B 5.62196e-06
10 *563:A1 *507:B 2.01965e-05
11 *563:A1 *112:10 2.38741e-05
12 *110:6 *507:B 3.56648e-06
13 *110:14 *112:10 1.44167e-06
*RES
1 *506:Y *112:10 44.1119 
2 *112:10 *507:B 45.9714 
3 *112:10 *563:B 34.4 
*END

*D_NET *113 0.000587683
*CONN
*I *527:A2 I *D AO211x2_ASAP7_75t_SL
*I *951:A I *D BUFx3_ASAP7_75t_SL
*I *507:Y O *D OAI21x1_ASAP7_75t_SL
*CAP
1 *527:A2 1.71559e-05
2 *951:A 0
3 *507:Y 8.93219e-06
4 *113:39 3.44996e-05
5 *113:33 7.56226e-05
6 *113:27 6.14249e-05
7 *113:14 2.18242e-05
8 *113:10 7.67285e-05
9 *113:8 6.69825e-05
10 *527:A2 *335:21 3.3563e-06
11 *113:10 *712:A1 0
12 *113:10 *146:95 7.11762e-06
13 *113:10 *159:33 0
14 *113:10 *269:8 0
15 *113:10 *270:10 6.34286e-05
16 *113:10 *453:31 0
17 *113:10 *457:86 5.67735e-06
18 *113:10 *457:99 0
19 *113:10 *457:118 2.98532e-06
20 *113:14 *712:C 1.32074e-05
21 *113:14 *964:A 1.35736e-05
22 *113:14 *269:16 5.09299e-06
23 *113:27 *964:A 1.44167e-06
24 *113:27 *408:12 6.33206e-07
25 *113:27 *492:8 1.12894e-06
26 *113:33 *964:A 5.19552e-07
27 *113:33 *354:23 1.5053e-05
28 *113:33 *361:10 0
29 *113:33 *408:12 7.98105e-06
30 *113:33 *408:33 2.80106e-05
31 *113:39 *408:33 1.56717e-05
32 *507:B *113:10 0
33 *520:B *527:A2 5.85387e-06
34 *39:55 *527:A2 5.77141e-06
35 *44:10 *527:A2 1.66659e-05
36 *44:23 *527:A2 7.57325e-06
37 *46:10 *113:10 0
38 *48:8 *113:27 3.76935e-06
*RES
1 *507:Y *113:8 38.1438 
2 *113:8 *113:10 47.8691 
3 *113:10 *113:14 32.1751 
4 *113:14 *951:A 17.2 
5 *113:14 *113:27 38.2855 
6 *113:27 *113:33 48.4749 
7 *113:33 *113:39 45.6313 
8 *113:39 *527:A2 48.054 
*END

*D_NET *114 0.000164764
*CONN
*I *516:A I *D AND5x1_ASAP7_75t_SL
*I *508:Y O *D INVx1_ASAP7_75t_SL
*CAP
1 *516:A 0
2 *508:Y 1.23169e-05
3 *114:14 2.95235e-05
4 *114:10 4.18405e-05
5 *114:10 *126:8 2.77657e-06
6 *114:14 *516:E 3.68287e-06
7 *114:14 *969:A 9.30483e-06
8 *114:14 *116:21 3.65467e-06
9 *114:14 *117:30 6.38732e-06
10 *114:14 *122:6 4.40929e-05
11 *508:A *114:10 2.20493e-06
12 *39:55 *114:10 2.03526e-06
13 *44:23 *114:10 6.94376e-06
*RES
1 *508:Y *114:10 42.7058 
2 *114:10 *114:14 39.6627 
3 *114:14 *516:A 17.2 
*END

*D_NET *115 0.000270136
*CONN
*I *734:A2 I *D OA222x2_ASAP7_75t_SL
*I *509:Y O *D BUFx2_ASAP7_75t_SL
*CAP
1 *734:A2 2.18231e-05
2 *509:Y 9.19456e-06
3 *115:10 6.08565e-05
4 *115:8 4.82279e-05
5 *734:A2 *734:B2 1.52651e-06
6 *734:A2 *734:C1 5.22376e-07
7 *734:A2 *303:22 5.62196e-06
8 *734:A2 *478:21 1.53057e-06
9 *734:A2 *483:170 5.41446e-06
10 *115:10 *922:A 0
11 *115:10 *246:10 2.19685e-06
12 *115:10 *247:10 6.30944e-05
13 *115:10 *293:18 5.52807e-07
14 *115:10 *293:27 1.07573e-06
15 *115:10 *457:26 0
16 *115:10 *476:66 1.03429e-05
17 *773:D *115:10 1.32406e-05
18 *95:10 *734:A2 2.49152e-05
*RES
1 *509:Y *115:8 38.1438 
2 *115:8 *115:10 38.2953 
3 *115:10 *734:A2 48.8403 
*END

*D_NET *116 9.61861e-05
*CONN
*I *516:B I *D AND5x1_ASAP7_75t_SL
*I *957:A I *D BUFx3_ASAP7_75t_SL
*I *510:Y O *D INVx1_ASAP7_75t_SL
*CAP
1 *516:B 0
2 *957:A 1.56544e-05
3 *510:Y 0
4 *116:21 1.22497e-05
5 *116:4 2.79041e-05
6 *957:A *117:24 6.26851e-06
7 *957:A *117:30 1.27846e-05
8 *957:A *414:10 6.86929e-06
9 *957:A *424:14 6.15528e-07
10 *116:21 *117:30 1.45824e-06
11 *116:21 *424:10 8.2174e-07
12 *47:18 *116:21 7.9052e-06
13 *114:14 *116:21 3.65467e-06
*RES
1 *510:Y *116:4 17.2 
2 *116:4 *957:A 32.1751 
3 *116:4 *116:21 43.0989 
4 *116:21 *516:B 17.2 
*END

*D_NET *117 0.000326081
*CONN
*I *956:A I *D BUFx3_ASAP7_75t_SL
*I *516:C I *D AND5x1_ASAP7_75t_SL
*I *511:Y O *D INVx1_ASAP7_75t_SL
*CAP
1 *956:A 5.312e-06
2 *516:C 0
3 *511:Y 1.36935e-05
4 *117:30 4.04364e-05
5 *117:24 5.82382e-05
6 *117:16 4.87762e-05
7 *117:10 3.93559e-05
8 *956:A *408:20 3.03346e-06
9 *956:A *444:48 1.06372e-06
10 *117:10 *577:C 1.9914e-05
11 *117:10 *165:10 9.94583e-06
12 *117:10 *166:14 9.67723e-06
13 *117:16 *446:29 1.95129e-06
14 *117:16 *446:38 1.12561e-05
15 *117:24 *408:20 9.93857e-06
16 *117:24 *444:48 6.33206e-07
17 *117:30 *408:20 0
18 *117:30 *424:10 1.64348e-06
19 *519:B *956:A 2.79851e-06
20 *957:A *117:24 6.26851e-06
21 *957:A *117:30 1.27846e-05
22 *53:40 *956:A 1.94746e-05
23 *53:40 *117:16 2.03997e-06
24 *114:14 *117:30 6.38732e-06
25 *116:21 *117:30 1.45824e-06
*RES
1 *511:Y *117:10 43.6621 
2 *117:10 *117:16 47.7706 
3 *117:16 *117:24 44.7317 
4 *117:24 *117:30 38.3699 
5 *117:30 *516:C 17.2 
6 *117:16 *956:A 44.1119 
*END

*D_NET *118 0.000180046
*CONN
*I *516:D I *D AND5x1_ASAP7_75t_SL
*I *947:A I *D BUFx3_ASAP7_75t_SL
*I *512:Y O *D INVx1_ASAP7_75t_SL
*CAP
1 *516:D 0
2 *947:A 3.08264e-05
3 *512:Y 0
4 *118:17 1.14253e-05
5 *118:4 4.22517e-05
6 *947:A *404:10 6.53938e-06
7 *947:A *423:32 3.93097e-06
8 *118:17 *121:12 5.19498e-06
9 *118:17 *174:8 3.39634e-05
10 *118:17 *361:10 4.59141e-05
*RES
1 *512:Y *118:4 17.2 
2 *118:4 *947:A 35.384 
3 *118:4 *118:17 34.5448 
4 *118:17 *516:D 34.4 
*END

*D_NET *119 0.000103141
*CONN
*I *690:A2 I *D AO21x1_ASAP7_75t_SL
*I *513:Y O *D BUFx2_ASAP7_75t_SL
*CAP
1 *690:A2 1.54121e-05
2 *513:Y 1.69497e-05
3 *119:8 3.23617e-05
4 *690:A2 *149:42 3.84173e-05
*RES
1 *513:Y *119:8 42.4224 
2 *119:8 *690:A2 48.4225 
*END

*D_NET *120 0.000520091
*CONN
*I *687:A2 I *D AO221x2_ASAP7_75t_SL
*I *514:Y O *D BUFx2_ASAP7_75t_SL
*CAP
1 *687:A2 3.26519e-06
2 *514:Y 1.84015e-05
3 *120:18 1.98192e-05
4 *120:10 0.00011084
5 *120:8 0.000112688
6 *687:A2 *687:B2 1.73158e-06
7 *120:8 *514:A 2.86376e-07
8 *120:10 *736:B2 0
9 *120:10 *294:35 1.17667e-05
10 *120:10 *347:18 0
11 *120:10 *388:10 0.000189305
12 *120:10 *471:168 3.70195e-05
13 *120:10 *483:158 6.79918e-06
14 *120:18 *250:12 1.70708e-06
15 *120:18 *294:35 9.3535e-07
16 *120:18 *294:41 1.70303e-06
17 *64:12 *120:18 0
18 *64:18 *687:A2 3.82336e-06
*RES
1 *514:Y *120:8 40.2831 
2 *120:8 *120:10 101.933 
3 *120:10 *120:18 42.7058 
4 *120:18 *687:A2 37.0741 
*END

*D_NET *121 0.000283758
*CONN
*I *954:A I *D BUFx3_ASAP7_75t_SL
*I *516:E I *D AND5x1_ASAP7_75t_SL
*I *515:Y O *D NOR2x1_ASAP7_75t_SL
*CAP
1 *954:A 0
2 *516:E 1.41092e-06
3 *515:Y 3.19428e-06
4 *121:25 1.99636e-05
5 *121:12 3.6692e-05
6 *121:6 5.84389e-05
7 *121:12 *124:8 2.36401e-05
8 *121:12 *174:8 4.10682e-05
9 *121:12 *354:23 4.31787e-06
10 *121:12 *361:10 2.22736e-06
11 *121:25 *592:A 2.25787e-06
12 *121:25 *968:A 7.2538e-06
13 *121:25 *335:21 6.70508e-05
14 *121:25 *354:23 0
15 *121:25 *428:58 9.72458e-07
16 *42:47 *121:12 5.85387e-06
17 *42:47 *121:25 5.37866e-07
18 *114:14 *516:E 3.68287e-06
19 *118:17 *121:12 5.19498e-06
*RES
1 *515:Y *121:6 18.8045 
2 *121:6 *121:12 48.1988 
3 *121:12 *516:E 35.4697 
4 *121:6 *121:25 39.7266 
5 *121:25 *954:A 34.4 
*END

*D_NET *122 0.000227599
*CONN
*I *527:A1 I *D AO211x2_ASAP7_75t_SL
*I *596:A2 I *D AO21x1_ASAP7_75t_SL
*I *516:Y O *D AND5x1_ASAP7_75t_SL
*CAP
1 *527:A1 0
2 *596:A2 0
3 *516:Y 2.05187e-05
4 *122:16 2.2517e-05
5 *122:10 2.84804e-05
6 *122:6 2.64822e-05
7 *122:6 *126:16 6.70433e-06
8 *122:6 *426:8 2.54045e-06
9 *122:10 *123:18 0
10 *122:10 *429:8 9.5132e-06
11 *122:10 *441:26 4.21123e-06
12 *122:16 *596:A1 2.0779e-05
13 *122:16 *429:8 2.66045e-05
14 *39:68 *122:16 3.32579e-06
15 *44:10 *122:16 1.6136e-06
16 *44:23 *122:10 5.78288e-06
17 *44:23 *122:16 4.43244e-06
18 *114:14 *122:6 4.40929e-05
*RES
1 *516:Y *122:6 34.3144 
2 *122:6 *122:10 23.958 
3 *122:10 *122:16 40.3428 
4 *122:16 *596:A2 17.2 
5 *122:10 *527:A1 34.4 
*END

*D_NET *123 0.000231414
*CONN
*I *521:C I *D OA211x2_ASAP7_75t_SL
*I *522:B2 I *D AOI221x1_ASAP7_75t_SL
*I *517:Y O *D AND2x2_ASAP7_75t_SL
*CAP
1 *521:C 0
2 *522:B2 0
3 *517:Y 2.1774e-05
4 *123:31 2.12449e-05
5 *123:18 3.68161e-05
6 *123:16 2.97592e-05
7 *123:10 3.59619e-05
8 *123:10 *596:B 0
9 *123:10 *132:28 1.49407e-08
10 *123:10 *133:8 9.94583e-06
11 *123:16 *527:B 2.31575e-05
12 *123:16 *132:28 3.16328e-06
13 *123:18 *596:B 3.88459e-07
14 *123:18 *128:8 6.57392e-07
15 *123:18 *429:8 0
16 *123:31 *522:B1 1.09067e-06
17 *123:31 *127:10 5.66897e-06
18 *123:31 *179:16 1.27255e-05
19 *123:31 *428:16 6.6195e-06
20 *517:A *123:10 2.0895e-06
21 *517:B *123:10 1.96943e-05
22 *984:A *123:10 0
23 *39:35 *123:10 0
24 *39:43 *123:10 6.41585e-07
25 *42:26 *123:18 0
26 *42:26 *123:31 0
27 *122:10 *123:18 0
*RES
1 *517:Y *123:10 48.054 
2 *123:10 *123:16 45.6313 
3 *123:16 *123:18 10.137 
4 *123:18 *522:B2 34.4 
5 *123:18 *123:31 35.3027 
6 *123:31 *521:C 17.2 
*END

*D_NET *124 0.00016062
*CONN
*I *521:A2 I *D OA211x2_ASAP7_75t_SL
*I *586:A1 I *D OA21x2_ASAP7_75t_SL
*I *518:Y O *D OR2x2_ASAP7_75t_SL
*CAP
1 *521:A2 5.17104e-06
2 *586:A1 0
3 *518:Y 1.22612e-05
4 *124:25 2.3675e-05
5 *124:12 2.38359e-05
6 *124:8 1.75932e-05
7 *521:A2 *586:B 4.92332e-06
8 *521:A2 *125:27 1.99018e-05
9 *521:A2 *179:10 7.72307e-07
10 *124:8 *354:23 6.10236e-06
11 *124:8 *361:10 1.49407e-08
12 *124:12 *125:6 0
13 *124:25 *586:B 6.7842e-07
14 *124:25 *125:6 0
15 *124:25 *125:14 1.04475e-06
16 *124:25 *125:27 0
17 *124:25 *335:21 5.69885e-06
18 *124:25 *426:10 1.53071e-05
19 *121:12 *124:8 2.36401e-05
*RES
1 *518:Y *124:8 46.2265 
2 *124:8 *124:12 19.3393 
3 *124:12 *586:A1 17.2 
4 *124:12 *124:25 45.8864 
5 *124:25 *521:A2 23.0831 
*END

*D_NET *125 0.000211683
*CONN
*I *521:A1 I *D OA211x2_ASAP7_75t_SL
*I *586:A2 I *D OA21x2_ASAP7_75t_SL
*I *519:Y O *D OA21x2_ASAP7_75t_SL
*CAP
1 *521:A1 2.75079e-06
2 *586:A2 0
3 *519:Y 4.82589e-05
4 *125:27 3.02328e-05
5 *125:14 3.05084e-06
6 *125:6 7.87917e-05
7 *521:A1 *521:B 2.03526e-06
8 *125:14 *354:23 8.45637e-06
9 *125:14 *426:10 3.16603e-06
10 *125:27 *179:10 0
11 *521:A2 *125:27 1.99018e-05
12 *580:B *125:6 5.92989e-06
13 *44:23 *125:27 8.06436e-06
14 *124:12 *125:6 0
15 *124:25 *125:6 0
16 *124:25 *125:14 1.04475e-06
17 *124:25 *125:27 0
*RES
1 *519:Y *125:6 34.8492 
2 *125:6 *125:14 38.2855 
3 *125:14 *586:A2 17.2 
4 *125:6 *125:27 48.4472 
5 *125:27 *521:A1 18.8045 
*END

*D_NET *126 0.000155591
*CONN
*I *586:B I *D OA21x2_ASAP7_75t_SL
*I *521:B I *D OA211x2_ASAP7_75t_SL
*I *520:Y O *D OA21x2_ASAP7_75t_SL
*CAP
1 *586:B 1.0261e-05
2 *521:B 5.0278e-06
3 *520:Y 7.94853e-06
4 *126:16 1.83301e-05
5 *126:8 3.15119e-05
6 *521:B *179:10 9.75645e-06
7 *521:B *179:16 1.40419e-08
8 *586:B *179:10 6.7842e-07
9 *586:B *335:21 1.51765e-05
10 *126:8 *335:21 2.68658e-05
11 *521:A1 *521:B 2.03526e-06
12 *521:A2 *586:B 4.92332e-06
13 *44:23 *126:8 0
14 *44:23 *126:16 1.2903e-05
15 *114:10 *126:8 2.77657e-06
16 *122:6 *126:16 6.70433e-06
17 *124:25 *586:B 6.7842e-07
*RES
1 *520:Y *126:8 43.4107 
2 *126:8 *126:16 43.7188 
3 *126:16 *521:B 37.609 
4 *126:8 *586:B 43.7754 
*END

*D_NET *127 6.5402e-05
*CONN
*I *522:C I *D AOI221x1_ASAP7_75t_SL
*I *521:Y O *D OA211x2_ASAP7_75t_SL
*CAP
1 *522:C 0
2 *521:Y 1.80742e-05
3 *127:10 1.80742e-05
4 *127:10 *428:16 2.35847e-05
5 *42:26 *127:10 0
6 *42:37 *127:10 0
7 *123:31 *127:10 5.66897e-06
*RES
1 *521:Y *127:10 45.8581 
2 *127:10 *522:C 34.4 
*END

*D_NET *128 6.1769e-05
*CONN
*I *527:C I *D AO211x2_ASAP7_75t_SL
*I *596:B I *D AO21x1_ASAP7_75t_SL
*I *522:Y O *D AOI221x1_ASAP7_75t_SL
*CAP
1 *527:C 0
2 *596:B 2.07323e-05
3 *522:Y 6.2268e-06
4 *128:8 2.69591e-05
5 *596:B *132:28 3.40801e-06
6 *596:B *133:8 0
7 *596:B *187:8 1.04475e-06
8 *128:8 *132:28 2.35211e-06
9 *128:8 *441:20 0
10 *123:10 *596:B 0
11 *123:18 *596:B 3.88459e-07
12 *123:18 *128:8 6.57392e-07
*RES
1 *522:Y *128:8 38.9053 
2 *128:8 *596:B 48.2808 
3 *128:8 *527:C 34.4 
*END

*D_NET *129 0.000324556
*CONN
*I *682:A2 I *D AO21x1_ASAP7_75t_SL
*I *523:Y O *D BUFx2_ASAP7_75t_SL
*CAP
1 *682:A2 1.18382e-05
2 *523:Y 4.47746e-06
3 *129:10 7.51686e-05
4 *129:8 6.78079e-05
5 *682:A2 *682:A1 3.50589e-05
6 *682:A2 *682:B 2.28976e-06
7 *682:A2 *247:8 1.26378e-06
8 *682:A2 *457:22 5.19552e-07
9 *129:10 *922:A 5.51814e-06
10 *129:10 *346:31 4.26884e-05
11 *129:10 *379:8 7.60261e-05
12 *129:10 *457:26 1.89962e-06
*RES
1 *523:Y *129:8 36.0045 
2 *129:8 *129:10 72.0853 
3 *129:10 *682:A2 47.2358 
*END

*D_NET *130 0.000128151
*CONN
*I *525:A2 I *D OA21x2_ASAP7_75t_SL
*I *610:C I *D OA211x2_ASAP7_75t_SL
*I *524:Y O *D OA21x2_ASAP7_75t_SL
*CAP
1 *525:A2 1.41762e-05
2 *610:C 8.25426e-06
3 *524:Y 1.50061e-05
4 *130:10 3.74365e-05
5 *525:A2 *525:A1 1.29755e-05
6 *525:A2 *132:6 1.02506e-06
7 *610:C *132:6 4.73041e-06
8 *610:C *199:8 5.34278e-06
9 *610:C *427:42 6.76763e-07
10 *130:10 *427:42 5.37569e-06
11 *35:33 *610:C 4.68554e-06
12 *35:33 *130:10 1.84666e-05
*RES
1 *524:Y *130:10 44.7884 
2 *130:10 *610:C 41.9726 
3 *130:10 *525:A2 42.4224 
*END

*D_NET *131 2.96734e-05
*CONN
*I *526:A2 I *D OAI21x1_ASAP7_75t_SL
*I *525:Y O *D OA21x2_ASAP7_75t_SL
*CAP
1 *526:A2 9.41532e-06
2 *525:Y 9.41532e-06
3 *526:A2 *132:6 2.61188e-06
4 *29:12 *526:A2 8.23084e-06
*RES
1 *525:Y *526:A2 42.4224 
*END

*D_NET *132 0.000452084
*CONN
*I *659:A I *D INVx1_ASAP7_75t_SL
*I *527:B I *D AO211x2_ASAP7_75t_SL
*I *526:Y O *D OAI21x1_ASAP7_75t_SL
*CAP
1 *659:A 0
2 *527:B 1.43936e-05
3 *526:Y 5.48562e-05
4 *132:28 5.09016e-05
5 *132:22 5.70263e-05
6 *132:14 3.2201e-05
7 *132:10 3.80145e-05
8 *132:6 8.11879e-05
9 *132:6 *610:A1 2.12481e-06
10 *132:6 *610:B 7.58265e-07
11 *132:6 *199:8 0
12 *132:6 *427:42 1.32196e-05
13 *132:10 *149:149 1.85791e-05
14 *132:10 *149:155 1.49407e-08
15 *132:10 *236:10 1.49948e-05
16 *132:10 *431:60 8.87893e-06
17 *132:14 *430:8 6.44983e-06
18 *132:22 *440:10 0
19 *132:22 *441:14 1.00534e-05
20 *132:22 *441:20 5.0468e-07
21 *132:22 *441:41 1.52651e-06
22 *132:28 *441:20 0
23 *525:A2 *132:6 1.02506e-06
24 *526:A2 *132:6 2.61188e-06
25 *596:B *132:28 3.40801e-06
26 *610:C *132:6 4.73041e-06
27 *39:43 *132:28 2.11853e-06
28 *39:55 *527:B 3.81627e-06
29 *76:8 *132:10 0
30 *123:10 *132:28 1.49407e-08
31 *123:16 *527:B 2.31575e-05
32 *123:16 *132:28 3.16328e-06
33 *128:8 *132:28 2.35211e-06
*RES
1 *526:Y *132:6 43.4064 
2 *132:6 *132:10 39.7266 
3 *132:10 *132:14 24.6875 
4 *132:14 *132:22 47.9123 
5 *132:22 *132:28 34.5695 
6 *132:28 *527:B 45.6313 
7 *132:14 *659:A 17.2 
*END

*D_NET *133 0.000380653
*CONN
*I *945:A I *D BUFx3_ASAP7_75t_SL
*I *720:A1 I *D AO21x2_ASAP7_75t_SL
*I *638:A2 I *D AOI21x1_ASAP7_75t_SL
*I *641:C I *D AND3x4_ASAP7_75t_SL
*I *722:A1 I *D AO21x2_ASAP7_75t_SL
*I *981:A I *D BUFx3_ASAP7_75t_SL
*I *978:C I *D AND3x4_ASAP7_75t_SL
*I *527:Y O *D AO211x2_ASAP7_75t_SL
*CAP
1 *945:A 2.76889e-06
2 *720:A1 1.12312e-05
3 *638:A2 0
4 *641:C 1.75942e-06
5 *722:A1 2.57395e-06
6 *981:A 0
7 *978:C 2.51945e-06
8 *527:Y 1.86384e-05
9 *133:58 1.39332e-05
10 *133:24 3.37578e-05
11 *133:18 4.46925e-05
12 *133:16 3.33738e-05
13 *133:12 3.4324e-05
14 *133:10 4.49466e-05
15 *133:8 4.84332e-05
16 *641:C *978:A 3.89037e-06
17 *720:A1 *638:A1 1.02672e-05
18 *720:A1 *276:14 8.61756e-06
19 *722:A1 *141:52 5.51397e-07
20 *945:A *213:160 2.12481e-06
21 *978:C *439:22 2.55346e-06
22 *133:10 *141:44 1.37455e-06
23 *133:10 *187:14 0
24 *133:10 *213:8 0
25 *133:10 *213:156 0
26 *133:10 *402:8 0
27 *133:12 *141:44 8.34334e-07
28 *133:12 *209:23 9.15354e-08
29 *133:12 *210:10 1.49407e-08
30 *133:12 *210:71 1.559e-06
31 *133:16 *209:23 3.97746e-06
32 *133:18 *141:52 7.34229e-06
33 *133:24 *141:52 9.40277e-06
34 *133:24 *141:60 1.52439e-05
35 *133:24 *301:25 5.75259e-06
36 *133:24 *439:18 1.53941e-06
37 *133:24 *485:8 0
38 *133:58 *276:14 2.30405e-06
39 *517:A *133:8 0
40 *596:B *133:8 0
41 *984:A *133:8 0
42 *4:104 *133:12 0
43 *4:104 *133:16 0
44 *38:33 *133:8 3.13755e-07
45 *41:10 *133:8 0
46 *123:10 *133:8 9.94583e-06
*RES
1 *527:Y *133:8 47.3528 
2 *133:8 *133:10 18.5845 
3 *133:10 *133:12 9.01066 
4 *133:12 *133:16 28.4633 
5 *133:16 *133:18 9.09202 
6 *133:18 *133:24 40.6509 
7 *133:24 *978:C 36.0045 
8 *133:18 *981:A 17.2 
9 *133:16 *722:A1 18.8045 
10 *133:12 *641:C 35.4697 
11 *133:10 *133:58 18.8045 
12 *133:58 *638:A2 17.2 
13 *133:58 *720:A1 25.2224 
14 *133:8 *945:A 36.0045 
*END

*D_NET *134 0.000115292
*CONN
*I *536:D I *D AND4x1_ASAP7_75t_SL
*I *528:Y O *D AND4x1_ASAP7_75t_SL
*CAP
1 *536:D 1.07806e-05
2 *528:Y 2.27904e-05
3 *134:10 3.3571e-05
4 *536:D *135:14 7.72307e-07
5 *536:D *137:20 5.85387e-06
6 *536:D *142:8 0
7 *134:10 *528:C 5.50294e-07
8 *134:10 *528:D 0
9 *134:10 *147:116 1.03861e-06
10 *134:10 *149:137 0
11 *134:10 *410:27 9.38768e-06
12 *134:10 *410:35 2.49275e-05
13 *528:B *134:10 2.78871e-06
14 *35:10 *134:10 2.83075e-06
*RES
1 *528:Y *134:10 49.9703 
2 *134:10 *536:D 38.6786 
*END

*D_NET *135 0.000162128
*CONN
*I *536:B I *D AND4x1_ASAP7_75t_SL
*I *529:Y O *D AND4x1_ASAP7_75t_SL
*CAP
1 *536:B 0
2 *529:Y 3.97435e-05
3 *135:14 1.21702e-05
4 *135:6 5.19137e-05
5 *135:6 *289:23 3.05232e-05
6 *135:6 *436:12 1.36155e-06
7 *135:6 *472:22 3.68287e-06
8 *135:14 *142:8 1.4939e-05
9 *536:D *135:14 7.72307e-07
10 *750:A *135:6 7.72307e-07
11 *34:22 *135:6 5.0551e-07
12 *35:10 *135:14 5.06565e-06
13 *36:16 *135:14 6.7842e-07
14 *40:18 *135:6 0
*RES
1 *529:Y *135:6 35.9189 
2 *135:6 *135:14 43.1839 
3 *135:14 *536:B 17.2 
*END

*D_NET *136 0.000222786
*CONN
*I *531:E I *D AND5x1_ASAP7_75t_SL
*I *530:Y O *D AND4x1_ASAP7_75t_SL
*CAP
1 *531:E 0
2 *530:Y 6.87254e-06
3 *136:10 4.07547e-05
4 *136:8 4.76272e-05
5 *136:8 *796:CLK 0
6 *136:10 *459:8 7.2158e-06
7 *136:10 *459:19 2.16262e-06
8 *136:10 *465:17 0
9 *136:10 *466:21 5.52807e-07
10 *136:10 *468:10 0.000114918
11 *136:10 *483:58 2.68255e-06
*RES
1 *530:Y *136:8 37.0741 
2 *136:8 *136:10 39.4216 
3 *136:10 *531:E 34.4 
*END

*D_NET *137 0.000605322
*CONN
*I *536:C I *D AND4x1_ASAP7_75t_SL
*I *531:Y O *D AND5x1_ASAP7_75t_SL
*CAP
1 *536:C 0
2 *531:Y 7.35195e-07
3 *137:20 1.55169e-05
4 *137:12 0.000282961
5 *137:10 0.000267444
6 *137:8 7.35195e-07
7 *137:8 *468:10 9.1471e-07
8 *137:12 *146:12 0
9 *137:12 *147:58 6.81956e-06
10 *137:12 *210:20 0
11 *137:12 *437:12 0
12 *137:12 *455:29 0
13 *137:12 *481:12 0
14 *137:20 *147:116 1.41338e-06
15 *137:20 *410:27 5.75943e-07
16 *536:D *137:20 5.85387e-06
17 *35:10 *137:20 2.23522e-05
18 *36:8 *137:20 0
*RES
1 *531:Y *137:8 35.057 
2 *137:8 *137:10 17.2 
3 *137:10 *137:12 95.2327 
4 *137:12 *137:20 46.0476 
5 *137:20 *536:C 17.2 
*END

*D_NET *138 0.000105612
*CONN
*I *535:A2 I *D AOI21x1_ASAP7_75t_SL
*I *532:Y O *D AO21x1_ASAP7_75t_SL
*CAP
1 *535:A2 0
2 *532:Y 1.15494e-05
3 *138:18 2.54445e-05
4 *138:10 3.69939e-05
5 *138:10 *403:14 3.79923e-06
6 *138:10 *403:16 3.73144e-06
7 *138:10 *488:30 5.22376e-07
8 *138:18 *202:10 7.84037e-07
9 *138:18 *202:14 1.23909e-05
10 *26:23 *138:10 5.49212e-07
11 *29:26 *138:18 8.71771e-06
12 *33:14 *138:18 1.12894e-06
*RES
1 *532:Y *138:10 40.9879 
2 *138:10 *138:18 48.4472 
3 *138:18 *535:A2 34.4 
*END

*D_NET *139 0.00025597
*CONN
*I *534:D I *D AND4x1_ASAP7_75t_SL
*I *613:A2 I *D AO221x1_ASAP7_75t_SL
*I *533:Y O *D AO21x1_ASAP7_75t_SL
*CAP
1 *534:D 0
2 *613:A2 4.47179e-06
3 *533:Y 1.43366e-06
4 *139:29 1.6329e-05
5 *139:10 4.39707e-05
6 *139:8 2.46036e-05
7 *613:A2 *141:10 2.66207e-05
8 *613:A2 *202:10 7.58265e-07
9 *613:A2 *443:14 9.15905e-06
10 *139:8 *427:50 2.20493e-06
11 *139:8 *487:8 5.85387e-06
12 *139:10 *290:31 4.12973e-05
13 *139:10 *427:42 2.11907e-06
14 *139:10 *427:50 1.61287e-05
15 *139:29 *202:10 4.92332e-06
16 *139:29 *443:14 6.33206e-07
17 *26:31 *139:29 6.10236e-07
18 *26:44 *139:29 1.62504e-05
19 *29:26 *139:29 1.60287e-05
20 *29:34 *139:29 3.25332e-06
21 *31:31 *139:10 1.09566e-05
22 *32:8 *139:10 8.36385e-06
23 *33:14 *139:29 0
*RES
1 *533:Y *139:8 36.0045 
2 *139:8 *139:10 22.5266 
3 *139:10 *613:A2 42.9572 
4 *139:10 *139:29 48.8439 
5 *139:29 *534:D 34.4 
*END

*D_NET *140 4.31282e-05
*CONN
*I *535:B I *D AOI21x1_ASAP7_75t_SL
*I *534:Y O *D AND4x1_ASAP7_75t_SL
*CAP
1 *535:B 0
2 *534:Y 1.25094e-05
3 *140:10 1.25094e-05
4 *140:10 *427:14 5.03027e-06
5 *33:14 *140:10 1.30791e-05
*RES
1 *534:Y *140:10 42.6491 
2 *140:10 *535:B 34.4 
*END

*D_NET *141 0.00104136
*CONN
*I *641:B I *D AND3x4_ASAP7_75t_SL
*I *953:A I *D BUFx3_ASAP7_75t_SL
*I *722:A2 I *D AO21x2_ASAP7_75t_SL
*I *1029:A I *D BUFx3_ASAP7_75t_SL
*I *952:A I *D BUFx6f_ASAP7_75t_SL
*I *1030:A I *D BUFx3_ASAP7_75t_SL
*I *720:A2 I *D AO21x2_ASAP7_75t_SL
*I *535:Y O *D AOI21x1_ASAP7_75t_SL
*CAP
1 *641:B 1.466e-06
2 *953:A 0
3 *722:A2 0
4 *1029:A 0
5 *952:A 0
6 *1030:A 7.7726e-06
7 *720:A2 1.25773e-05
8 *535:Y 1.58142e-05
9 *141:89 2.40967e-05
10 *141:83 5.76802e-05
11 *141:60 1.8726e-05
12 *141:52 5.32088e-05
13 *141:50 4.01039e-05
14 *141:46 4.22245e-05
15 *141:44 2.26583e-05
16 *141:33 4.07094e-05
17 *141:18 8.96782e-05
18 *141:16 9.25711e-05
19 *141:10 4.60488e-05
20 *641:B *978:A 6.02341e-06
21 *720:A2 *658:B 8.3668e-07
22 *720:A2 *187:25 2.68933e-07
23 *720:A2 *209:72 1.61096e-06
24 *720:A2 *276:12 4.71862e-06
25 *720:A2 *276:14 1.04611e-05
26 *141:16 *427:22 9.16039e-06
27 *141:16 *430:36 0
28 *141:16 *441:49 0
29 *141:18 *187:25 5.52807e-07
30 *141:18 *213:164 5.00394e-06
31 *141:18 *228:12 0
32 *141:18 *343:21 3.74221e-05
33 *141:18 *428:93 0
34 *141:18 *431:60 0
35 *141:18 *432:8 8.85043e-06
36 *141:18 *440:10 9.20585e-05
37 *141:18 *441:41 2.98577e-05
38 *141:18 *441:64 1.09224e-05
39 *141:33 *187:14 8.06588e-06
40 *141:33 *187:25 4.49469e-06
41 *141:44 *209:23 6.51346e-06
42 *141:44 *209:44 1.26929e-05
43 *141:44 *402:8 8.62988e-06
44 *141:44 *486:8 1.28682e-05
45 *141:46 *209:23 1.02382e-05
46 *141:46 *402:8 3.58899e-06
47 *141:50 *209:23 1.25108e-05
48 *141:50 *402:8 3.06221e-06
49 *141:52 *439:10 2.30654e-05
50 *141:60 *301:10 1.6338e-05
51 *141:60 *301:25 1.14525e-05
52 *141:83 *978:A 8.89263e-07
53 *141:89 *661:B 2.8595e-06
54 *141:89 *142:14 2.03526e-06
55 *141:89 *212:23 5.15209e-07
56 *141:89 *278:8 0
57 *141:89 *279:8 5.49212e-07
58 *141:89 *461:20 4.78155e-05
59 *141:89 *476:148 0
60 *517:A *141:18 0
61 *613:A2 *141:10 2.66207e-05
62 *722:A1 *141:52 5.51397e-07
63 *984:A *141:18 0
64 *41:6 *141:83 8.72403e-06
65 *41:10 *720:A2 0
66 *41:10 *141:18 0
67 *133:10 *141:44 1.37455e-06
68 *133:12 *141:44 8.34334e-07
69 *133:18 *141:52 7.34229e-06
70 *133:24 *141:52 9.40277e-06
71 *133:24 *141:60 1.52439e-05
*RES
1 *535:Y *141:10 43.2671 
2 *141:10 *141:16 44.5726 
3 *141:16 *141:18 65.6088 
4 *141:18 *720:A2 43.8321 
5 *141:18 *141:33 27.3617 
6 *141:33 *1030:A 21.4786 
7 *141:33 *141:44 33.5318 
8 *141:44 *141:46 3.94216 
9 *141:46 *141:50 21.7053 
10 *141:50 *141:52 22.9975 
11 *141:52 *141:60 49.2937 
12 *141:60 *952:A 17.2 
13 *141:52 *1029:A 17.2 
14 *141:50 *722:A2 17.2 
15 *141:46 *141:83 48.8403 
16 *141:83 *141:89 37.2756 
17 *141:89 *953:A 17.2 
18 *141:44 *641:B 36.0045 
*END

*D_NET *142 0.000473034
*CONN
*I *538:A2 I *D AO21x1_ASAP7_75t_SL
*I *544:B I *D AND3x1_ASAP7_75t_SL
*I *536:Y O *D AND4x1_ASAP7_75t_SL
*CAP
1 *538:A2 0
2 *544:B 1.02392e-05
3 *536:Y 2.55847e-05
4 *142:22 3.51389e-05
5 *142:18 5.04207e-05
6 *142:16 2.5521e-05
7 *142:14 2.60134e-05
8 *142:8 5.15981e-05
9 *544:B *148:8 9.08513e-06
10 *544:B *402:14 1.25483e-05
11 *544:B *402:22 1.79628e-05
12 *142:8 *410:19 1.7636e-06
13 *142:14 *147:116 1.62188e-05
14 *142:14 *230:12 5.91095e-06
15 *142:18 *663:A2 5.07768e-06
16 *142:18 *147:112 0
17 *142:18 *231:18 1.04585e-07
18 *142:18 *232:14 2.38942e-05
19 *142:18 *232:75 2.13549e-05
20 *142:18 *336:57 5.98031e-06
21 *142:18 *336:67 6.74764e-06
22 *142:18 *458:38 7.98185e-06
23 *142:18 *458:50 3.66349e-06
24 *142:18 *458:65 2.14502e-05
25 *142:18 *461:20 5.21643e-05
26 *142:22 *538:B 3.68287e-06
27 *142:22 *144:10 2.0895e-06
28 *142:22 *402:14 5.19475e-06
29 *536:D *142:8 0
30 *36:16 *142:8 1.59615e-06
31 *75:10 *142:18 7.07219e-06
32 *135:14 *142:8 1.4939e-05
33 *141:89 *142:14 2.03526e-06
*RES
1 *536:Y *142:8 45.6313 
2 *142:8 *142:14 34.063 
3 *142:14 *142:16 17.2 
4 *142:16 *142:18 34.3531 
5 *142:18 *142:22 32.7099 
6 *142:22 *544:B 27.3617 
7 *142:22 *538:A2 17.2 
*END

*D_NET *143 0.000163284
*CONN
*I *644:A2 I *D AO21x1_ASAP7_75t_SL
*I *537:Y O *D BUFx2_ASAP7_75t_SL
*CAP
1 *644:A2 0
2 *537:Y 6.92557e-05
3 *143:12 2.41845e-06
4 *143:6 7.16742e-05
5 *143:6 *537:A 7.66313e-06
6 *143:6 *216:6 3.68565e-06
7 *143:12 *149:174 8.58704e-06
8 *143:12 *336:82 0
*RES
1 *537:Y *143:6 44.4761 
2 *143:6 *143:12 37.2158 
3 *143:12 *644:A2 17.2 
*END

*D_NET *144 3.48781e-05
*CONN
*I *539:B I *D OA21x2_ASAP7_75t_SL
*I *538:Y O *D AO21x1_ASAP7_75t_SL
*CAP
1 *539:B 0
2 *538:Y 1.42019e-05
3 *144:10 1.42019e-05
4 *144:10 *458:71 3.31686e-06
5 *144:10 *476:137 2.83874e-07
6 *144:10 *477:18 7.84037e-07
7 *142:22 *144:10 2.0895e-06
*RES
1 *538:Y *144:10 42.7058 
2 *144:10 *539:B 34.4 
*END

*D_NET *145 7.75498e-05
*CONN
*I *540:B I *D NOR2x1_ASAP7_75t_SL
*I *539:Y O *D OA21x2_ASAP7_75t_SL
*CAP
1 *540:B 1.77541e-06
2 *539:Y 1.11692e-05
3 *145:8 1.29446e-05
4 *145:8 *763:CLK 0
5 *145:8 *336:57 3.80659e-05
6 *145:8 *458:71 0
7 *145:8 *476:10 8.18029e-06
8 *3:10 *540:B 5.41446e-06
*RES
1 *539:Y *145:8 47.3528 
2 *145:8 *540:B 36.0045 
*END

*D_NET *146 0.0025244
*CONN
*I *646:A2 I *D OA21x2_ASAP7_75t_SL
*I *650:A2 I *D OA21x2_ASAP7_75t_SL
*I *542:B I *D NOR2x1_ASAP7_75t_SL
*I *718:A2 I *D OA22x2_ASAP7_75t_SL
*I *688:A2 I *D OA22x2_ASAP7_75t_SL
*I *713:A2 I *D OA22x2_ASAP7_75t_SL
*I *708:A2 I *D OA21x2_ASAP7_75t_SL
*I *696:A2 I *D OA21x2_ASAP7_75t_SL
*I *692:A2 I *D OA21x2_ASAP7_75t_SL
*I *541:Y O *D NAND2x1_ASAP7_75t_SL
*CAP
1 *646:A2 0
2 *650:A2 1.14032e-05
3 *542:B 0
4 *718:A2 0
5 *688:A2 5.95871e-06
6 *713:A2 0
7 *708:A2 0
8 *696:A2 1.51306e-06
9 *692:A2 1.24753e-06
10 *541:Y 0
11 *146:180 1.93713e-05
12 *146:161 4.66866e-05
13 *146:159 3.52833e-05
14 *146:157 8.58052e-05
15 *146:153 8.31497e-05
16 *146:145 5.00513e-05
17 *146:143 5.49127e-05
18 *146:134 6.5333e-05
19 *146:130 8.85037e-05
20 *146:128 6.10704e-05
21 *146:119 4.08534e-06
22 *146:104 3.00831e-05
23 *146:95 6.59193e-06
24 *146:80 1.2335e-05
25 *146:72 5.26026e-05
26 *146:52 4.70854e-05
27 *146:48 9.0839e-05
28 *146:42 6.92225e-05
29 *146:34 8.90172e-05
30 *146:32 7.36917e-05
31 *146:24 9.14247e-05
32 *146:22 9.81302e-05
33 *146:14 0.000116092
34 *146:12 4.7211e-05
35 *146:8 7.24025e-05
36 *146:6 5.72702e-05
37 *146:4 1.63225e-05
38 *650:A2 *650:A1 2.6409e-06
39 *688:A2 *213:50 6.7842e-07
40 *688:A2 *467:12 1.41612e-05
41 *692:A2 *448:6 3.68287e-06
42 *696:A2 *696:B 5.62196e-06
43 *696:A2 *149:46 2.12481e-06
44 *146:8 *149:8 0
45 *146:8 *285:10 1.8373e-05
46 *146:8 *458:122 1.46419e-06
47 *146:8 *461:14 5.52807e-07
48 *146:8 *480:8 0
49 *146:8 *493:35 0
50 *146:12 *147:58 4.23968e-05
51 *146:12 *480:24 0
52 *146:14 *147:58 5.91756e-05
53 *146:14 *480:24 0
54 *146:22 *147:58 5.37605e-06
55 *146:22 *480:24 0
56 *146:24 *210:12 3.32014e-05
57 *146:24 *457:213 0
58 *146:32 *210:12 5.16801e-05
59 *146:32 *210:20 1.70738e-06
60 *146:32 *479:92 2.92003e-05
61 *146:32 *479:106 0
62 *146:34 *210:20 2.56455e-05
63 *146:34 *479:92 1.33146e-06
64 *146:34 *479:100 0
65 *146:34 *479:128 5.03162e-06
66 *146:34 *494:24 0
67 *146:42 *757:A 0
68 *146:42 *210:20 1.10322e-05
69 *146:42 *210:28 8.19225e-06
70 *146:42 *210:54 2.70019e-06
71 *146:42 *297:8 0
72 *146:42 *476:85 0
73 *146:42 *494:24 0
74 *146:48 *149:50 8.80652e-06
75 *146:48 *255:14 2.67517e-05
76 *146:48 *296:14 3.56177e-06
77 *146:48 *349:12 7.92271e-06
78 *146:48 *480:61 0
79 *146:52 *149:50 2.73124e-06
80 *146:52 *210:38 0
81 *146:52 *252:21 0
82 *146:52 *254:10 4.70383e-06
83 *146:52 *296:14 1.21437e-05
84 *146:52 *448:14 0
85 *146:52 *480:61 0
86 *146:72 *530:B 1.27915e-05
87 *146:72 *530:C 0
88 *146:72 *210:54 0
89 *146:72 *264:10 3.05118e-08
90 *146:72 *297:8 1.22671e-05
91 *146:72 *374:18 3.86483e-06
92 *146:72 *459:8 0
93 *146:72 *459:19 0
94 *146:72 *462:26 2.95635e-05
95 *146:72 *464:8 0
96 *146:72 *465:17 1.49407e-08
97 *146:72 *468:18 0
98 *146:72 *479:128 6.37055e-07
99 *146:72 *483:72 0
100 *146:80 *530:B 1.67815e-06
101 *146:80 *705:A 1.44167e-06
102 *146:80 *264:10 1.72991e-05
103 *146:80 *266:10 4.43048e-06
104 *146:80 *452:18 1.93811e-06
105 *146:80 *463:10 1.54229e-06
106 *146:80 *464:8 0
107 *146:104 *213:42 2.64018e-06
108 *146:104 *232:44 2.85874e-05
109 *146:104 *248:12 0
110 *146:104 *249:8 1.30409e-05
111 *146:104 *250:12 2.31565e-05
112 *146:104 *294:35 8.3257e-06
113 *146:104 *461:58 1.01707e-05
114 *146:104 *467:27 2.20417e-06
115 *146:104 *483:158 3.91066e-06
116 *146:119 *454:12 2.43869e-07
117 *146:119 *493:35 0
118 *146:130 *149:8 6.33206e-07
119 *146:130 *458:122 2.20678e-05
120 *146:130 *476:34 1.09067e-06
121 *146:145 *939:A 0
122 *146:145 *215:8 0
123 *146:145 *324:13 1.1958e-05
124 *146:145 *336:46 4.91471e-05
125 *146:145 *336:57 3.02222e-05
126 *146:145 *356:27 0
127 *146:153 *149:116 8.33296e-06
128 *146:153 *231:14 8.58704e-06
129 *146:153 *476:10 6.70433e-06
130 *146:161 *225:8 3.84896e-05
131 *146:161 *280:8 7.99346e-05
132 *146:161 *397:28 3.62938e-05
133 *146:161 *397:34 8.80021e-06
134 *146:161 *436:12 6.84701e-06
135 *146:161 *477:47 1.56807e-06
136 *146:161 *477:58 6.34801e-07
137 *146:180 *208:14 7.80516e-06
138 *146:180 *208:25 1.65464e-05
139 *146:180 *339:25 1.26641e-06
140 *4:26 *146:128 5.25278e-06
141 *10:8 *146:72 3.25955e-06
142 *13:10 *146:8 0
143 *21:14 *146:134 1.59615e-06
144 *21:14 *146:143 5.22376e-07
145 *34:12 *146:161 2.5698e-06
146 *46:10 *146:95 0
147 *55:10 *146:42 1.88168e-06
148 *70:10 *146:180 8.20229e-06
149 *72:6 *146:157 0
150 *106:10 *146:145 0
151 *113:10 *146:95 7.11762e-06
152 *137:12 *146:12 0
*RES
1 *541:Y *146:4 17.2 
2 *146:4 *146:6 17.2 
3 *146:6 *146:8 40.0786 
4 *146:8 *146:12 25.4246 
5 *146:12 *146:14 10.1726 
6 *146:14 *146:22 43.3176 
7 *146:22 *146:24 14.1226 
8 *146:24 *146:32 48.1182 
9 *146:32 *146:34 11.7418 
10 *146:34 *146:42 49.6089 
11 *146:42 *146:48 46.0559 
12 *146:48 *146:52 49.3005 
13 *146:52 *692:A2 18.2696 
14 *146:48 *696:A2 36.0045 
15 *146:34 *146:72 48.0803 
16 *146:72 *146:80 46.0848 
17 *146:80 *708:A2 34.4 
18 *146:24 *146:95 38.5387 
19 *146:95 *713:A2 17.2 
20 *146:14 *146:104 43.7627 
21 *146:104 *688:A2 38.1438 
22 *146:12 *146:119 36.7465 
23 *146:119 *718:A2 17.2 
24 *146:4 *146:128 24.1527 
25 *146:128 *146:130 38.8585 
26 *146:130 *146:134 44.4761 
27 *146:134 *542:B 17.2 
28 *146:134 *146:143 29.501 
29 *146:143 *146:145 35.4795 
30 *146:145 *146:153 47.3775 
31 *146:153 *146:157 47.685 
32 *146:157 *146:159 17.2 
33 *146:159 *146:161 43.9269 
34 *146:161 *650:A2 40.2831 
35 *146:157 *146:180 45.2382 
36 *146:180 *646:A2 17.2 
*END

*D_NET *147 0.00144705
*CONN
*I *653:C I *D AND3x1_ASAP7_75t_SL
*I *666:B I *D OA211x2_ASAP7_75t_SL
*I *663:A3 I *D OA33x2_ASAP7_75t_SL
*I *710:B I *D OA21x2_ASAP7_75t_SL
*I *715:B I *D OA21x2_ASAP7_75t_SL
*I *685:B I *D OA21x2_ASAP7_75t_SL
*I *637:B I *D NAND2x1_ASAP7_75t_SL
*I *544:A I *D AND3x1_ASAP7_75t_SL
*I *543:Y O *D INVx1_ASAP7_75t_SL
*CAP
1 *653:C 2.20242e-05
2 *666:B 4.0845e-06
3 *663:A3 2.75748e-06
4 *710:B 0
5 *715:B 5.11817e-06
6 *685:B 8.91244e-06
7 *637:B 2.0763e-06
8 *544:A 0
9 *543:Y 4.86801e-06
10 *147:139 4.28469e-05
11 *147:124 2.49071e-05
12 *147:122 3.91814e-05
13 *147:116 7.92007e-05
14 *147:112 6.38607e-05
15 *147:95 4.55504e-05
16 *147:84 1.23504e-05
17 *147:71 2.16511e-05
18 *147:58 5.73243e-05
19 *147:54 4.52591e-05
20 *147:48 4.80822e-05
21 *147:33 7.52077e-05
22 *147:24 2.17847e-05
23 *147:14 9.99868e-05
24 *147:12 5.5552e-05
25 *147:6 2.72484e-05
26 *653:C *653:A 5.85387e-06
27 *653:C *653:B 1.61096e-06
28 *653:C *456:106 9.03305e-07
29 *653:C *477:100 1.78906e-05
30 *663:A3 *663:B3 5.85387e-06
31 *666:B *666:C 1.95129e-06
32 *685:B *213:34 3.27799e-05
33 *685:B *467:27 2.20493e-06
34 *685:B *483:158 3.23585e-05
35 *715:B *715:A2 6.7842e-07
36 *715:B *272:8 3.3921e-06
37 *147:12 *231:18 3.79923e-06
38 *147:12 *458:65 9.30097e-06
39 *147:14 *458:30 5.41446e-06
40 *147:24 *148:10 2.77657e-06
41 *147:33 *402:14 0
42 *147:48 *279:22 1.36537e-05
43 *147:48 *279:24 1.03509e-05
44 *147:58 *480:24 0
45 *147:71 *213:34 1.8279e-05
46 *147:71 *483:158 1.95333e-05
47 *147:84 *213:34 5.18827e-05
48 *147:84 *483:158 5.34956e-05
49 *147:95 *729:B2 0
50 *147:95 *149:137 2.9486e-05
51 *147:95 *231:14 0
52 *147:95 *231:18 3.76883e-05
53 *147:112 *663:A2 5.49212e-07
54 *147:112 *149:137 2.33715e-05
55 *147:112 *231:18 3.22574e-06
56 *147:112 *232:14 5.52807e-07
57 *147:116 *149:137 0
58 *147:116 *230:12 7.75e-06
59 *147:116 *397:10 4.45472e-06
60 *147:116 *410:8 1.03986e-06
61 *147:116 *410:27 4.2739e-06
62 *147:116 *481:8 6.33206e-07
63 *147:122 *666:A1 2.37311e-06
64 *147:122 *210:77 2.76514e-06
65 *147:122 *397:16 2.54971e-05
66 *147:122 *477:77 5.21252e-07
67 *147:139 *666:C 1.66663e-05
68 *147:139 *456:12 0
69 *637:A *147:48 3.89037e-06
70 *752:B *147:122 8.65792e-06
71 *4:72 *147:24 2.41555e-05
72 *4:72 *147:33 0
73 *36:16 *147:122 5.21252e-07
74 *41:6 *147:122 3.92497e-06
75 *42:10 *147:122 0
76 *42:10 *147:139 8.14361e-06
77 *43:12 *147:54 6.72662e-07
78 *134:10 *147:116 1.03861e-06
79 *137:12 *147:58 6.81956e-06
80 *137:20 *147:116 1.41338e-06
81 *142:14 *147:116 1.62188e-05
82 *142:18 *147:112 0
83 *146:12 *147:58 4.23968e-05
84 *146:14 *147:58 5.91756e-05
85 *146:22 *147:58 5.37605e-06
*RES
1 *543:Y *147:6 18.8045 
2 *147:6 *147:12 37.779 
3 *147:12 *147:14 22.9975 
4 *147:14 *147:24 49.237 
5 *147:24 *544:A 17.2 
6 *147:14 *147:33 36.9108 
7 *147:33 *637:B 35.4697 
8 *147:33 *147:48 49.4312 
9 *147:48 *147:54 35.057 
10 *147:54 *147:58 36.463 
11 *147:58 *685:B 47.1739 
12 *147:58 *147:71 6.85185 
13 *147:71 *715:B 37.0741 
14 *147:71 *147:84 35.7845 
15 *147:84 *710:B 17.2 
16 *147:6 *147:95 33.8966 
17 *147:95 *663:A3 36.0045 
18 *147:95 *147:112 49.237 
19 *147:112 *147:116 48.7373 
20 *147:116 *147:122 36.259 
21 *147:122 *147:124 17.2 
22 *147:124 *666:B 19.3393 
23 *147:124 *147:139 47.3775 
24 *147:139 *653:C 30.5706 
*END

*D_NET *148 0.000234795
*CONN
*I *549:A1 I *D OA21x2_ASAP7_75t_SL
*I *544:Y O *D AND3x1_ASAP7_75t_SL
*CAP
1 *549:A1 1.56023e-05
2 *544:Y 3.54877e-06
3 *148:10 7.95228e-05
4 *148:8 6.74692e-05
5 *549:A1 *151:14 1.04475e-06
6 *148:10 *149:89 2.21123e-06
7 *148:10 *152:12 4.90019e-05
8 *148:10 *336:27 0
9 *148:10 *356:27 0
10 *148:10 *377:28 0
11 *148:10 *378:8 0
12 *148:10 *378:21 0
13 *148:10 *458:92 0
14 *148:10 *476:26 2.98814e-08
15 *148:10 *476:137 0
16 *544:B *148:8 9.08513e-06
17 *2:8 *148:10 3.95007e-06
18 *4:20 *148:10 0
19 *4:72 *148:10 5.52807e-07
20 *147:24 *148:10 2.77657e-06
*RES
1 *544:Y *148:8 37.0741 
2 *148:8 *148:10 47.3059 
3 *148:10 *549:A1 41.8876 
*END

*D_NET *149 0.00380302
*CONN
*I *644:B I *D AO21x1_ASAP7_75t_SL
*I *672:B I *D NAND2x1_ASAP7_75t_SL
*I *673:B I *D AO21x1_ASAP7_75t_SL
*I *677:B I *D NAND2x1_ASAP7_75t_SL
*I *678:B I *D AO21x1_ASAP7_75t_SL
*I *655:A2 I *D AOI22x1_ASAP7_75t_SL
*I *648:B I *D AO21x1_ASAP7_75t_SL
*I *670:A2 I *D AOI22x1_ASAP7_75t_SL
*I *662:B I *D AO21x1_ASAP7_75t_SL
*I *547:A2 I *D AOI21x1_ASAP7_75t_SL
*I *690:B I *D AO21x1_ASAP7_75t_SL
*I *694:B I *D AO21x1_ASAP7_75t_SL
*I *706:B I *D AO21x1_ASAP7_75t_SL
*I *545:Y O *D AND2x2_ASAP7_75t_SL
*CAP
1 *644:B 1.06207e-06
2 *672:B 9.83241e-06
3 *673:B 0
4 *677:B 2.13133e-05
5 *678:B 0
6 *655:A2 0
7 *648:B 1.04312e-05
8 *670:A2 0
9 *662:B 3.81899e-06
10 *547:A2 4.13843e-06
11 *690:B 0
12 *694:B 7.91826e-06
13 *706:B 2.5525e-06
14 *545:Y 0
15 *149:245 3.54202e-05
16 *149:239 4.31708e-05
17 *149:226 5.76495e-05
18 *149:218 5.26415e-05
19 *149:214 3.03232e-05
20 *149:206 3.65334e-05
21 *149:193 2.95787e-05
22 *149:185 4.17459e-05
23 *149:174 8.70303e-05
24 *149:172 4.39984e-05
25 *149:170 2.88979e-05
26 *149:164 0.000101724
27 *149:155 6.81161e-06
28 *149:149 2.77531e-05
29 *149:143 2.84959e-05
30 *149:137 0.000109196
31 *149:135 0.000120678
32 *149:129 3.72998e-05
33 *149:125 9.96895e-05
34 *149:116 2.12384e-05
35 *149:110 6.48714e-05
36 *149:95 5.02437e-05
37 *149:89 3.60926e-05
38 *149:83 4.26626e-05
39 *149:50 7.07323e-05
40 *149:48 6.81798e-05
41 *149:46 5.33073e-05
42 *149:42 8.1735e-05
43 *149:36 3.18269e-05
44 *149:28 0.000114887
45 *149:26 0.000103569
46 *149:24 7.06392e-05
47 *149:18 7.18168e-05
48 *149:12 8.06239e-05
49 *149:10 7.94463e-05
50 *149:8 2.67037e-05
51 *149:4 3.9466e-05
52 *547:A2 *377:28 1.19435e-05
53 *547:A2 *378:21 8.71771e-06
54 *644:B *216:6 3.89037e-06
55 *648:B *362:6 5.0551e-07
56 *648:B *362:14 1.52651e-06
57 *662:B *231:8 1.56713e-06
58 *662:B *364:12 1.36155e-06
59 *672:B *243:8 0
60 *672:B *336:137 5.67747e-07
61 *694:B *695:C 5.41446e-06
62 *694:B *471:39 4.83862e-06
63 *149:8 *458:111 5.37866e-07
64 *149:8 *458:122 1.46419e-06
65 *149:8 *476:34 1.16088e-06
66 *149:12 *493:41 0
67 *149:18 *248:12 3.05118e-08
68 *149:18 *250:12 1.04612e-06
69 *149:24 *154:18 1.42911e-05
70 *149:24 *213:42 1.34213e-05
71 *149:24 *250:12 0
72 *149:24 *457:69 5.15815e-05
73 *149:24 *457:71 0.000112803
74 *149:24 *480:24 0
75 *149:28 *457:71 7.53018e-05
76 *149:36 *253:10 5.22376e-07
77 *149:36 *471:39 3.23425e-06
78 *149:36 *483:98 1.59977e-05
79 *149:42 *457:77 7.11252e-08
80 *149:42 *471:39 7.04033e-05
81 *149:46 *695:A2 5.41446e-06
82 *149:46 *695:C 5.09299e-06
83 *149:46 *696:B 4.70139e-06
84 *149:46 *255:22 1.07377e-06
85 *149:46 *349:43 1.25483e-05
86 *149:46 *449:18 0
87 *149:50 *213:98 0
88 *149:50 *255:14 1.49407e-08
89 *149:50 *258:14 1.51396e-06
90 *149:50 *258:29 2.50837e-06
91 *149:50 *261:14 3.34248e-06
92 *149:50 *296:14 2.89455e-05
93 *149:50 *450:14 9.15205e-06
94 *149:50 *471:114 6.74984e-06
95 *149:50 *483:80 1.49407e-08
96 *149:83 *765:CLK 9.56957e-06
97 *149:83 *458:111 6.36624e-06
98 *149:83 *476:34 2.78959e-06
99 *149:89 *458:92 7.98105e-06
100 *149:89 *458:111 2.03526e-06
101 *149:89 *476:18 9.94583e-06
102 *149:89 *476:26 1.25606e-05
103 *149:89 *476:135 6.06797e-06
104 *149:110 *476:18 7.25792e-06
105 *149:116 *215:8 2.68933e-07
106 *149:116 *231:14 9.37287e-06
107 *149:116 *364:12 1.12894e-06
108 *149:116 *458:137 1.34231e-06
109 *149:129 *729:A1 0
110 *149:129 *226:14 4.1009e-06
111 *149:129 *397:42 2.01457e-05
112 *149:129 *458:137 8.29156e-06
113 *149:129 *458:152 3.31686e-06
114 *149:129 *477:39 0
115 *149:129 *481:16 3.29527e-06
116 *149:135 *447:18 0
117 *149:135 *447:33 3.16328e-06
118 *149:137 *729:B2 2.98814e-08
119 *149:137 *226:14 0
120 *149:137 *226:22 5.52807e-07
121 *149:137 *227:8 1.43485e-06
122 *149:137 *230:12 2.19615e-05
123 *149:137 *232:14 0
124 *149:137 *232:75 0
125 *149:137 *235:14 8.33296e-06
126 *149:137 *236:10 2.29795e-05
127 *149:137 *397:10 1.83109e-06
128 *149:137 *410:8 2.02029e-05
129 *149:137 *410:35 0
130 *149:137 *431:25 5.99583e-06
131 *149:137 *431:33 8.46363e-06
132 *149:137 *431:56 1.10561e-06
133 *149:137 *447:18 5.52807e-07
134 *149:137 *470:20 0
135 *149:137 *479:50 0
136 *149:149 *770:CLK 1.0391e-06
137 *149:149 *236:10 6.4693e-07
138 *149:149 *431:60 1.38901e-05
139 *149:155 *236:10 1.13547e-05
140 *149:170 *216:6 3.3547e-05
141 *149:170 *217:14 0
142 *149:174 *336:82 0
143 *149:174 *336:93 0
144 *149:174 *336:97 1.31716e-05
145 *149:185 *218:12 0
146 *149:185 *218:23 0
147 *149:185 *277:20 4.47696e-06
148 *149:185 *281:14 1.01031e-06
149 *149:185 *336:97 1.17284e-05
150 *149:185 *336:106 8.50006e-05
151 *149:193 *275:10 1.19507e-05
152 *149:193 *336:106 1.19507e-05
153 *149:193 *475:20 6.7842e-07
154 *149:206 *233:12 7.10029e-05
155 *149:206 *275:10 8.46363e-06
156 *149:206 *288:10 5.49212e-07
157 *149:206 *288:16 1.2768e-05
158 *149:206 *336:106 2.13666e-05
159 *149:206 *336:135 1.02586e-05
160 *149:206 *363:20 2.06412e-05
161 *149:214 *336:129 3.66841e-06
162 *149:214 *342:12 1.72936e-05
163 *149:218 *336:137 1.65842e-06
164 *149:226 *214:12 6.7842e-07
165 *149:226 *214:26 7.58265e-07
166 *149:226 *244:10 3.79923e-06
167 *149:226 *244:14 9.50756e-06
168 *149:226 *336:137 3.58577e-07
169 *149:226 *336:150 1.04585e-07
170 *149:226 *341:29 0
171 *149:239 *673:A2 9.67251e-06
172 *149:239 *211:6 5.94108e-06
173 *149:239 *336:150 1.31955e-05
174 *149:239 *368:12 0
175 *149:245 *367:12 0
176 *149:245 *474:12 1.19531e-06
177 *690:A2 *149:42 3.84173e-05
178 *696:A2 *149:46 2.12481e-06
179 *770:D *149:149 2.03412e-05
180 *1017:A *677:B 6.39567e-06
181 *4:10 *149:116 0
182 *4:10 *149:129 3.2798e-06
183 *4:14 *149:89 1.19623e-05
184 *4:20 *149:89 8.23084e-06
185 *4:24 *149:83 2.6409e-06
186 *5:14 *149:164 0
187 *38:12 *149:143 1.66706e-05
188 *39:18 *149:149 1.68705e-05
189 *39:35 *149:149 8.29207e-07
190 *71:16 *149:164 0
191 *71:20 *149:95 0
192 *71:20 *149:110 8.89558e-05
193 *71:20 *149:125 2.11769e-05
194 *71:20 *149:164 0.000116197
195 *74:12 *149:185 1.15414e-05
196 *76:8 *149:155 3.06142e-05
197 *83:10 *149:50 2.46429e-06
198 *88:8 *149:170 0
199 *106:18 *547:A2 1.12894e-06
200 *106:18 *149:110 3.6307e-06
201 *132:10 *149:149 1.85791e-05
202 *132:10 *149:155 1.49407e-08
203 *134:10 *149:137 0
204 *143:12 *149:174 8.58704e-06
205 *146:8 *149:8 0
206 *146:48 *149:50 8.80652e-06
207 *146:52 *149:50 2.73124e-06
208 *146:130 *149:8 6.33206e-07
209 *146:153 *149:116 8.33296e-06
210 *147:95 *149:137 2.9486e-05
211 *147:112 *149:137 2.33715e-05
212 *147:116 *149:137 0
213 *148:10 *149:89 2.21123e-06
*RES
1 *545:Y *149:4 17.2 
2 *149:4 *149:8 37.474 
3 *149:8 *149:10 17.2 
4 *149:10 *149:12 34.7636 
5 *149:12 *149:18 35.2447 
6 *149:18 *149:24 47.3566 
7 *149:24 *149:26 11.8 
8 *149:26 *149:28 43.5581 
9 *149:28 *149:36 43.6816 
10 *149:36 *149:42 42.4574 
11 *149:42 *149:46 42.3368 
12 *149:46 *149:48 17.2 
13 *149:48 *149:50 52.3744 
14 *149:50 *706:B 35.4697 
15 *149:42 *694:B 40.3681 
16 *149:36 *690:B 17.2 
17 *149:4 *149:83 43.7754 
18 *149:83 *149:89 47.5205 
19 *149:89 *149:95 36.1315 
20 *149:95 *547:A2 39.7501 
21 *149:95 *149:110 42.1409 
22 *149:110 *149:116 48.7607 
23 *149:116 *662:B 19.8741 
24 *149:110 *149:125 3.67945 
25 *149:125 *149:129 35.5029 
26 *149:129 *149:135 42.4224 
27 *149:135 *149:137 81.0959 
28 *149:137 *149:143 39.2134 
29 *149:143 *149:149 37.1622 
30 *149:149 *149:155 44.537 
31 *149:155 *670:A2 17.2 
32 *149:125 *149:164 47.5013 
33 *149:164 *149:170 38.3434 
34 *149:170 *149:172 17.2 
35 *149:172 *149:174 34.3531 
36 *149:174 *648:B 40.2831 
37 *149:174 *149:185 33.2268 
38 *149:185 *149:193 41.0163 
39 *149:193 *655:A2 34.4 
40 *149:193 *149:206 44.8728 
41 *149:206 *149:214 43.1556 
42 *149:214 *149:218 26.2107 
43 *149:218 *149:226 49.1237 
44 *149:226 *678:B 34.4 
45 *149:226 *149:239 41.6109 
46 *149:239 *149:245 43.4107 
47 *149:245 *677:B 28.9662 
48 *149:239 *673:B 17.2 
49 *149:218 *672:B 39.975 
50 *149:170 *644:B 18.2696 
*END

*D_NET *150 0.000514373
*CONN
*I *733:A2 I *D OA222x2_ASAP7_75t_SL
*I *546:Y O *D BUFx2_ASAP7_75t_SL
*CAP
1 *733:A2 2.72889e-06
2 *546:Y 0
3 *150:18 4.82793e-05
4 *150:12 4.96182e-05
5 *150:6 0.000129574
6 *150:4 0.000125506
7 *733:A2 *481:84 2.90209e-08
8 *150:6 *328:13 3.13426e-06
9 *150:6 *328:21 3.29001e-05
10 *150:6 *368:6 0
11 *150:12 *243:8 0
12 *150:12 *245:12 1.2142e-05
13 *150:18 *732:A1 4.94003e-06
14 *150:18 *733:B2 0
15 *150:18 *211:18 1.31482e-05
16 *150:18 *292:29 0
17 *150:18 *341:23 0
18 *150:18 *397:141 1.00435e-05
19 *28:6 *150:6 6.21781e-05
20 *28:18 *150:18 2.01511e-05
*RES
1 *546:Y *150:4 17.2 
2 *150:4 *150:6 60.4352 
3 *150:6 *150:12 38.436 
4 *150:12 *150:18 38.0586 
5 *150:18 *733:A2 35.4697 
*END

*D_NET *151 8.63702e-05
*CONN
*I *549:A2 I *D OA21x2_ASAP7_75t_SL
*I *547:Y O *D AOI21x1_ASAP7_75t_SL
*CAP
1 *549:A2 0
2 *547:Y 6.07327e-06
3 *151:14 2.13351e-05
4 *151:8 2.74084e-05
5 *151:8 *152:8 3.90258e-06
6 *151:8 *336:19 5.01287e-06
7 *151:8 *377:28 2.66992e-06
8 *151:14 *152:12 1.89233e-05
9 *549:A1 *151:14 1.04475e-06
*RES
1 *547:Y *151:8 39.2134 
2 *151:8 *151:14 34.6015 
3 *151:14 *549:A2 17.2 
*END

*D_NET *152 9.91408e-05
*CONN
*I *549:B I *D OA21x2_ASAP7_75t_SL
*I *548:Y O *D INVx1_ASAP7_75t_SL
*CAP
1 *549:B 0
2 *548:Y 1.08554e-06
3 *152:12 1.06197e-05
4 *152:8 1.17052e-05
5 *152:8 *336:19 3.90258e-06
6 *148:10 *152:12 4.90019e-05
7 *151:8 *152:8 3.90258e-06
8 *151:14 *152:12 1.89233e-05
*RES
1 *548:Y *152:8 35.4697 
2 *152:8 *152:12 33.5318 
3 *152:12 *549:B 17.2 
*END

*D_NET *153 7.27898e-05
*CONN
*I *554:A2 I *D OA21x2_ASAP7_75t_SL
*I *553:Y O *D OA21x2_ASAP7_75t_SL
*CAP
1 *554:A2 1.10879e-05
2 *553:Y 4.97811e-06
3 *153:8 1.6066e-05
4 *554:A2 *154:22 6.7842e-07
5 *554:A2 *416:14 1.07377e-06
6 *554:A2 *478:86 6.61478e-06
7 *153:8 *156:12 1.20741e-05
8 *153:8 *437:16 2.01456e-05
9 *153:8 *437:24 7.11252e-08
10 *153:8 *476:77 0
*RES
1 *553:Y *153:8 41.158 
2 *153:8 *554:A2 41.3527 
*END

*D_NET *154 0.000253514
*CONN
*I *555:B I *D XOR2x2_ASAP7_75t_SL
*I *554:Y O *D OA21x2_ASAP7_75t_SL
*CAP
1 *555:B 0
2 *554:Y 7.78066e-06
3 *154:28 9.45683e-06
4 *154:22 5.80107e-05
5 *154:18 6.4977e-05
6 *154:10 2.42038e-05
7 *154:10 *416:14 1.25483e-05
8 *154:10 *494:58 1.67815e-06
9 *154:18 *156:12 1.70708e-06
10 *154:18 *437:16 1.88168e-06
11 *154:18 *437:24 0
12 *154:28 *460:8 3.86633e-06
13 *154:28 *468:10 7.76819e-06
14 *502:A *154:10 1.29755e-05
15 *554:A2 *154:22 6.7842e-07
16 *558:A1 *154:22 5.51397e-07
17 *24:14 *154:10 5.09995e-06
18 *62:8 *154:22 1.25559e-05
19 *65:12 *154:10 3.16603e-06
20 *65:23 *154:10 2.20966e-06
21 *65:44 *154:22 7.58545e-06
22 *68:27 *154:22 5.22376e-07
23 *149:24 *154:18 1.42911e-05
*RES
1 *554:Y *154:10 43.3061 
2 *154:10 *154:18 41.3337 
3 *154:18 *154:22 38.0582 
4 *154:22 *154:28 42.2843 
5 *154:28 *555:B 17.2 
*END

*D_NET *155 0.000172145
*CONN
*I *557:B I *D XOR2x2_ASAP7_75t_SL
*I *556:Y O *D OA21x2_ASAP7_75t_SL
*CAP
1 *557:B 3.64158e-06
2 *556:Y 2.4256e-05
3 *155:16 1.76809e-05
4 *155:10 3.82953e-05
5 *557:B *418:10 0
6 *557:B *468:10 0
7 *155:10 *417:41 1.15587e-05
8 *155:10 *467:55 2.12481e-06
9 *155:16 *556:A1 3.89037e-06
10 *155:16 *417:35 5.85387e-06
11 *155:16 *418:6 8.146e-06
12 *155:16 *418:36 3.56648e-06
13 *556:B *155:10 6.44983e-06
14 *556:B *155:16 3.48408e-05
15 *62:27 *557:B 3.05118e-08
16 *109:14 *155:10 5.19552e-07
17 *111:23 *155:10 1.12901e-05
*RES
1 *556:Y *155:10 47.4342 
2 *155:10 *155:16 47.7706 
3 *155:16 *557:B 37.2158 
*END

*D_NET *156 0.000140725
*CONN
*I *561:A1 I *D OA21x2_ASAP7_75t_SL
*I *558:Y O *D OA211x2_ASAP7_75t_SL
*CAP
1 *561:A1 0
2 *558:Y 0
3 *156:12 2.84232e-05
4 *156:6 2.84232e-05
5 *156:12 *559:A 5.49212e-07
6 *156:12 *416:14 3.92018e-06
7 *156:12 *417:35 1.30409e-05
8 *156:12 *437:16 8.09634e-06
9 *156:12 *476:77 8.2174e-07
10 *156:12 *478:84 9.49947e-06
11 *156:12 *480:28 2.59632e-05
12 *156:12 *494:58 0
13 *561:B *156:12 7.13296e-06
14 *111:8 *156:12 1.07377e-06
15 *153:8 *156:12 1.20741e-05
16 *154:18 *156:12 1.70708e-06
*RES
1 *558:Y *156:6 34.4 
2 *156:6 *156:12 43.272 
3 *156:12 *561:A1 17.2 
*END

*D_NET *157 5.39948e-05
*CONN
*I *560:B I *D AO21x1_ASAP7_75t_SL
*I *559:Y O *D OR2x2_ASAP7_75t_SL
*CAP
1 *560:B 1.832e-06
2 *559:Y 2.0074e-05
3 *157:10 2.1906e-05
4 *157:10 *158:10 8.06436e-06
5 *157:10 *416:27 2.90209e-08
6 *157:10 *476:81 0
7 *65:36 *157:10 2.0895e-06
*RES
1 *559:Y *157:10 45.2382 
2 *157:10 *560:B 36.0045 
*END

*D_NET *158 8.87434e-05
*CONN
*I *561:A2 I *D OA21x2_ASAP7_75t_SL
*I *560:Y O *D AO21x1_ASAP7_75t_SL
*CAP
1 *561:A2 6.30878e-06
2 *560:Y 1.97005e-05
3 *158:10 2.60093e-05
4 *561:A2 *159:8 1.55843e-05
5 *561:A2 *480:28 2.27479e-06
6 *158:10 *457:86 0
7 *158:10 *476:81 0
8 *561:B *561:A2 6.92634e-06
9 *65:53 *158:10 0
10 *66:25 *158:10 0
11 *109:10 *158:10 3.875e-06
12 *157:10 *158:10 8.06436e-06
*RES
1 *560:Y *158:10 47.8593 
2 *158:10 *561:A2 41.8876 
*END

*D_NET *159 0.000995789
*CONN
*I *583:A1 I *D OAI21x1_ASAP7_75t_SL
*I *608:A1 I *D OA211x2_ASAP7_75t_SL
*I *594:A1 I *D OAI21x1_ASAP7_75t_SL
*I *567:A1 I *D OA21x2_ASAP7_75t_SL
*I *562:B I *D XOR2x2_ASAP7_75t_SL
*I *561:Y O *D OA21x2_ASAP7_75t_SL
*CAP
1 *583:A1 1.22029e-05
2 *608:A1 8.21615e-06
3 *594:A1 7.04795e-06
4 *567:A1 3.49763e-06
5 *562:B 0
6 *561:Y 8.40777e-06
7 *159:75 3.61943e-05
8 *159:69 4.47143e-05
9 *159:65 3.70885e-05
10 *159:50 0.000101849
11 *159:46 7.44249e-05
12 *159:33 0.000131031
13 *159:31 0.000122032
14 *159:22 1.80942e-05
15 *159:12 2.47723e-05
16 *159:10 5.41957e-05
17 *159:8 6.26035e-05
18 *567:A1 *161:14 1.56713e-06
19 *583:A1 *361:10 1.59919e-05
20 *594:A1 *182:10 2.20128e-06
21 *608:A1 *173:8 8.06436e-06
22 *608:A1 *173:12 2.03526e-06
23 *608:A1 *177:12 4.43244e-06
24 *159:10 *160:10 6.8374e-06
25 *159:10 *462:10 1.90585e-05
26 *159:10 *476:81 0
27 *159:22 *462:14 8.51778e-06
28 *159:22 *476:81 7.62406e-06
29 *159:33 *567:B 2.80709e-06
30 *159:33 *572:A 0
31 *159:33 *712:A1 4.9351e-06
32 *159:33 *712:B2 5.52807e-07
33 *159:33 *160:10 0
34 *159:33 *161:14 0
35 *159:33 *162:10 3.55524e-06
36 *159:33 *171:8 3.32579e-06
37 *159:33 *350:8 8.6253e-06
38 *159:33 *353:35 5.65551e-06
39 *159:33 *404:40 8.06799e-07
40 *159:33 *407:12 9.21329e-07
41 *159:33 *414:18 0
42 *159:33 *414:29 0
43 *159:33 *445:55 3.47607e-06
44 *159:33 *446:16 0
45 *159:33 *446:27 0
46 *159:33 *457:139 1.38631e-06
47 *159:46 *567:B 4.57263e-07
48 *159:46 *161:14 0
49 *159:69 *361:10 1.10079e-05
50 *159:75 *173:12 7.35354e-06
51 *159:75 *173:20 2.25e-05
52 *159:75 *177:12 2.0895e-06
53 *561:A2 *159:8 1.55843e-05
54 *563:A1 *159:10 1.01391e-06
55 *46:10 *159:10 0
56 *46:10 *159:33 2.27142e-05
57 *50:20 *159:33 0
58 *53:25 *159:33 2.36359e-05
59 *56:19 *159:22 8.0706e-06
60 *86:10 *159:31 1.23489e-06
61 *86:10 *159:33 9.72242e-06
62 *109:10 *159:10 0
63 *109:27 *159:10 0
64 *109:29 *159:10 2.19685e-06
65 *110:14 *159:10 9.45797e-06
66 *113:10 *159:33 0
*RES
1 *561:Y *159:8 39.2134 
2 *159:8 *159:10 39.4216 
3 *159:10 *159:12 17.2 
4 *159:12 *159:22 45.773 
5 *159:22 *562:B 17.2 
6 *159:12 *159:31 20.9438 
7 *159:31 *159:33 92.3592 
8 *159:33 *567:A1 36.5393 
9 *159:33 *159:46 25.0843 
10 *159:46 *159:50 46.6154 
11 *159:50 *594:A1 38.9053 
12 *159:50 *159:65 34.4561 
13 *159:65 *159:69 21.1422 
14 *159:69 *159:75 46.701 
15 *159:75 *608:A1 40.4815 
16 *159:69 *583:A1 42.7058 
*END

*D_NET *160 0.0011094
*CONN
*I *950:A I *D BUFx3_ASAP7_75t_SL
*I *612:A1 I *D OA211x2_ASAP7_75t_SL
*I *587:A1 I *D OA21x2_ASAP7_75t_SL
*I *570:A2 I *D OA21x2_ASAP7_75t_SL
*I *563:Y O *D OA21x2_ASAP7_75t_SL
*CAP
1 *950:A 2.33044e-06
2 *612:A1 0
3 *587:A1 2.25435e-06
4 *570:A2 0
5 *563:Y 2.51817e-05
6 *160:60 9.78001e-06
7 *160:41 2.22504e-05
8 *160:37 0.000124846
9 *160:35 9.74286e-05
10 *160:22 6.20552e-06
11 *160:18 2.89559e-05
12 *160:10 0.000100903
13 *160:8 9.86458e-05
14 *950:A *407:12 1.89962e-06
15 *950:A *445:36 3.48708e-06
16 *950:A *445:55 2.12481e-06
17 *160:10 *712:B2 2.34033e-05
18 *160:10 *213:69 6.72009e-06
19 *160:10 *350:8 1.89724e-05
20 *160:10 *360:26 3.30589e-06
21 *160:10 *407:12 8.53334e-06
22 *160:10 *419:8 5.66988e-06
23 *160:10 *419:17 4.57242e-05
24 *160:10 *445:36 0.000103002
25 *160:10 *462:10 1.94927e-05
26 *160:10 *476:81 4.26171e-06
27 *160:18 *162:10 4.89331e-06
28 *160:18 *164:12 0
29 *160:18 *445:55 2.5648e-05
30 *160:18 *445:68 6.78991e-06
31 *160:22 *162:14 4.41457e-06
32 *160:22 *445:68 2.03526e-06
33 *160:35 *162:14 1.44167e-06
34 *160:35 *164:12 4.74168e-07
35 *160:37 *419:32 0.000146957
36 *160:37 *445:74 3.07747e-05
37 *160:41 *591:B 0
38 *160:41 *178:19 4.16503e-05
39 *160:41 *179:31 0
40 *160:41 *183:12 0
41 *160:60 *179:31 3.05118e-08
42 *563:A1 *160:8 2.07283e-05
43 *44:23 *160:41 0
44 *50:10 *160:10 8.33296e-06
45 *51:10 *160:10 3.90706e-05
46 *53:25 *160:10 1.64764e-06
47 *112:10 *160:8 2.29934e-06
48 *159:10 *160:10 6.8374e-06
49 *159:33 *160:10 0
*RES
1 *563:Y *160:8 44.5617 
2 *160:8 *160:10 87.8539 
3 *160:10 *160:18 49.5735 
4 *160:18 *160:22 20.409 
5 *160:22 *570:A2 17.2 
6 *160:22 *160:35 36.6898 
7 *160:35 *160:37 40.6903 
8 *160:37 *160:41 35.1275 
9 *160:41 *587:A1 35.4697 
10 *160:37 *160:60 38.8829 
11 *160:60 *612:A1 17.2 
12 *160:10 *950:A 37.694 
*END

*D_NET *161 0.000166521
*CONN
*I *590:A I *D OR2x2_ASAP7_75t_SL
*I *567:A2 I *D OA21x2_ASAP7_75t_SL
*I *565:Y O *D OR2x2_ASAP7_75t_SL
*CAP
1 *590:A 2.91063e-05
2 *567:A2 0
3 *565:Y 3.96826e-06
4 *161:14 6.55569e-05
5 *161:8 4.04189e-05
6 *590:A *181:25 1.21211e-05
7 *161:8 *445:32 6.7842e-07
8 *161:8 *445:55 2.12481e-06
9 *161:14 *352:12 1.62854e-06
10 *161:14 *404:40 8.71771e-06
11 *161:14 *407:12 6.33206e-07
12 *567:A1 *161:14 1.56713e-06
13 *159:33 *161:14 0
14 *159:46 *161:14 0
*RES
1 *565:Y *161:8 36.0045 
2 *161:8 *161:14 41.0194 
3 *161:14 *567:A2 17.2 
4 *161:14 *590:A 35.384 
*END

*D_NET *162 0.000394286
*CONN
*I *567:B I *D OA21x2_ASAP7_75t_SL
*I *593:A1 I *D OA211x2_ASAP7_75t_SL
*I *581:C I *D OR3x1_ASAP7_75t_SL
*I *566:Y O *D OA21x2_ASAP7_75t_SL
*CAP
1 *567:B 2.25786e-05
2 *593:A1 0
3 *581:C 0
4 *566:Y 2.53495e-05
5 *162:43 1.75623e-05
6 *162:28 1.21316e-05
7 *162:22 3.82568e-05
8 *162:14 6.24122e-05
9 *162:10 8.86086e-05
10 *162:8 3.75302e-05
11 *567:B *163:8 2.83874e-07
12 *567:B *353:8 0
13 *567:B *444:18 0
14 *162:8 *444:10 0
15 *162:10 *444:18 0
16 *162:14 *574:A 5.19552e-07
17 *162:14 *574:C 1.40419e-08
18 *162:14 *164:12 2.20493e-06
19 *162:14 *165:8 0
20 *162:14 *445:55 5.19552e-07
21 *162:14 *445:68 2.52755e-07
22 *162:22 *589:D 2.31575e-05
23 *162:22 *181:10 8.31096e-06
24 *162:22 *423:8 3.33004e-06
25 *162:22 *444:33 7.77956e-06
26 *162:28 *175:12 0
27 *162:28 *423:8 0
28 *162:28 *423:32 0
29 *162:28 *444:33 0
30 *162:28 *445:74 1.52856e-05
31 *162:43 *589:D 3.67067e-06
32 *162:43 *175:12 0
33 *162:43 *181:10 6.7842e-07
34 *162:43 *444:33 0
35 *53:25 *162:8 6.28016e-06
36 *159:33 *567:B 2.80709e-06
37 *159:33 *162:10 3.55524e-06
38 *159:46 *567:B 4.57263e-07
39 *160:18 *162:10 4.89331e-06
40 *160:22 *162:14 4.41457e-06
41 *160:35 *162:14 1.44167e-06
*RES
1 *566:Y *162:8 44.5617 
2 *162:8 *162:10 9.01066 
3 *162:10 *162:14 39.1278 
4 *162:14 *162:22 45.2382 
5 *162:22 *162:28 43.4107 
6 *162:28 *581:C 17.2 
7 *162:22 *162:43 46.0848 
8 *162:43 *593:A1 17.2 
9 *162:10 *567:B 48.4791 
*END

*D_NET *163 6.53536e-05
*CONN
*I *568:B I *D XNOR2x2_ASAP7_75t_SL
*I *567:Y O *D OA21x2_ASAP7_75t_SL
*CAP
1 *568:B 1.27292e-05
2 *567:Y 1.35253e-05
3 *163:8 2.62546e-05
4 *568:B *404:40 1.25606e-05
5 *163:8 *353:8 0
6 *567:B *163:8 2.83874e-07
*RES
1 *567:Y *163:8 42.2843 
2 *163:8 *568:B 43.492 
*END

*D_NET *164 0.000145597
*CONN
*I *570:B I *D OA21x2_ASAP7_75t_SL
*I *569:Y O *D AND3x1_ASAP7_75t_SL
*CAP
1 *570:B 0
2 *569:Y 0
3 *164:12 2.08048e-05
4 *164:6 2.08048e-05
5 *164:12 *575:B 1.43948e-05
6 *164:12 *165:8 1.04475e-06
7 *164:12 *165:10 1.70866e-06
8 *164:12 *166:14 2.67352e-05
9 *164:12 *170:10 1.98917e-05
10 *164:12 *353:8 8.66426e-06
11 *164:12 *444:18 2.88686e-05
12 *164:12 *445:68 0
13 *160:18 *164:12 0
14 *160:35 *164:12 4.74168e-07
15 *162:14 *164:12 2.20493e-06
*RES
1 *569:Y *164:6 34.4 
2 *164:6 *164:12 42.4574 
3 *164:12 *570:B 17.2 
*END

*D_NET *165 0.000229551
*CONN
*I *577:A I *D OR3x1_ASAP7_75t_SL
*I *570:Y O *D OA21x2_ASAP7_75t_SL
*CAP
1 *577:A 2.40269e-06
2 *570:Y 1.5129e-05
3 *165:10 3.05923e-05
4 *165:8 4.33187e-05
5 *165:10 *572:A 4.8043e-06
6 *165:10 *573:A 5.37866e-07
7 *165:10 *575:B 5.16476e-06
8 *165:10 *166:14 1.27851e-05
9 *165:10 *170:18 1.67893e-05
10 *165:10 *353:23 0
11 *165:10 *414:18 3.6427e-05
12 *165:10 *414:29 4.82276e-05
13 *165:10 *445:68 6.72662e-07
14 *117:10 *165:10 9.94583e-06
15 *162:14 *165:8 0
16 *164:12 *165:8 1.04475e-06
17 *164:12 *165:10 1.70866e-06
*RES
1 *570:Y *165:8 40.2831 
2 *165:8 *165:10 33.2268 
3 *165:10 *577:A 35.4697 
*END

*D_NET *166 0.000212021
*CONN
*I *577:B I *D OR3x1_ASAP7_75t_SL
*I *571:Y O *D AND4x1_ASAP7_75t_SL
*CAP
1 *577:B 0
2 *571:Y 3.20272e-05
3 *166:14 1.83765e-05
4 *166:8 5.04037e-05
5 *166:8 *564:A 2.64148e-05
6 *166:8 *571:D 1.35684e-06
7 *166:8 *404:10 0
8 *166:8 *413:12 3.68287e-06
9 *166:14 *573:A 7.90851e-06
10 *166:14 *577:C 5.41446e-06
11 *166:14 *170:18 1.66587e-05
12 *166:14 *353:8 5.79724e-07
13 *117:10 *166:14 9.67723e-06
14 *164:12 *166:14 2.67352e-05
15 *165:10 *166:14 1.27851e-05
*RES
1 *571:Y *166:8 47.7706 
2 *166:8 *166:14 38.5153 
3 *166:14 *577:B 17.2 
*END

*D_NET *167 0.000144866
*CONN
*I *575:B I *D OA211x2_ASAP7_75t_SL
*I *572:Y O *D OR3x1_ASAP7_75t_SL
*CAP
1 *575:B 7.26876e-06
2 *572:Y 3.24018e-05
3 *167:8 3.96706e-05
4 *575:B *572:A 1.04475e-06
5 *167:8 *572:A 3.18293e-05
6 *167:8 *575:C 3.56648e-06
7 *167:8 *423:17 9.52454e-06
8 *164:12 *575:B 1.43948e-05
9 *165:10 *575:B 5.16476e-06
*RES
1 *572:Y *167:8 48.8403 
2 *167:8 *575:B 41.073 
*END

*D_NET *168 0.000172667
*CONN
*I *574:B I *D OR3x1_ASAP7_75t_SL
*I *573:Y O *D INVx1_ASAP7_75t_SL
*CAP
1 *574:B 0
2 *573:Y 0
3 *168:10 3.38936e-05
4 *168:6 3.38936e-05
5 *168:10 *571:A 2.25787e-06
6 *168:10 *574:A 9.21329e-07
7 *168:10 *353:8 0
8 *168:10 *404:10 5.09995e-06
9 *168:10 *404:21 4.93838e-05
10 *168:10 *404:34 6.77553e-06
11 *168:10 *408:20 8.64069e-06
12 *168:10 *413:8 2.37635e-05
13 *53:40 *168:10 8.03731e-06
*RES
1 *573:Y *168:6 34.4 
2 *168:6 *168:10 49.3005 
3 *168:10 *574:B 17.2 
*END

*D_NET *169 0.0001196
*CONN
*I *575:C I *D OA211x2_ASAP7_75t_SL
*I *574:Y O *D OR3x1_ASAP7_75t_SL
*CAP
1 *575:C 1.26028e-05
2 *574:Y 7.73139e-06
3 *169:8 2.03342e-05
4 *575:C *572:A 2.9878e-05
5 *575:C *423:17 5.41446e-06
6 *575:C *424:32 2.72676e-05
7 *169:8 *404:21 3.05118e-08
8 *169:8 *423:8 1.27747e-05
9 *169:8 *424:63 0
10 *167:8 *575:C 3.56648e-06
*RES
1 *574:Y *169:8 40.0317 
2 *169:8 *575:C 47.2358 
*END

*D_NET *170 0.000178721
*CONN
*I *576:A I *D INVx1_ASAP7_75t_SL
*I *575:Y O *D OA211x2_ASAP7_75t_SL
*CAP
1 *576:A 2.31249e-05
2 *575:Y 8.42362e-06
3 *170:18 3.30012e-05
4 *170:10 1.83e-05
5 *576:A *569:A 5.85387e-06
6 *170:10 *353:8 1.96231e-05
7 *170:18 *564:A 4.74894e-06
8 *519:B *576:A 4.16007e-06
9 *50:14 *576:A 8.146e-06
10 *164:12 *170:10 1.98917e-05
11 *165:10 *170:18 1.67893e-05
12 *166:14 *170:18 1.66587e-05
*RES
1 *575:Y *170:10 42.7625 
2 *170:10 *170:18 43.7754 
3 *170:18 *576:A 44.5617 
*END

*D_NET *171 6.2894e-05
*CONN
*I *577:C I *D OR3x1_ASAP7_75t_SL
*I *576:Y O *D INVx1_ASAP7_75t_SL
*CAP
1 *577:C 1.16165e-05
2 *576:Y 4.95056e-06
3 *171:8 1.6567e-05
4 *171:8 *414:18 1.10561e-06
5 *117:10 *577:C 1.9914e-05
6 *159:33 *171:8 3.32579e-06
7 *166:14 *577:C 5.41446e-06
*RES
1 *576:Y *171:8 38.9053 
2 *171:8 *577:C 42.9572 
*END

*D_NET *172 0.000130966
*CONN
*I *579:B I *D OR2x2_ASAP7_75t_SL
*I *585:B I *D OR2x4_ASAP7_75t_SL
*I *578:Y O *D OR3x1_ASAP7_75t_SL
*CAP
1 *579:B 1.02227e-05
2 *585:B 6.09074e-06
3 *578:Y 1.38886e-05
4 *172:10 3.0202e-05
5 *579:B *582:A 5.22486e-06
6 *579:B *174:8 1.01554e-05
7 *579:B *419:38 3.74802e-05
8 *585:B *425:18 5.09299e-06
9 *172:10 *174:8 8.60823e-06
10 *172:10 *354:23 1.79958e-06
11 *172:10 *419:38 2.20028e-06
*RES
1 *578:Y *172:10 43.8888 
2 *172:10 *585:B 38.1438 
3 *172:10 *579:B 47.3528 
*END

*D_NET *173 0.000119597
*CONN
*I *608:A2 I *D OA211x2_ASAP7_75t_SL
*I *583:A2 I *D OAI21x1_ASAP7_75t_SL
*I *579:Y O *D OR2x2_ASAP7_75t_SL
*CAP
1 *608:A2 0
2 *583:A2 0
3 *579:Y 8.33853e-06
4 *173:20 1.27724e-05
5 *173:12 1.70034e-05
6 *173:8 1.25695e-05
7 *173:8 *335:21 9.77825e-06
8 *173:8 *354:23 5.37866e-07
9 *173:20 *176:14 6.79293e-06
10 *173:20 *177:12 7.97634e-06
11 *173:20 *354:10 1.09842e-06
12 *173:20 *361:10 2.77657e-06
13 *608:A1 *173:8 8.06436e-06
14 *608:A1 *173:12 2.03526e-06
15 *159:75 *173:12 7.35354e-06
16 *159:75 *173:20 2.25e-05
*RES
1 *579:Y *173:8 42.2843 
2 *173:8 *173:12 20.409 
3 *173:12 *173:20 47.5759 
4 *173:20 *583:A2 17.2 
5 *173:12 *608:A2 17.2 
*END

*D_NET *174 0.000285559
*CONN
*I *582:A I *D AND2x2_ASAP7_75t_SL
*I *592:C I *D OR3x1_ASAP7_75t_SL
*I *580:Y O *D OA21x2_ASAP7_75t_SL
*CAP
1 *582:A 1.32514e-05
2 *592:C 1.92546e-06
3 *580:Y 0
4 *174:8 4.48386e-05
5 *174:6 2.96617e-05
6 *582:A *186:12 7.03841e-06
7 *582:A *419:38 5.49212e-07
8 *582:A *425:44 1.47844e-05
9 *592:C *593:C 9.30483e-06
10 *592:C *183:26 9.30483e-06
11 *174:8 *354:23 0
12 *174:8 *361:10 2.02148e-05
13 *174:8 *425:18 1.12034e-05
14 *174:8 *425:29 1.63973e-05
15 *174:8 *425:44 8.06436e-06
16 *579:B *582:A 5.22486e-06
17 *579:B *174:8 1.01554e-05
18 *118:17 *174:8 3.39634e-05
19 *121:12 *174:8 4.10682e-05
20 *172:10 *174:8 8.60823e-06
*RES
1 *580:Y *174:6 34.4 
2 *174:6 *174:8 38.8585 
3 *174:8 *592:C 37.0741 
4 *174:8 *582:A 44.8451 
*END

*D_NET *175 0.000128986
*CONN
*I *582:B I *D AND2x2_ASAP7_75t_SL
*I *581:Y O *D OR3x1_ASAP7_75t_SL
*CAP
1 *582:B 0
2 *581:Y 1.17848e-05
3 *175:12 2.73929e-05
4 *175:8 3.91777e-05
5 *175:8 *578:C 5.62196e-06
6 *175:8 *423:24 1.46661e-05
7 *175:12 *578:A 9.67723e-06
8 *175:12 *589:B 1.01392e-05
9 *175:12 *183:26 5.79724e-07
10 *175:12 *185:8 9.94583e-06
11 *175:12 *361:10 0
12 *162:28 *175:12 0
13 *162:43 *175:12 0
*RES
1 *581:Y *175:8 39.2134 
2 *175:8 *175:12 37.474 
3 *175:12 *582:B 17.2 
*END

*D_NET *176 0.000180474
*CONN
*I *608:B I *D OA211x2_ASAP7_75t_SL
*I *583:B I *D OAI21x1_ASAP7_75t_SL
*I *582:Y O *D AND2x2_ASAP7_75t_SL
*CAP
1 *608:B 3.74465e-06
2 *583:B 0
3 *582:Y 6.58897e-06
4 *176:25 2.3666e-05
5 *176:14 3.79478e-05
6 *176:8 2.46155e-05
7 *176:8 *186:12 5.34278e-06
8 *176:14 *354:10 2.96923e-05
9 *176:14 *354:23 3.32524e-06
10 *176:14 *361:10 0
11 *176:14 *425:44 5.37866e-07
12 *176:25 *335:21 2.68658e-05
13 *176:25 *411:8 9.93746e-06
14 *176:25 *411:21 1.41724e-06
15 *173:20 *176:14 6.79293e-06
*RES
1 *582:Y *176:8 38.1438 
2 *176:8 *176:14 32.8269 
3 *176:14 *583:B 17.2 
4 *176:14 *176:25 34.233 
5 *176:25 *608:B 36.0045 
*END

*D_NET *177 0.000115761
*CONN
*I *949:A I *D BUFx3_ASAP7_75t_SL
*I *584:B I *D XNOR2x2_ASAP7_75t_SL
*I *583:Y O *D OAI21x1_ASAP7_75t_SL
*CAP
1 *949:A 1.11669e-05
2 *584:B 0
3 *583:Y 0
4 *177:12 2.45058e-05
5 *177:6 3.56727e-05
6 *949:A *335:19 6.70433e-06
7 *949:A *335:21 0
8 *949:A *354:10 5.19498e-06
9 *177:12 *335:21 0
10 *177:12 *354:8 2.03526e-06
11 *177:12 *354:10 1.53048e-05
12 *177:12 *425:44 6.7842e-07
13 *608:A1 *177:12 4.43244e-06
14 *159:75 *177:12 2.0895e-06
15 *173:20 *177:12 7.97634e-06
*RES
1 *583:Y *177:6 34.4 
2 *177:6 *177:12 37.612 
3 *177:12 *584:B 17.2 
4 *177:6 *949:A 43.7188 
*END

*D_NET *178 0.000145916
*CONN
*I *587:A2 I *D OA21x2_ASAP7_75t_SL
*I *612:A2 I *D OA211x2_ASAP7_75t_SL
*I *585:Y O *D OR2x4_ASAP7_75t_SL
*CAP
1 *587:A2 5.92252e-06
2 *612:A2 0
3 *585:Y 2.82695e-05
4 *178:19 2.28876e-05
5 *178:6 4.52345e-05
6 *178:6 *425:12 1.95129e-06
7 *178:19 *179:31 0
8 *160:41 *178:19 4.16503e-05
*RES
1 *585:Y *178:6 33.2448 
2 *178:6 *612:A2 17.2 
3 *178:6 *178:19 49.5488 
4 *178:19 *587:A2 20.409 
*END

*D_NET *179 0.000234636
*CONN
*I *612:C I *D OA211x2_ASAP7_75t_SL
*I *587:B I *D OA21x2_ASAP7_75t_SL
*I *586:Y O *D OA21x2_ASAP7_75t_SL
*CAP
1 *612:C 2.03531e-06
2 *587:B 0
3 *586:Y 2.15119e-05
4 *179:31 3.20308e-05
5 *179:20 3.8598e-05
6 *179:16 4.01186e-05
7 *179:10 5.30281e-05
8 *612:C *612:B 1.36155e-06
9 *179:10 *428:33 0
10 *179:16 *428:16 1.78333e-06
11 *521:A2 *179:10 7.72307e-07
12 *521:B *179:10 9.75645e-06
13 *521:B *179:16 1.40419e-08
14 *586:B *179:10 6.7842e-07
15 *42:37 *179:20 0
16 *42:37 *179:31 2.18135e-06
17 *44:23 *179:10 1.80102e-05
18 *123:31 *179:16 1.27255e-05
19 *125:27 *179:10 0
20 *160:41 *179:31 0
21 *160:60 *179:31 3.05118e-08
22 *178:19 *179:31 0
*RES
1 *586:Y *179:10 47.5476 
2 *179:10 *179:16 49.9099 
3 *179:16 *179:20 22.8317 
4 *179:20 *587:B 17.2 
5 *179:20 *179:31 36.2626 
6 *179:31 *612:C 35.4697 
*END

*D_NET *180 4.59848e-05
*CONN
*I *588:B I *D XOR2x2_ASAP7_75t_SL
*I *587:Y O *D OA21x2_ASAP7_75t_SL
*CAP
1 *588:B 0
2 *587:Y 2.2589e-05
3 *180:10 2.2589e-05
4 *180:10 *428:80 2.68933e-07
5 *180:10 *428:93 5.37866e-07
6 *42:37 *180:10 0
*RES
1 *587:Y *180:10 45.8581 
2 *180:10 *588:B 34.4 
*END

*D_NET *181 0.000154154
*CONN
*I *590:B I *D OR2x2_ASAP7_75t_SL
*I *593:A2 I *D OA211x2_ASAP7_75t_SL
*I *589:Y O *D OR4x2_ASAP7_75t_SL
*CAP
1 *590:B 0
2 *593:A2 8.04329e-06
3 *589:Y 1.98656e-05
4 *181:25 2.75166e-05
5 *181:10 5.54255e-05
6 *181:10 *444:33 1.692e-05
7 *181:25 *182:10 5.27288e-06
8 *590:A *181:25 1.21211e-05
9 *162:22 *181:10 8.31096e-06
10 *162:43 *181:10 6.7842e-07
*RES
1 *589:Y *181:10 48.1674 
2 *181:10 *593:A2 38.6786 
3 *181:10 *181:25 36.3156 
4 *181:25 *590:B 17.2 
*END

*D_NET *182 4.92072e-05
*CONN
*I *594:A2 I *D OAI21x1_ASAP7_75t_SL
*I *590:Y O *D OR2x2_ASAP7_75t_SL
*CAP
1 *594:A2 0
2 *590:Y 2.08665e-05
3 *182:10 2.08665e-05
4 *182:10 *186:8 0
5 *594:A1 *182:10 2.20128e-06
6 *181:25 *182:10 5.27288e-06
*RES
1 *590:Y *182:10 45.2382 
2 *182:10 *594:A2 34.4 
*END

*D_NET *183 0.000335758
*CONN
*I *602:A I *D NAND2x1_ASAP7_75t_SL
*I *593:B I *D OA211x2_ASAP7_75t_SL
*I *591:Y O *D OA21x2_ASAP7_75t_SL
*CAP
1 *602:A 0
2 *593:B 1.23936e-05
3 *591:Y 8.3214e-06
4 *183:26 6.44189e-05
5 *183:20 6.81974e-05
6 *183:12 5.74068e-05
7 *183:8 4.95561e-05
8 *593:B *593:C 8.31866e-06
9 *183:8 *428:33 0
10 *183:12 *591:B 9.93857e-06
11 *183:12 *335:21 0
12 *183:12 *411:8 0
13 *183:12 *428:50 0
14 *183:20 *186:12 1.25606e-05
15 *183:20 *335:21 1.33022e-05
16 *183:20 *411:8 5.37569e-06
17 *183:26 *592:A 5.19552e-07
18 *183:26 *593:C 1.01391e-05
19 *183:26 *185:8 7.08455e-07
20 *183:26 *361:10 4.71653e-06
21 *592:C *183:26 9.30483e-06
22 *160:41 *183:12 0
23 *175:12 *183:26 5.79724e-07
*RES
1 *591:Y *183:8 38.1438 
2 *183:8 *183:12 47.0478 
3 *183:12 *183:20 47.9974 
4 *183:20 *183:26 39.9177 
5 *183:26 *593:B 41.3527 
6 *183:12 *602:A 17.2 
*END

*D_NET *184 8.16714e-05
*CONN
*I *593:C I *D OA211x2_ASAP7_75t_SL
*I *592:Y O *D OR3x1_ASAP7_75t_SL
*CAP
1 *593:C 1.9833e-05
2 *592:Y 1.9833e-05
3 *593:C *592:A 6.44983e-06
4 *593:C *592:B 7.79295e-06
5 *592:C *593:C 9.30483e-06
6 *593:B *593:C 8.31866e-06
7 *183:26 *593:C 1.01391e-05
*RES
1 *592:Y *593:C 49.3751 
*END

*D_NET *185 5.43624e-05
*CONN
*I *594:B I *D OAI21x1_ASAP7_75t_SL
*I *593:Y O *D OA211x2_ASAP7_75t_SL
*CAP
1 *594:B 7.79293e-06
2 *593:Y 6.77135e-06
3 *185:8 1.45643e-05
4 *594:B *186:12 1.3623e-05
5 *185:8 *361:10 9.56586e-07
6 *175:12 *185:8 9.94583e-06
7 *183:26 *185:8 7.08455e-07
*RES
1 *593:Y *185:8 40.0317 
2 *185:8 *594:B 39.2134 
*END

*D_NET *186 0.000603301
*CONN
*I *619:A1 I *D AO21x1_ASAP7_75t_SL
*I *595:B I *D XNOR2x2_ASAP7_75t_SL
*I *594:Y O *D OAI21x1_ASAP7_75t_SL
*CAP
1 *619:A1 3.53559e-06
2 *595:B 1.34895e-05
3 *594:Y 4.20936e-06
4 *186:57 1.78221e-05
5 *186:38 2.4519e-05
6 *186:30 2.5316e-05
7 *186:28 9.38396e-05
8 *186:24 0.000129216
9 *186:18 3.89169e-05
10 *186:12 5.76781e-05
11 *186:10 5.41378e-05
12 *186:8 4.20936e-06
13 *595:B *400:23 0
14 *595:B *403:40 0
15 *595:B *427:14 0
16 *595:B *430:42 0
17 *619:A1 *619:A2 5.62196e-06
18 *186:8 *361:10 0
19 *186:12 *579:A 9.30483e-06
20 *186:18 *192:10 1.49407e-08
21 *186:18 *411:8 0
22 *186:18 *432:36 2.20128e-06
23 *186:24 *602:B 1.5185e-05
24 *186:24 *605:A1 2.98961e-07
25 *186:24 *432:28 1.66584e-05
26 *186:28 *430:36 0
27 *186:38 *618:A1 2.12481e-06
28 *186:38 *427:8 7.63254e-07
29 *186:38 *434:12 4.49469e-06
30 *186:38 *434:27 3.86483e-06
31 *186:57 *204:8 1.03919e-05
32 *186:57 *434:27 2.64113e-05
33 *582:A *186:12 7.03841e-06
34 *594:B *186:12 1.3623e-05
35 *29:53 *186:28 5.10152e-07
36 *33:14 *595:B 0
37 *176:8 *186:12 5.34278e-06
38 *182:10 *186:8 0
39 *183:20 *186:12 1.25606e-05
*RES
1 *594:Y *186:8 37.2158 
2 *186:8 *186:10 17.2 
3 *186:10 *186:12 35.8333 
4 *186:12 *186:18 37.2158 
5 *186:18 *186:24 35.694 
6 *186:24 *186:28 48.1506 
7 *186:28 *186:30 17.2 
8 *186:30 *186:38 42.874 
9 *186:38 *595:B 44.537 
10 *186:30 *186:57 46.9295 
11 *186:57 *619:A1 36.0045 
*END

*D_NET *187 0.000308948
*CONN
*I *944:A I *D BUFx3_ASAP7_75t_SL
*I *658:B I *D AND2x2_ASAP7_75t_SL
*I *660:C I *D NOR3x1_ASAP7_75t_SL
*I *596:Y O *D AO21x1_ASAP7_75t_SL
*CAP
1 *944:A 1.67478e-05
2 *658:B 1.42637e-05
3 *660:C 0
4 *596:Y 2.82765e-05
5 *187:25 4.76856e-05
6 *187:14 4.30839e-05
7 *187:8 5.46862e-05
8 *658:B *209:72 2.74902e-07
9 *658:B *229:14 6.13224e-06
10 *658:B *276:12 3.03042e-06
11 *658:B *461:20 2.25602e-05
12 *944:A *228:12 5.62196e-06
13 *944:A *229:8 2.90209e-08
14 *944:A *431:33 1.64387e-05
15 *944:A *431:48 1.52651e-06
16 *187:14 *402:8 1.34402e-05
17 *187:25 *228:12 9.01138e-06
18 *187:25 *229:14 1.26641e-06
19 *517:A *187:8 5.25794e-06
20 *517:B *187:8 1.02506e-06
21 *596:B *187:8 1.04475e-06
22 *720:A2 *658:B 8.3668e-07
23 *720:A2 *187:25 2.68933e-07
24 *41:10 *187:14 3.32579e-06
25 *133:10 *187:14 0
26 *141:18 *187:25 5.52807e-07
27 *141:33 *187:14 8.06588e-06
28 *141:33 *187:25 4.49469e-06
*RES
1 *596:Y *187:8 48.3055 
2 *187:8 *187:14 36.0359 
3 *187:14 *660:C 17.2 
4 *187:14 *187:25 29.1645 
5 *187:25 *658:B 47.3528 
6 *187:25 *944:A 44.5617 
*END

*D_NET *188 0.000117541
*CONN
*I *615:A2 I *D AO21x1_ASAP7_75t_SL
*I *599:B I *D NAND2x1_ASAP7_75t_SL
*I *598:Y O *D AO21x1_ASAP7_75t_SL
*CAP
1 *615:A2 0
2 *599:B 0
3 *598:Y 4.24919e-06
4 *188:24 1.03984e-05
5 *188:14 3.52214e-05
6 *188:8 2.90721e-05
7 *188:14 *598:A1 6.33206e-07
8 *188:14 *615:B 6.7842e-07
9 *188:14 *191:12 1.12894e-06
10 *188:14 *191:27 0
11 *188:14 *343:21 0
12 *188:14 *432:99 8.56987e-06
13 *188:14 *441:72 1.49407e-08
14 *188:14 *442:36 8.28849e-06
15 *188:24 *615:A1 1.23286e-05
16 *188:24 *343:21 0
17 *188:24 *432:99 6.95709e-06
*RES
1 *598:Y *188:8 36.0045 
2 *188:8 *188:14 35.6711 
3 *188:14 *188:24 44.7034 
4 *188:24 *599:B 17.2 
5 *188:14 *615:A2 17.2 
*END

*D_NET *189 0.000272273
*CONN
*I *603:A I *D AND2x2_ASAP7_75t_SL
*I *600:C I *D AND3x1_ASAP7_75t_SL
*I *605:A2 I *D OAI22x1_ASAP7_75t_SL
*I *599:Y O *D NAND2x1_ASAP7_75t_SL
*CAP
1 *603:A 4.3932e-06
2 *600:C 6.50903e-06
3 *605:A2 1.50277e-05
4 *599:Y 1.0245e-05
5 *189:37 4.05058e-05
6 *189:29 4.52797e-05
7 *189:16 3.78706e-05
8 *189:10 2.61981e-05
9 *600:C *606:A1 1.73158e-05
10 *603:A *195:8 7.47402e-08
11 *603:A *343:8 1.70708e-06
12 *605:A2 *605:A1 1.33223e-05
13 *605:A2 *615:A1 0
14 *605:A2 *195:8 5.5349e-06
15 *605:A2 *198:20 0
16 *605:A2 *343:21 0
17 *189:10 *615:A1 1.60115e-05
18 *189:10 *343:21 5.06565e-06
19 *189:16 *343:19 0
20 *189:29 *195:8 1.27747e-05
21 *189:29 *343:8 1.29968e-05
22 *189:29 *343:21 0
23 *189:37 *606:A1 0
24 *189:37 *192:40 1.43982e-06
25 *189:37 *432:60 0
*RES
1 *599:Y *189:10 43.7188 
2 *189:10 *189:16 41.3527 
3 *189:16 *605:A2 47.0977 
4 *189:16 *189:29 10.0431 
5 *189:29 *189:37 46.6607 
6 *189:37 *600:C 40.2831 
7 *189:29 *603:A 36.6615 
*END

*D_NET *190 2.21694e-05
*CONN
*I *609:A2 I *D AO211x2_ASAP7_75t_SL
*I *600:Y O *D AND3x1_ASAP7_75t_SL
*CAP
1 *609:A2 3.69364e-06
2 *600:Y 6.75916e-06
3 *190:8 1.04528e-05
4 *609:A2 *194:10 1.26378e-06
5 *190:8 *196:10 0
6 *190:8 *432:60 0
*RES
1 *600:Y *190:8 38.9053 
2 *190:8 *609:A2 37.0741 
*END

*D_NET *191 0.000267174
*CONN
*I *617:A2 I *D OA21x2_ASAP7_75t_SL
*I *602:B I *D NAND2x1_ASAP7_75t_SL
*I *601:Y O *D OA21x2_ASAP7_75t_SL
*CAP
1 *617:A2 2.60129e-06
2 *602:B 2.85897e-05
3 *601:Y 0
4 *191:27 2.67313e-05
5 *191:12 4.82244e-05
6 *191:4 4.37647e-05
7 *602:B *601:A1 2.03526e-06
8 *602:B *192:10 2.20493e-06
9 *602:B *432:14 4.09005e-05
10 *602:B *432:20 1.88316e-05
11 *602:B *432:28 1.62312e-05
12 *602:B *441:72 5.85387e-06
13 *602:B *442:36 4.41457e-06
14 *617:A2 *203:6 2.90209e-08
15 *191:12 *432:8 5.49212e-07
16 *191:12 *441:72 9.26546e-06
17 *191:12 *442:36 6.33206e-07
18 *191:27 *205:8 0
19 *191:27 *443:27 0
20 *191:27 *443:31 0
21 *186:24 *602:B 1.5185e-05
22 *188:14 *191:12 1.12894e-06
23 *188:14 *191:27 0
*RES
1 *601:Y *191:4 17.2 
2 *191:4 *191:12 45.2949 
3 *191:12 *602:B 49.8243 
4 *191:4 *191:27 49.3504 
5 *191:27 *617:A2 18.2696 
*END

*D_NET *192 0.000259146
*CONN
*I *603:B I *D AND2x2_ASAP7_75t_SL
*I *605:B1 I *D OAI22x1_ASAP7_75t_SL
*I *607:B I *D NOR2x1_ASAP7_75t_SL
*I *602:Y O *D NAND2x1_ASAP7_75t_SL
*CAP
1 *603:B 0
2 *605:B1 2.86958e-06
3 *607:B 1.14614e-05
4 *602:Y 1.38384e-05
5 *192:40 3.61812e-05
6 *192:25 4.874e-05
7 *192:12 2.11506e-05
8 *192:10 1.38384e-05
9 *607:B *608:C 8.31096e-06
10 *607:B *198:14 5.85387e-06
11 *192:10 *198:14 4.83862e-06
12 *192:10 *432:28 4.74248e-06
13 *192:10 *432:36 4.59165e-06
14 *192:25 *194:10 0
15 *192:25 *198:14 2.09865e-05
16 *192:25 *198:20 4.74248e-06
17 *192:40 *606:A2 2.6401e-05
18 *192:40 *194:10 0
19 *192:40 *195:8 0
20 *192:40 *196:10 2.01457e-05
21 *192:40 *198:20 6.79293e-06
22 *192:40 *343:8 0
23 *602:B *192:10 2.20493e-06
24 *186:18 *192:10 1.49407e-08
25 *189:37 *192:40 1.43982e-06
*RES
1 *602:Y *192:10 45.0151 
2 *192:10 *192:12 17.2 
3 *192:12 *607:B 25.2224 
4 *192:12 *192:25 28.0949 
5 *192:25 *605:B1 37.0741 
6 *192:25 *192:40 43.8069 
7 *192:40 *603:B 17.2 
*END

*D_NET *193 6.8532e-05
*CONN
*I *606:A2 I *D AO21x1_ASAP7_75t_SL
*I *603:Y O *D AND2x2_ASAP7_75t_SL
*CAP
1 *606:A2 1.61398e-05
2 *603:Y 1.61398e-05
3 *606:A2 *606:B 9.83747e-06
4 *606:A2 *196:10 1.40419e-08
5 *192:40 *606:A2 2.6401e-05
*RES
1 *603:Y *606:A2 48.3055 
*END

*D_NET *194 5.73145e-05
*CONN
*I *605:B2 I *D OAI22x1_ASAP7_75t_SL
*I *604:Y O *D OR2x2_ASAP7_75t_SL
*CAP
1 *605:B2 0
2 *604:Y 2.61554e-05
3 *194:10 2.61554e-05
4 *194:10 *609:A1 1.01102e-06
5 *194:10 *609:B 6.7842e-07
6 *194:10 *198:14 2.05045e-06
7 *609:A2 *194:10 1.26378e-06
8 *192:25 *194:10 0
9 *192:40 *194:10 0
*RES
1 *604:Y *194:10 47.9974 
2 *194:10 *605:B2 34.4 
*END

*D_NET *195 7.74597e-05
*CONN
*I *606:B I *D AO21x1_ASAP7_75t_SL
*I *605:Y O *D OAI22x1_ASAP7_75t_SL
*CAP
1 *606:B 5.87286e-06
2 *605:Y 1.6441e-05
3 *195:8 2.23139e-05
4 *606:B *196:10 4.57952e-06
5 *195:8 *198:20 0
6 *195:8 *343:8 3.05118e-08
7 *603:A *195:8 7.47402e-08
8 *605:A2 *195:8 5.5349e-06
9 *606:A2 *606:B 9.83747e-06
10 *189:29 *195:8 1.27747e-05
11 *192:40 *195:8 0
*RES
1 *605:Y *195:8 49.6055 
2 *195:8 *606:B 41.3527 
*END

*D_NET *196 7.69965e-05
*CONN
*I *609:B I *D AO211x2_ASAP7_75t_SL
*I *606:Y O *D AO21x1_ASAP7_75t_SL
*CAP
1 *609:B 7.89852e-06
2 *606:Y 1.78909e-05
3 *196:10 2.57894e-05
4 *196:10 *432:60 0
5 *606:A2 *196:10 1.40419e-08
6 *606:B *196:10 4.57952e-06
7 *190:8 *196:10 0
8 *192:40 *196:10 2.01457e-05
9 *194:10 *609:B 6.7842e-07
*RES
1 *606:Y *196:10 46.5062 
2 *196:10 *609:B 39.2134 
*END

*D_NET *197 7.33507e-05
*CONN
*I *608:C I *D OA211x2_ASAP7_75t_SL
*I *607:Y O *D NOR2x1_ASAP7_75t_SL
*CAP
1 *608:C 1.596e-05
2 *607:Y 1.596e-05
3 *608:C *432:36 1.06092e-05
4 *608:C *432:38 1.55843e-05
5 *608:C *432:46 6.92634e-06
6 *607:B *608:C 8.31096e-06
*RES
1 *607:Y *608:C 49.3751 
*END

*D_NET *198 0.000216658
*CONN
*I *609:C I *D AO211x2_ASAP7_75t_SL
*I *608:Y O *D OA211x2_ASAP7_75t_SL
*CAP
1 *609:C 0
2 *608:Y 2.21499e-05
3 *198:20 1.24801e-05
4 *198:14 3.73951e-05
5 *198:8 4.70649e-05
6 *198:8 *432:36 1.2768e-05
7 *198:8 *432:38 1.75355e-05
8 *198:8 *432:46 7.35354e-06
9 *198:14 *432:36 1.46465e-05
10 *198:20 *605:A1 0
11 *605:A2 *198:20 0
12 *607:B *198:14 5.85387e-06
13 *192:10 *198:14 4.83862e-06
14 *192:25 *198:14 2.09865e-05
15 *192:25 *198:20 4.74248e-06
16 *192:40 *198:20 6.79293e-06
17 *194:10 *198:14 2.05045e-06
18 *195:8 *198:20 0
*RES
1 *608:Y *198:8 45.6313 
2 *198:8 *198:14 33.5565 
3 *198:14 *198:20 44.537 
4 *198:20 *609:C 17.2 
*END

*D_NET *199 0.000313729
*CONN
*I *612:B I *D OA211x2_ASAP7_75t_SL
*I *613:B1 I *D AO221x1_ASAP7_75t_SL
*I *610:Y O *D OA211x2_ASAP7_75t_SL
*CAP
1 *612:B 3.4442e-05
2 *613:B1 1.79531e-06
3 *610:Y 1.71206e-05
4 *199:23 3.63949e-05
5 *199:10 1.6727e-05
6 *199:8 3.00994e-05
7 *612:B *611:A 2.14755e-06
8 *612:B *613:B2 1.66706e-05
9 *612:B *201:6 8.07286e-05
10 *612:B *428:93 1.27782e-06
11 *613:B1 *613:B2 3.90258e-06
12 *199:8 *610:A1 1.56713e-06
13 *199:8 *610:B 7.35354e-06
14 *199:8 *484:30 6.7842e-07
15 *199:10 *427:22 2.25196e-06
16 *199:10 *431:60 1.58579e-05
17 *199:23 *431:60 2.68365e-06
18 *524:B *199:10 5.17387e-06
19 *610:C *199:8 5.34278e-06
20 *612:C *612:B 1.36155e-06
21 *32:29 *199:10 2.15078e-05
22 *32:29 *199:23 8.06436e-06
23 *35:33 *199:10 0
24 *35:41 *199:10 5.79724e-07
25 *132:6 *199:8 0
*RES
1 *610:Y *199:8 43.492 
2 *199:8 *199:10 14.0792 
3 *199:10 *613:B1 35.4697 
4 *199:10 *199:23 20.0158 
5 *199:23 *612:B 47.685 
*END

*D_NET *200 4.28175e-05
*CONN
*I *613:B2 I *D AO221x1_ASAP7_75t_SL
*I *611:Y O *D OR2x2_ASAP7_75t_SL
*CAP
1 *613:B2 8.61809e-06
2 *611:Y 8.61809e-06
3 *613:B2 *611:A 2.20493e-06
4 *613:B2 *201:6 2.80323e-06
5 *612:B *613:B2 1.66706e-05
6 *613:B1 *613:B2 3.90258e-06
*RES
1 *611:Y *613:B2 41.3527 
*END

*D_NET *201 0.000210119
*CONN
*I *613:C I *D AO221x1_ASAP7_75t_SL
*I *612:Y O *D OA211x2_ASAP7_75t_SL
*CAP
1 *613:C 0
2 *612:Y 5.27204e-05
3 *201:14 7.41796e-06
4 *201:6 6.01383e-05
5 *201:14 *443:14 0
6 *612:B *201:6 8.07286e-05
7 *613:B2 *201:6 2.80323e-06
8 *32:29 *201:14 6.31056e-06
*RES
1 *612:Y *201:6 44.4761 
2 *201:6 *201:14 40.5381 
3 *201:14 *613:C 17.2 
*END

*D_NET *202 0.000147601
*CONN
*I *614:A I *D XOR2x2_ASAP7_75t_SL
*I *613:Y O *D AO221x1_ASAP7_75t_SL
*CAP
1 *614:A 0
2 *613:Y 2.78629e-05
3 *202:14 2.30234e-05
4 *202:10 5.08863e-05
5 *202:10 *443:14 6.7842e-07
6 *202:14 *403:6 6.7842e-07
7 *202:14 *403:14 1.1199e-05
8 *613:A2 *202:10 7.58265e-07
9 *29:26 *202:10 2.74606e-06
10 *33:14 *202:10 1.16704e-05
11 *138:18 *202:10 7.84037e-07
12 *138:18 *202:14 1.23909e-05
13 *139:29 *202:10 4.92332e-06
*RES
1 *613:Y *202:10 48.5038 
2 *202:10 *202:14 35.9189 
3 *202:14 *614:A 17.2 
*END

*D_NET *203 7.90769e-05
*CONN
*I *616:A2 I *D AOI21x1_ASAP7_75t_SL
*I *615:Y O *D AO21x1_ASAP7_75t_SL
*CAP
1 *616:A2 0
2 *615:Y 2.66706e-05
3 *203:12 4.20079e-06
4 *203:6 3.08714e-05
5 *203:6 *616:A1 5.17782e-06
6 *203:6 *617:A1 3.81627e-06
7 *203:6 *617:B 8.31096e-06
8 *203:12 *204:8 0
9 *617:A2 *203:6 2.90209e-08
*RES
1 *615:Y *203:6 36.4537 
2 *203:6 *203:12 37.2158 
3 *203:12 *616:A2 17.2 
*END

*D_NET *204 5.7856e-05
*CONN
*I *619:A2 I *D AO21x1_ASAP7_75t_SL
*I *616:Y O *D AOI21x1_ASAP7_75t_SL
*CAP
1 *619:A2 7.45333e-06
2 *616:Y 4.79326e-06
3 *204:8 1.22466e-05
4 *619:A2 *619:B 6.7842e-07
5 *619:A2 *434:27 1.66706e-05
6 *204:8 *443:31 0
7 *619:A1 *619:A2 5.62196e-06
8 *186:57 *204:8 1.03919e-05
9 *203:12 *204:8 0
*RES
1 *616:Y *204:8 39.4685 
2 *204:8 *619:A2 40.2831 
*END

*D_NET *205 3.93631e-05
*CONN
*I *618:A2 I *D OAI21x1_ASAP7_75t_SL
*I *617:Y O *D OA21x2_ASAP7_75t_SL
*CAP
1 *618:A2 8.30805e-06
2 *617:Y 6.10874e-06
3 *205:8 1.44168e-05
4 *618:A2 *443:27 3.56648e-06
5 *205:8 *443:31 6.96299e-06
6 *191:27 *205:8 0
*RES
1 *617:Y *205:8 40.0317 
2 *205:8 *618:A2 39.2134 
*END

*D_NET *206 0.000103301
*CONN
*I *619:B I *D AO21x1_ASAP7_75t_SL
*I *618:Y O *D OAI21x1_ASAP7_75t_SL
*CAP
1 *619:B 3.95795e-06
2 *618:Y 2.27657e-05
3 *206:10 2.67237e-05
4 *206:10 *618:A1 2.66329e-05
5 *206:10 *400:14 0
6 *206:10 *434:12 5.62196e-06
7 *206:10 *434:27 1.692e-05
8 *619:A2 *619:B 6.7842e-07
*RES
1 *618:Y *206:10 49.1237 
2 *206:10 *619:B 36.5393 
*END

*D_NET *207 0.000110299
*CONN
*I *620:B I *D XNOR2x2_ASAP7_75t_SL
*I *619:Y O *D AO21x1_ASAP7_75t_SL
*CAP
1 *620:B 0
2 *619:Y 3.21131e-05
3 *207:10 2.30365e-05
4 *207:6 5.51497e-05
5 *207:10 *400:23 0
*RES
1 *619:Y *207:6 35.9189 
2 *207:6 *207:10 34.6581 
3 *207:10 *620:B 34.4 
*END

*D_NET *208 0.000272257
*CONN
*I *725:B2 I *D OA222x2_ASAP7_75t_SL
*I *646:A1 I *D OA21x2_ASAP7_75t_SL
*I *636:Y O *D INVx1_ASAP7_75t_SL
*CAP
1 *725:B2 2.05307e-06
2 *646:A1 0
3 *636:Y 1.30428e-05
4 *208:25 3.53451e-05
5 *208:14 3.70632e-05
6 *208:10 1.68139e-05
7 *725:B2 *397:55 1.35684e-06
8 *208:10 *280:8 2.99609e-05
9 *208:10 *302:8 1.93545e-05
10 *208:25 *782:CLK 0
11 *208:25 *302:8 6.34892e-06
12 *208:25 *339:25 3.57113e-05
13 *208:25 *339:33 1.58042e-05
14 *208:25 *437:95 2.71199e-05
15 *208:25 *455:35 0
16 *208:25 *477:47 8.2174e-07
17 *208:25 *477:58 1.49407e-08
18 *636:A *208:10 0
19 *70:10 *208:25 2.98532e-06
20 *70:18 *208:10 4.10928e-06
21 *146:180 *208:14 7.80516e-06
22 *146:180 *208:25 1.65464e-05
*RES
1 *636:Y *208:10 47.2111 
2 *208:10 *208:14 19.3393 
3 *208:14 *646:A1 17.2 
4 *208:14 *208:25 48.5672 
5 *208:25 *725:B2 35.4697 
*END

*D_NET *209 0.000797591
*CONN
*I *720:B I *D AO21x2_ASAP7_75t_SL
*I *640:A I *D INVx1_ASAP7_75t_SL
*I *638:B I *D AOI21x1_ASAP7_75t_SL
*I *989:B I *D AOI21x1_ASAP7_75t_SL
*I *664:B I *D OR2x6_ASAP7_75t_SL
*I *637:Y O *D NAND2x1_ASAP7_75t_SL
*CAP
1 *720:B 0
2 *640:A 0
3 *638:B 0
4 *989:B 0
5 *664:B 1.00484e-05
6 *637:Y 2.72289e-06
7 *209:72 1.54431e-05
8 *209:57 1.4276e-05
9 *209:51 4.54708e-05
10 *209:44 3.5703e-06
11 *209:38 2.55669e-05
12 *209:31 6.84962e-06
13 *209:25 0.000142734
14 *209:23 0.0001765
15 *209:8 4.71423e-05
16 *209:23 *402:8 9.61323e-06
17 *209:25 *978:A 6.25462e-05
18 *209:25 *1038:A 1.17301e-06
19 *209:25 *485:16 2.50967e-06
20 *209:25 *485:20 0.00011675
21 *209:25 *494:6 0
22 *209:31 *483:158 3.89072e-06
23 *209:31 *485:26 1.02491e-06
24 *209:38 *978:A 7.57325e-06
25 *209:44 *402:8 1.26929e-05
26 *209:51 *978:A 1.10364e-05
27 *209:51 *212:23 1.2768e-05
28 *209:57 *661:B 4.84697e-07
29 *209:57 *212:23 2.03451e-06
30 *209:57 *402:8 0
31 *209:57 *461:20 0
32 *209:72 *212:23 7.13384e-06
33 *209:72 *276:12 8.03327e-06
34 *658:B *209:72 2.74902e-07
35 *720:A2 *209:72 1.61096e-06
36 *4:83 *209:23 0
37 *4:91 *209:23 0
38 *4:104 *209:23 0
39 *41:10 *209:57 9.15354e-08
40 *41:10 *209:72 0
41 *133:12 *209:23 9.15354e-08
42 *133:16 *209:23 3.97746e-06
43 *141:44 *209:23 6.51346e-06
44 *141:44 *209:44 1.26929e-05
45 *141:46 *209:23 1.02382e-05
46 *141:50 *209:23 1.25108e-05
*RES
1 *637:Y *209:8 36.0045 
2 *209:8 *664:B 39.89 
3 *209:8 *209:23 44.232 
4 *209:23 *209:25 59.3656 
5 *209:25 *209:31 40.0317 
6 *209:31 *989:B 17.2 
7 *209:23 *209:38 2.67412 
8 *209:38 *209:44 38.9053 
9 *209:44 *638:B 17.2 
10 *209:38 *209:51 6.95272 
11 *209:51 *209:57 43.4107 
12 *209:57 *640:A 17.2 
13 *209:51 *209:72 43.7754 
14 *209:72 *720:B 17.2 
*END

*D_NET *210 0.00234014
*CONN
*I *679:A2 I *D AO22x1_ASAP7_75t_SL
*I *674:A2 I *D AO22x1_ASAP7_75t_SL
*I *657:B I *D AND2x2_ASAP7_75t_SL
*I *707:A2 I *D AO221x2_ASAP7_75t_SL
*I *695:A2 I *D AO221x2_ASAP7_75t_SL
*I *691:A2 I *D AO221x2_ASAP7_75t_SL
*I *638:Y O *D AOI21x1_ASAP7_75t_SL
*CAP
1 *679:A2 0
2 *674:A2 0
3 *657:B 6.91346e-07
4 *707:A2 1.68604e-06
5 *695:A2 1.42194e-06
6 *691:A2 0
7 *638:Y 0
8 *210:104 3.50818e-05
9 *210:98 4.19231e-05
10 *210:94 6.84129e-06
11 *210:92 4.68417e-05
12 *210:88 0.000141516
13 *210:77 6.53498e-05
14 *210:75 6.46585e-05
15 *210:73 0.000179558
16 *210:71 9.54083e-05
17 *210:54 4.44711e-05
18 *210:38 2.07365e-05
19 *210:32 2.40393e-05
20 *210:28 4.59272e-05
21 *210:22 8.68314e-05
22 *210:20 5.37684e-05
23 *210:12 0.000198506
24 *210:10 0.000150255
25 *210:4 1.6041e-05
26 *657:B *729:C2 3.89037e-06
27 *657:B *477:43 3.46317e-06
28 *695:A2 *255:22 7.63254e-07
29 *695:A2 *449:18 2.52755e-07
30 *707:A2 *264:14 1.44167e-06
31 *210:12 *437:12 9.19231e-05
32 *210:12 *437:81 1.5078e-05
33 *210:12 *457:213 0
34 *210:12 *479:38 2.05569e-05
35 *210:12 *483:18 5.31251e-05
36 *210:20 *479:106 0
37 *210:28 *213:98 1.93262e-06
38 *210:28 *213:102 8.41796e-05
39 *210:28 *349:20 6.86389e-05
40 *210:32 *213:121 1.32788e-06
41 *210:32 *255:22 1.88168e-06
42 *210:38 *691:C 9.52454e-06
43 *210:38 *213:121 1.67815e-06
44 *210:38 *252:21 7.8305e-06
45 *210:38 *253:10 1.26641e-06
46 *210:38 *348:6 3.65131e-06
47 *210:38 *478:37 4.70422e-06
48 *210:38 *478:50 1.19496e-05
49 *210:38 *480:50 2.2718e-05
50 *210:38 *480:61 5.97901e-06
51 *210:54 *530:C 3.36483e-06
52 *210:54 *213:98 4.72984e-06
53 *210:54 *374:18 0
54 *210:54 *464:8 3.99766e-06
55 *210:54 *471:120 2.19892e-05
56 *210:54 *483:72 9.56231e-06
57 *210:71 *276:14 0
58 *210:73 *437:81 8.74819e-06
59 *210:73 *479:38 4.33736e-05
60 *210:73 *479:66 1.45674e-05
61 *210:77 *990:A 5.33565e-06
62 *210:77 *289:23 3.3563e-06
63 *210:77 *431:10 9.77583e-07
64 *210:77 *458:8 2.77657e-06
65 *210:77 *458:18 0
66 *210:77 *458:163 2.27099e-06
67 *210:77 *472:22 0
68 *210:77 *477:77 7.48582e-06
69 *210:77 *481:16 0
70 *210:88 *397:87 2.8845e-05
71 *210:88 *437:81 5.51759e-06
72 *210:88 *479:66 7.85208e-06
73 *210:92 *475:10 3.12987e-06
74 *210:98 *245:8 5.0551e-07
75 *210:104 *679:A1 2.05883e-06
76 *210:104 *240:14 6.7842e-07
77 *210:104 *242:23 1.59854e-05
78 *210:104 *243:8 0
79 *210:104 *245:12 2.62732e-05
80 *210:104 *341:10 0
81 *4:104 *210:10 3.42044e-06
82 *10:8 *210:54 0
83 *15:29 *210:104 5.32397e-06
84 *17:10 *210:77 3.45856e-05
85 *25:12 *210:92 0
86 *25:12 *210:104 1.09067e-06
87 *25:26 *210:88 2.78655e-06
88 *28:12 *210:104 7.77987e-06
89 *36:8 *210:77 2.66544e-05
90 *36:16 *210:77 0
91 *37:12 *210:92 1.49407e-08
92 *37:18 *210:88 9.23448e-05
93 *55:10 *210:54 1.28234e-05
94 *98:12 *210:32 8.30358e-06
95 *98:12 *210:38 3.841e-05
96 *133:12 *210:10 1.49407e-08
97 *133:12 *210:71 1.559e-06
98 *137:12 *210:20 0
99 *146:24 *210:12 3.32014e-05
100 *146:32 *210:12 5.16801e-05
101 *146:32 *210:20 1.70738e-06
102 *146:34 *210:20 2.56455e-05
103 *146:42 *210:20 1.10322e-05
104 *146:42 *210:28 8.19225e-06
105 *146:42 *210:54 2.70019e-06
106 *146:52 *210:38 0
107 *146:72 *210:54 0
108 *147:122 *210:77 2.76514e-06
109 *149:46 *695:A2 5.41446e-06
*RES
1 *638:Y *210:4 17.2 
2 *210:4 *210:10 38.8115 
3 *210:10 *210:12 65.9595 
4 *210:12 *210:20 45.1963 
5 *210:20 *210:22 17.2 
6 *210:22 *210:28 49.4467 
7 *210:28 *210:32 20.1097 
8 *210:32 *210:38 44.6534 
9 *210:38 *691:A2 17.2 
10 *210:32 *695:A2 36.0045 
11 *210:22 *210:54 33.8838 
12 *210:54 *707:A2 35.4697 
13 *210:4 *210:71 39.9838 
14 *210:71 *210:73 29.0027 
15 *210:73 *210:75 17.2 
16 *210:75 *210:77 53.9701 
17 *210:77 *657:B 35.4697 
18 *210:73 *210:88 36.7945 
19 *210:88 *210:92 46.5785 
20 *210:92 *210:94 17.2 
21 *210:94 *210:98 20.9438 
22 *210:98 *210:104 49.1588 
23 *210:104 *674:A2 17.2 
24 *210:94 *679:A2 17.2 
*END

*D_NET *211 0.0004022
*CONN
*I *732:A2 I *D OA222x2_ASAP7_75t_SL
*I *639:Y O *D BUFx2_ASAP7_75t_SL
*CAP
1 *732:A2 7.31554e-06
2 *639:Y 0
3 *211:18 8.55253e-05
4 *211:12 8.10307e-05
5 *211:6 8.32645e-05
6 *211:4 8.04435e-05
7 *732:A2 *291:37 3.89037e-06
8 *732:A2 *397:164 2.03526e-06
9 *732:A2 *456:60 7.2178e-06
10 *211:6 *673:A2 1.78333e-06
11 *211:6 *309:13 1.76928e-06
12 *211:6 *336:150 1.62312e-05
13 *211:12 *336:150 1.49407e-08
14 *211:12 *474:12 1.07227e-06
15 *211:18 *732:C1 1.93482e-06
16 *211:18 *733:B2 2.5412e-06
17 *211:18 *238:14 2.69217e-06
18 *211:18 *291:14 7.35565e-07
19 *211:18 *397:164 1.88168e-06
20 *27:8 *732:A2 1.73158e-06
21 *149:239 *211:6 5.94108e-06
22 *150:18 *211:18 1.31482e-05
*RES
1 *639:Y *211:4 17.2 
2 *211:4 *211:6 40.1119 
3 *211:6 *211:12 35.9956 
4 *211:12 *211:18 43.2686 
5 *211:18 *732:A2 40.2831 
*END

*D_NET *212 0.000289854
*CONN
*I *641:A I *D AND3x4_ASAP7_75t_SL
*I *978:A I *D AND3x4_ASAP7_75t_SL
*I *661:B I *D OA211x2_ASAP7_75t_SL
*I *640:Y O *D INVx1_ASAP7_75t_SL
*CAP
1 *641:A 0
2 *978:A 2.6033e-05
3 *661:B 2.53785e-05
4 *640:Y 0
5 *212:23 4.33224e-05
6 *212:6 4.26679e-05
7 *661:B *661:A1 1.52651e-06
8 *661:B *229:14 5.51397e-07
9 *661:B *402:8 0
10 *661:B *476:148 0
11 *978:A *439:18 5.96787e-07
12 *978:A *485:16 4.43846e-06
13 *212:23 *461:20 8.33006e-07
14 *641:B *978:A 6.02341e-06
15 *641:C *978:A 3.89037e-06
16 *41:6 *978:A 1.95129e-06
17 *41:6 *212:23 2.48004e-05
18 *141:83 *978:A 8.89263e-07
19 *141:89 *661:B 2.8595e-06
20 *141:89 *212:23 5.15209e-07
21 *209:25 *978:A 6.25462e-05
22 *209:38 *978:A 7.57325e-06
23 *209:51 *978:A 1.10364e-05
24 *209:51 *212:23 1.2768e-05
25 *209:57 *661:B 4.84697e-07
26 *209:57 *212:23 2.03451e-06
27 *209:72 *212:23 7.13384e-06
*RES
1 *640:Y *212:6 34.4 
2 *212:6 *661:B 49.6302 
3 *212:6 *212:23 32.037 
4 *212:23 *978:A 41.2671 
5 *212:23 *641:A 17.2 
*END

*D_NET *213 0.00244932
*CONN
*I *1027:A I *D BUFx6f_ASAP7_75t_SL
*I *717:B2 I *D AO221x2_ASAP7_75t_SL
*I *707:B2 I *D AO221x2_ASAP7_75t_SL
*I *691:B2 I *D AO221x2_ASAP7_75t_SL
*I *695:B2 I *D AO221x2_ASAP7_75t_SL
*I *712:B2 I *D AO221x2_ASAP7_75t_SL
*I *687:B2 I *D AO221x2_ASAP7_75t_SL
*I *641:Y O *D AND3x4_ASAP7_75t_SL
*CAP
1 *1027:A 0
2 *717:B2 0
3 *707:B2 1.239e-06
4 *691:B2 1.00667e-06
5 *695:B2 0
6 *712:B2 1.41575e-05
7 *687:B2 9.60142e-06
8 *641:Y 0
9 *213:166 3.79506e-05
10 *213:164 4.63438e-05
11 *213:160 5.1135e-05
12 *213:156 5.37413e-05
13 *213:147 1.25729e-05
14 *213:121 2.16757e-05
15 *213:112 7.26718e-06
16 *213:102 6.11779e-05
17 *213:98 0.000109135
18 *213:96 8.34247e-05
19 *213:92 2.77379e-05
20 *213:84 0.000106523
21 *213:82 8.50781e-05
22 *213:69 1.7158e-05
23 *213:65 4.70692e-05
24 *213:63 6.934e-05
25 *213:50 2.04357e-05
26 *213:42 2.26352e-05
27 *213:34 5.73793e-05
28 *213:32 6.12882e-05
29 *213:24 6.23204e-05
30 *213:20 6.94435e-05
31 *213:12 8.757e-05
32 *213:8 8.99497e-05
33 *213:6 2.69114e-05
34 *687:B2 *250:20 5.85387e-06
35 *687:B2 *457:232 4.22378e-06
36 *691:B2 *253:10 3.90258e-06
37 *691:B2 *348:6 5.0551e-07
38 *707:B2 *707:C 2.20493e-06
39 *707:B2 *452:24 2.20493e-06
40 *712:B2 *353:35 8.17108e-06
41 *712:B2 *457:141 1.02506e-06
42 *213:8 *485:8 0
43 *213:8 *485:16 0
44 *213:12 *274:8 2.6409e-06
45 *213:12 *301:25 7.1772e-06
46 *213:20 *717:A2 4.2449e-06
47 *213:20 *717:B1 3.18889e-06
48 *213:20 *717:C 3.51548e-06
49 *213:20 *375:14 2.98814e-08
50 *213:20 *493:33 1.49407e-08
51 *213:24 *483:36 0
52 *213:24 *483:40 1.07377e-06
53 *213:32 *483:36 2.78783e-06
54 *213:32 *483:40 1.35684e-06
55 *213:32 *483:48 3.56648e-06
56 *213:32 *483:158 7.9603e-06
57 *213:34 *685:A2 2.28488e-05
58 *213:34 *710:A2 4.32093e-05
59 *213:34 *409:29 2.92223e-05
60 *213:34 *457:56 8.6361e-06
61 *213:34 *457:69 3.59323e-06
62 *213:34 *467:19 3.57606e-06
63 *213:34 *467:38 8.90818e-07
64 *213:34 *467:51 1.12894e-06
65 *213:34 *483:158 3.00499e-05
66 *213:34 *493:10 1.78642e-05
67 *213:42 *294:35 1.50458e-05
68 *213:42 *457:56 0
69 *213:42 *483:158 2.31967e-05
70 *213:50 *250:12 1.6363e-05
71 *213:50 *294:35 1.60944e-05
72 *213:63 *492:8 9.63579e-06
73 *213:65 *353:27 2.78257e-05
74 *213:69 *353:35 6.33206e-07
75 *213:84 *452:12 8.369e-06
76 *213:92 *457:149 2.54392e-05
77 *213:92 *463:10 1.93482e-06
78 *213:96 *264:22 5.35706e-06
79 *213:96 *352:33 2.6102e-06
80 *213:98 *255:14 0
81 *213:98 *264:22 6.33206e-07
82 *213:98 *349:18 1.94229e-07
83 *213:98 *352:33 5.79724e-07
84 *213:98 *464:8 0
85 *213:98 *471:120 2.05027e-06
86 *213:98 *483:80 0
87 *213:102 *349:20 3.96915e-06
88 *213:112 *695:C 3.67067e-06
89 *213:112 *349:20 2.13254e-06
90 *213:112 *349:28 2.64078e-06
91 *213:112 *449:18 1.35684e-06
92 *213:112 *483:98 6.68357e-06
93 *213:121 *255:22 2.87554e-06
94 *213:121 *348:23 6.79293e-06
95 *213:121 *349:43 3.86483e-06
96 *213:121 *478:37 2.69892e-05
97 *213:121 *478:50 2.5899e-05
98 *213:121 *483:98 1.10758e-05
99 *213:147 *717:B1 9.79501e-06
100 *213:147 *717:C 1.09633e-05
101 *213:147 *483:36 5.91429e-06
102 *213:160 *469:34 1.52651e-06
103 *213:164 *228:12 1.13547e-05
104 *685:B *213:34 3.27799e-05
105 *687:A2 *687:B2 1.73158e-06
106 *688:A2 *213:50 6.7842e-07
107 *945:A *213:160 2.12481e-06
108 *967:A *213:65 2.79851e-06
109 *4:104 *213:8 3.24654e-05
110 *25:14 *213:166 8.65476e-06
111 *38:12 *213:166 0.000149568
112 *39:14 *213:166 9.50207e-05
113 *47:10 *213:63 2.52123e-05
114 *64:18 *687:B2 1.13434e-06
115 *133:10 *213:8 0
116 *133:10 *213:156 0
117 *141:18 *213:164 5.00394e-06
118 *146:104 *213:42 2.64018e-06
119 *147:71 *213:34 1.8279e-05
120 *147:84 *213:34 5.18827e-05
121 *149:24 *213:42 1.34213e-05
122 *149:50 *213:98 0
123 *159:33 *712:B2 5.52807e-07
124 *160:10 *712:B2 2.34033e-05
125 *160:10 *213:69 6.72009e-06
126 *210:28 *213:98 1.93262e-06
127 *210:28 *213:102 8.41796e-05
128 *210:32 *213:121 1.32788e-06
129 *210:38 *213:121 1.67815e-06
130 *210:54 *213:98 4.72984e-06
*RES
1 *641:Y *213:6 34.4 
2 *213:6 *213:8 20.8371 
3 *213:8 *213:12 48.7547 
4 *213:12 *213:20 49.5168 
5 *213:20 *213:24 25.2224 
6 *213:24 *213:32 44.3386 
7 *213:32 *213:34 60.9158 
8 *213:34 *213:42 44.5713 
9 *213:42 *213:50 42.7058 
10 *213:50 *687:B2 39.7482 
11 *213:24 *213:63 39.7266 
12 *213:63 *213:65 34.7636 
13 *213:65 *213:69 20.0158 
14 *213:69 *712:B2 47.0977 
15 *213:69 *213:82 17.2 
16 *213:82 *213:84 40.1119 
17 *213:84 *213:92 45.2296 
18 *213:92 *213:96 22.7378 
19 *213:96 *213:98 49.6525 
20 *213:98 *213:102 33.2164 
21 *213:102 *213:112 39.36 
22 *213:112 *695:B2 17.2 
23 *213:102 *213:121 43.5749 
24 *213:121 *691:B2 35.4697 
25 *213:96 *707:B2 36.0045 
26 *213:20 *213:147 44.2819 
27 *213:147 *717:B2 17.2 
28 *213:8 *213:156 25.0843 
29 *213:156 *213:160 42.3368 
30 *213:160 *213:164 26.2107 
31 *213:164 *213:166 48.1343 
32 *213:166 *1027:A 17.2 
*END

*D_NET *214 0.000831341
*CONN
*I *731:A2 I *D OA222x2_ASAP7_75t_SL
*I *642:Y O *D BUFx2_ASAP7_75t_SL
*CAP
1 *731:A2 0
2 *642:Y 2.02978e-05
3 *214:44 2.53601e-05
4 *214:42 2.53601e-05
5 *214:40 2.54034e-05
6 *214:34 7.73139e-05
7 *214:26 7.51195e-05
8 *214:18 2.72448e-05
9 *214:12 7.38536e-05
10 *214:10 6.98177e-05
11 *214:8 2.02978e-05
12 *214:8 *325:11 0
13 *214:8 *382:12 0
14 *214:12 *665:A 2.21344e-05
15 *214:12 *325:13 4.65585e-05
16 *214:18 *244:10 6.33206e-07
17 *214:18 *336:137 5.52807e-07
18 *214:26 *244:14 1.78538e-05
19 *214:34 *341:23 0
20 *214:40 *651:A 3.05302e-06
21 *214:40 *340:18 2.71126e-05
22 *214:40 *477:108 2.1664e-06
23 *214:40 *484:6 9.75735e-06
24 *214:44 *731:B1 7.80516e-06
25 *214:44 *731:B2 2.20493e-06
26 *214:44 *731:C1 8.37646e-05
27 *214:44 *397:110 9.75645e-06
28 *214:44 *470:10 8.07286e-05
29 *25:14 *214:40 7.57397e-05
30 *28:18 *214:34 0
31 *35:16 *214:44 1.40419e-08
32 *149:226 *214:12 6.7842e-07
33 *149:226 *214:26 7.58265e-07
*RES
1 *642:Y *214:8 48.4791 
2 *214:8 *214:10 17.2 
3 *214:10 *214:12 60.4352 
4 *214:12 *214:18 37.2158 
5 *214:18 *214:26 49.685 
6 *214:26 *214:34 49.3132 
7 *214:34 *214:40 49.2081 
8 *214:40 *214:42 17.2 
9 *214:42 *214:44 33.1591 
10 *214:44 *731:A2 17.2 
*END

*D_NET *215 0.000425352
*CONN
*I *729:A2 I *D OA222x2_ASAP7_75t_SL
*I *643:Y O *D BUFx2_ASAP7_75t_SL
*CAP
1 *729:A2 3.49356e-06
2 *643:Y 0
3 *215:16 2.25824e-05
4 *215:8 0.000134356
5 *215:6 0.000115268
6 *729:A2 *729:A1 5.85387e-06
7 *729:A2 *477:39 1.36155e-06
8 *215:8 *231:14 1.32931e-05
9 *215:8 *324:13 2.72036e-05
10 *215:8 *336:57 0
11 *215:8 *364:12 4.92778e-05
12 *215:8 *477:8 6.72662e-07
13 *215:16 *729:A1 6.8435e-06
14 *215:16 *231:14 2.5485e-05
15 *215:16 *231:18 1.67815e-06
16 *215:16 *458:137 3.73518e-07
17 *215:16 *477:31 1.73404e-05
18 *543:A *215:8 0
19 *1019:A *215:8 0
20 *146:145 *215:8 0
21 *149:116 *215:8 2.68933e-07
*RES
1 *643:Y *215:6 34.4 
2 *215:6 *215:8 104.749 
3 *215:8 *215:16 49.4071 
4 *215:16 *729:A2 36.5393 
*END

*D_NET *216 0.000131169
*CONN
*I *645:C I *D AO221x1_ASAP7_75t_SL
*I *644:Y O *D AO21x1_ASAP7_75t_SL
*CAP
1 *645:C 0
2 *644:Y 3.08436e-05
3 *216:6 3.08436e-05
4 *216:6 *645:A2 3.68287e-06
5 *216:6 *976:A 6.86929e-06
6 *216:6 *217:8 5.09299e-06
7 *216:6 *336:82 5.34278e-06
8 *216:6 *435:8 7.37131e-06
9 *644:B *216:6 3.89037e-06
10 *143:6 *216:6 3.68565e-06
11 *149:170 *216:6 3.3547e-05
*RES
1 *644:Y *216:6 46.0806 
2 *216:6 *645:C 17.2 
*END

*D_NET *217 9.58148e-05
*CONN
*I *646:B I *D OA21x2_ASAP7_75t_SL
*I *645:Y O *D AO221x1_ASAP7_75t_SL
*CAP
1 *646:B 0
2 *645:Y 7.59194e-06
3 *217:14 2.82244e-05
4 *217:8 3.58163e-05
5 *217:14 *782:CLK 1.31667e-05
6 *217:14 *339:25 0
7 *71:16 *217:14 0
8 *72:6 *217:14 5.34278e-06
9 *88:8 *217:14 5.79724e-07
10 *149:170 *217:14 0
11 *216:6 *217:8 5.09299e-06
*RES
1 *645:Y *217:8 38.1438 
2 *217:8 *217:14 38.2319 
3 *217:14 *646:B 17.2 
*END

*D_NET *218 0.000151808
*CONN
*I *649:A2 I *D AO221x1_ASAP7_75t_SL
*I *726:C2 I *D OA222x2_ASAP7_75t_SL
*I *647:Y O *D INVx1_ASAP7_75t_SL
*CAP
1 *649:A2 0
2 *726:C2 0
3 *647:Y 0
4 *218:23 1.94341e-05
5 *218:12 1.37754e-05
6 *218:6 3.32094e-05
7 *218:12 *726:A2 4.39365e-05
8 *218:12 *481:53 8.31096e-06
9 *218:12 *481:55 0
10 *218:23 *219:22 1.99276e-05
11 *218:23 *220:8 8.99409e-06
12 *218:23 *340:39 5.63702e-07
13 *218:23 *481:55 0
14 *40:18 *218:12 3.65663e-06
15 *149:185 *218:12 0
16 *149:185 *218:23 0
*RES
1 *647:Y *218:6 34.4 
2 *218:6 *218:12 33.3865 
3 *218:12 *726:C2 17.2 
4 *218:6 *218:23 34.5978 
5 *218:23 *649:A2 17.2 
*END

*D_NET *219 0.000239447
*CONN
*I *649:C I *D AO221x1_ASAP7_75t_SL
*I *648:Y O *D AO21x1_ASAP7_75t_SL
*CAP
1 *649:C 0
2 *648:Y 1.05118e-05
3 *219:22 2.58614e-05
4 *219:18 3.69441e-05
5 *219:10 2.15945e-05
6 *219:10 *277:6 1.36155e-06
7 *219:10 *336:106 0
8 *219:10 *362:6 7.35354e-06
9 *219:10 *362:14 2.13322e-06
10 *219:18 *336:106 1.12058e-05
11 *219:18 *340:41 1.62312e-05
12 *219:22 *649:A1 6.02341e-06
13 *219:22 *220:8 7.58265e-07
14 *219:22 *340:33 6.72571e-05
15 *219:22 *340:41 1.22837e-05
16 *218:23 *219:22 1.99276e-05
*RES
1 *648:Y *219:10 42.171 
2 *219:10 *219:18 43.1556 
3 *219:18 *219:22 41.8019 
4 *219:22 *649:C 17.2 
*END

*D_NET *220 0.000180288
*CONN
*I *650:B I *D OA21x2_ASAP7_75t_SL
*I *649:Y O *D AO221x1_ASAP7_75t_SL
*CAP
1 *650:B 0
2 *649:Y 2.63998e-05
3 *220:14 1.39279e-05
4 *220:8 4.03278e-05
5 *220:8 *649:A1 5.51397e-07
6 *220:8 *340:33 0
7 *220:14 *287:6 5.08828e-06
8 *220:14 *437:89 4.43388e-05
9 *220:14 *456:16 3.6269e-06
10 *89:14 *220:14 3.62745e-05
11 *218:23 *220:8 8.99409e-06
12 *219:22 *220:8 7.58265e-07
*RES
1 *649:Y *220:8 46.701 
2 *220:8 *220:14 36.1493 
3 *220:14 *650:B 17.2 
*END

*D_NET *221 7.52418e-05
*CONN
*I *655:B2 I *D AOI22x1_ASAP7_75t_SL
*I *651:Y O *D NAND2x2_ASAP7_75t_SL
*CAP
1 *655:B2 0
2 *651:Y 0
3 *221:10 2.50634e-05
4 *221:6 2.50634e-05
5 *221:10 *651:B 0
6 *221:10 *288:20 1.66514e-05
7 *221:10 *336:106 0
8 *221:10 *481:74 0
9 *221:10 *484:10 8.46363e-06
10 *74:12 *221:10 0
*RES
1 *651:Y *221:6 34.4 
2 *221:6 *221:10 35.7845 
3 *221:10 *655:B2 17.2 
*END

*D_NET *222 8.72989e-05
*CONN
*I *654:A I *D OR3x1_ASAP7_75t_SL
*I *652:Y O *D NOR2x1_ASAP7_75t_SL
*CAP
1 *654:A 1.49782e-05
2 *652:Y 1.22127e-05
3 *222:8 2.71909e-05
4 *654:A *654:B 2.8275e-06
5 *654:A *654:C 6.02341e-06
6 *654:A *340:18 1.55813e-06
7 *654:A *477:108 1.15587e-05
8 *654:A *481:55 0
9 *654:A *481:74 0
10 *222:8 *751:A 1.09492e-05
*RES
1 *652:Y *222:8 42.4224 
2 *222:8 *654:A 46.1415 
*END

*D_NET *223 5.71615e-05
*CONN
*I *654:C I *D OR3x1_ASAP7_75t_SL
*I *653:Y O *D AND3x1_ASAP7_75t_SL
*CAP
1 *654:C 8.20533e-06
2 *653:Y 8.20533e-06
3 *654:C *654:B 3.12984e-06
4 *654:C *456:106 3.15975e-05
5 *654:A *654:C 6.02341e-06
*RES
1 *653:Y *654:C 42.4224 
*END

*D_NET *224 9.06652e-05
*CONN
*I *655:B1 I *D AOI22x1_ASAP7_75t_SL
*I *654:Y O *D OR3x1_ASAP7_75t_SL
*CAP
1 *655:B1 8.78563e-06
2 *654:Y 1.12749e-05
3 *224:8 2.00605e-05
4 *655:B1 *728:C1 3.05118e-08
5 *655:B1 *281:14 5.63702e-07
6 *655:B1 *288:37 7.60413e-06
7 *224:8 *728:A2 6.1473e-07
8 *224:8 *288:37 6.02341e-06
9 *224:8 *456:106 3.48859e-05
10 *74:12 *655:B1 8.2174e-07
*RES
1 *654:Y *224:8 43.492 
2 *224:8 *655:B1 41.158 
*END

*D_NET *225 0.000168645
*CONN
*I *657:A I *D AND2x2_ASAP7_75t_SL
*I *729:C2 I *D OA222x2_ASAP7_75t_SL
*I *656:Y O *D INVx1_ASAP7_75t_SL
*CAP
1 *657:A 0
2 *729:C2 5.19221e-06
3 *656:Y 9.60841e-06
4 *225:12 1.51008e-05
5 *225:8 1.9517e-05
6 *729:C2 *226:8 3.33273e-05
7 *729:C2 *477:39 7.58265e-07
8 *729:C2 *477:43 1.05206e-05
9 *225:8 *436:12 3.15363e-06
10 *225:12 *226:8 1.12561e-05
11 *225:12 *477:43 1.09492e-05
12 *657:B *729:C2 3.89037e-06
13 *34:12 *225:8 6.88103e-06
14 *146:161 *225:8 3.84896e-05
*RES
1 *656:Y *225:8 47.3528 
2 *225:8 *225:12 25.7572 
3 *225:12 *729:C2 27.3617 
4 *225:12 *657:A 17.2 
*END

*D_NET *226 0.000239279
*CONN
*I *663:B1 I *D OA33x2_ASAP7_75t_SL
*I *657:Y O *D AND2x2_ASAP7_75t_SL
*CAP
1 *663:B1 0
2 *657:Y 3.04789e-05
3 *226:22 6.26557e-06
4 *226:14 3.1182e-05
5 *226:8 5.53953e-05
6 *226:8 *477:39 0
7 *226:14 *397:42 1.66639e-06
8 *226:14 *447:18 9.33528e-06
9 *226:14 *479:50 3.29527e-06
10 *226:14 *481:16 4.83143e-05
11 *226:22 *230:12 6.33206e-07
12 *226:22 *479:50 3.47607e-06
13 *729:C2 *226:8 3.33273e-05
14 *149:129 *226:14 4.1009e-06
15 *149:137 *226:14 0
16 *149:137 *226:22 5.52807e-07
17 *225:12 *226:8 1.12561e-05
*RES
1 *657:Y *226:8 49.9099 
2 *226:8 *226:14 39.4149 
3 *226:14 *226:22 39.3551 
4 *226:22 *663:B1 17.2 
*END

*D_NET *227 2.64105e-05
*CONN
*I *661:A1 I *D OA211x2_ASAP7_75t_SL
*I *658:Y O *D AND2x2_ASAP7_75t_SL
*CAP
1 *661:A1 1.42023e-06
2 *658:Y 7.06382e-06
3 *227:8 8.48405e-06
4 *227:8 *232:75 6.48109e-06
5 *661:B *661:A1 1.52651e-06
6 *149:137 *227:8 1.43485e-06
*RES
1 *658:Y *227:8 40.0317 
2 *227:8 *661:A1 35.4697 
*END

*D_NET *228 0.000123209
*CONN
*I *660:B I *D NOR3x1_ASAP7_75t_SL
*I *659:Y O *D INVx1_ASAP7_75t_SL
*CAP
1 *660:B 0
2 *659:Y 0
3 *228:12 2.17118e-05
4 *228:6 2.17118e-05
5 *228:12 *229:14 8.46363e-06
6 *228:12 *232:75 6.15972e-06
7 *228:12 *431:56 3.84449e-06
8 *228:12 *431:60 3.53295e-05
9 *944:A *228:12 5.62196e-06
10 *141:18 *228:12 0
11 *187:25 *228:12 9.01138e-06
12 *213:164 *228:12 1.13547e-05
*RES
1 *659:Y *228:6 34.4 
2 *228:6 *228:12 42.4574 
3 *228:12 *660:B 17.2 
*END

*D_NET *229 0.000208442
*CONN
*I *661:A2 I *D OA211x2_ASAP7_75t_SL
*I *660:Y O *D NOR3x1_ASAP7_75t_SL
*CAP
1 *661:A2 0
2 *660:Y 9.60066e-06
3 *229:14 2.03107e-05
4 *229:8 2.99113e-05
5 *229:8 *431:33 1.44639e-06
6 *229:8 *431:48 5.85387e-06
7 *229:14 *232:75 7.46606e-05
8 *229:14 *461:20 5.02156e-05
9 *658:B *229:14 6.13224e-06
10 *661:B *229:14 5.51397e-07
11 *944:A *229:8 2.90209e-08
12 *187:25 *229:14 1.26641e-06
13 *228:12 *229:14 8.46363e-06
*RES
1 *660:Y *229:8 39.2134 
2 *229:8 *229:14 44.1753 
3 *229:14 *661:A2 17.2 
*END

*D_NET *230 9.10176e-05
*CONN
*I *663:B2 I *D OA33x2_ASAP7_75t_SL
*I *661:Y O *D OA211x2_ASAP7_75t_SL
*CAP
1 *663:B2 0
2 *661:Y 0
3 *230:12 2.22027e-05
4 *230:6 2.22027e-05
5 *230:12 *410:8 1.02072e-05
6 *230:12 *479:50 1.49407e-07
7 *230:12 *481:16 0
8 *142:14 *230:12 5.91095e-06
9 *147:116 *230:12 7.75e-06
10 *149:137 *230:12 2.19615e-05
11 *226:22 *230:12 6.33206e-07
*RES
1 *661:Y *230:6 34.4 
2 *230:6 *230:12 40.2048 
3 *230:12 *663:B2 17.2 
*END

*D_NET *231 0.000265234
*CONN
*I *663:B3 I *D OA33x2_ASAP7_75t_SL
*I *662:Y O *D AO21x1_ASAP7_75t_SL
*CAP
1 *663:B3 4.03645e-06
2 *662:Y 1.58564e-05
3 *231:18 2.03528e-05
4 *231:14 4.35619e-05
5 *231:8 4.3102e-05
6 *231:8 *364:12 1.08167e-05
7 *231:14 *458:65 0
8 *231:14 *477:8 3.73518e-07
9 *231:18 *663:A2 6.46991e-06
10 *231:18 *729:A1 5.37866e-07
11 *231:18 *729:B2 0
12 *231:18 *397:42 0
13 *231:18 *458:65 6.02051e-06
14 *662:B *231:8 1.56713e-06
15 *663:A3 *663:B3 5.85387e-06
16 *75:18 *231:18 3.45062e-06
17 *142:18 *231:18 1.04585e-07
18 *146:153 *231:14 8.58704e-06
19 *147:12 *231:18 3.79923e-06
20 *147:95 *231:14 0
21 *147:95 *231:18 3.76883e-05
22 *147:112 *231:18 3.22574e-06
23 *149:116 *231:14 9.37287e-06
24 *215:8 *231:14 1.32931e-05
25 *215:16 *231:14 2.5485e-05
26 *215:16 *231:18 1.67815e-06
*RES
1 *662:Y *231:8 41.8876 
2 *231:8 *231:14 40.1481 
3 *231:14 *231:18 36.9108 
4 *231:18 *663:B3 36.5393 
*END

*D_NET *232 0.00104359
*CONN
*I *668:A2 I *D OA21x2_ASAP7_75t_SL
*I *714:B I *D NOR2x1_ASAP7_75t_SL
*I *684:B I *D NOR2x1_ASAP7_75t_SL
*I *709:B I *D NOR2x1_ASAP7_75t_SL
*I *664:Y O *D OR2x6_ASAP7_75t_SL
*CAP
1 *668:A2 2.18506e-06
2 *714:B 3.08979e-06
3 *684:B 0
4 *709:B 4.96191e-06
5 *664:Y 0
6 *232:75 4.50076e-05
7 *232:52 3.35035e-05
8 *232:44 5.98415e-05
9 *232:40 4.55092e-05
10 *232:36 3.12776e-05
11 *232:32 2.43008e-05
12 *232:28 5.46641e-05
13 *232:22 8.6908e-05
14 *232:18 4.16549e-05
15 *232:14 2.49767e-05
16 *232:6 6.25312e-05
17 *668:A2 *235:14 6.7842e-07
18 *668:A2 *431:56 5.0551e-07
19 *668:A2 *469:34 7.35354e-06
20 *709:B *710:A1 2.67517e-05
21 *709:B *494:6 2.67517e-05
22 *714:B *248:12 0
23 *714:B *271:8 5.49212e-07
24 *714:B *480:18 6.33206e-07
25 *714:B *493:35 5.52807e-07
26 *232:14 *461:16 3.56648e-06
27 *232:18 *279:12 6.33206e-07
28 *232:18 *461:20 3.47607e-06
29 *232:18 *476:148 0
30 *232:22 *461:16 0.000104531
31 *232:28 *461:16 1.56713e-06
32 *232:28 *461:35 0
33 *232:28 *480:8 6.33206e-07
34 *232:28 *480:12 2.9437e-05
35 *232:32 *248:12 0
36 *232:32 *480:18 1.98472e-06
37 *232:32 *493:35 1.49407e-08
38 *232:36 *714:A 2.28976e-06
39 *232:36 *248:8 5.92989e-06
40 *232:36 *461:35 1.56713e-06
41 *232:40 *684:A 7.08618e-06
42 *232:40 *248:8 6.7842e-07
43 *232:44 *268:8 7.86436e-06
44 *232:44 *461:58 4.65695e-07
45 *232:44 *467:27 8.58704e-06
46 *232:44 *483:158 2.93202e-05
47 *232:52 *268:12 1.25743e-05
48 *232:52 *272:12 1.25559e-05
49 *232:52 *457:99 4.49185e-06
50 *232:75 *276:27 1.29184e-05
51 *232:75 *431:25 1.3685e-05
52 *232:75 *431:48 7.84037e-07
53 *232:75 *431:56 1.98844e-05
54 *232:75 *461:20 1.11872e-05
55 *4:72 *232:28 0
56 *87:10 *232:44 0
57 *142:18 *232:14 2.38942e-05
58 *142:18 *232:75 2.13549e-05
59 *146:104 *232:44 2.85874e-05
60 *147:112 *232:14 5.52807e-07
61 *149:137 *232:14 0
62 *149:137 *232:75 0
63 *227:8 *232:75 6.48109e-06
64 *228:12 *232:75 6.15972e-06
65 *229:14 *232:75 7.46606e-05
*RES
1 *664:Y *232:6 34.4 
2 *232:6 *232:14 47.0977 
3 *232:14 *232:18 21.1422 
4 *232:18 *232:22 48.7547 
5 *232:22 *232:28 45.1526 
6 *232:28 *232:32 20.0158 
7 *232:32 *232:36 28.4313 
8 *232:36 *232:40 25.2224 
9 *232:40 *232:44 46.4846 
10 *232:44 *232:52 47.9974 
11 *232:52 *709:B 24.1527 
12 *232:36 *684:B 17.2 
13 *232:32 *714:B 37.2158 
14 *232:6 *232:75 47.8691 
15 *232:75 *668:A2 36.5393 
*END

*D_NET *233 0.000665454
*CONN
*I *667:A2 I *D AO21x1_ASAP7_75t_SL
*I *665:Y O *D INVx1_ASAP7_75t_SL
*CAP
1 *667:A2 0
2 *665:Y 8.11532e-06
3 *233:12 8.53319e-05
4 *233:10 8.53319e-05
5 *233:8 8.11532e-06
6 *233:8 *342:18 4.83862e-06
7 *233:12 *667:A1 1.36676e-05
8 *233:12 *667:B 1.75355e-05
9 *233:12 *235:6 6.70433e-06
10 *233:12 *288:16 1.62873e-05
11 *233:12 *336:135 1.27707e-05
12 *233:12 *342:12 0.000309053
13 *233:12 *363:20 2.66992e-05
14 *149:206 *233:12 7.10029e-05
*RES
1 *665:Y *233:8 40.0317 
2 *233:8 *233:10 17.2 
3 *233:10 *233:12 106.43 
4 *233:12 *667:A2 17.2 
*END

*D_NET *234 8.68856e-05
*CONN
*I *667:B I *D AO21x1_ASAP7_75t_SL
*I *666:Y O *D OA211x2_ASAP7_75t_SL
*CAP
1 *667:B 1.97583e-06
2 *666:Y 1.98701e-05
3 *234:8 2.18459e-05
4 *667:B *667:A1 1.75355e-05
5 *234:8 *597:B 6.76305e-06
6 *234:8 *469:12 0
7 *39:10 *234:8 1.35961e-06
8 *42:10 *234:8 0
9 *233:12 *667:B 1.75355e-05
*RES
1 *666:Y *234:8 48.4791 
2 *234:8 *667:B 39.7482 
*END

*D_NET *235 0.000131294
*CONN
*I *668:B I *D OA21x2_ASAP7_75t_SL
*I *667:Y O *D AO21x1_ASAP7_75t_SL
*CAP
1 *668:B 0
2 *667:Y 4.09661e-05
3 *235:14 1.36032e-05
4 *235:6 5.45693e-05
5 *235:6 *667:A1 5.19552e-07
6 *235:6 *469:34 0
7 *235:14 *431:56 2.20493e-06
8 *235:14 *469:34 3.71468e-06
9 *668:A2 *235:14 6.7842e-07
10 *149:137 *235:14 8.33296e-06
11 *233:12 *235:6 6.70433e-06
*RES
1 *667:Y *235:6 34.8492 
2 *235:6 *235:14 44.1686 
3 *235:14 *668:B 17.2 
*END

*D_NET *236 0.000156805
*CONN
*I *670:B1 I *D AOI22x1_ASAP7_75t_SL
*I *668:Y O *D OA21x2_ASAP7_75t_SL
*CAP
1 *670:B1 1.33377e-05
2 *668:Y 0
3 *236:10 4.62843e-05
4 *236:6 3.29466e-05
5 *670:B1 *670:A1 2.20493e-06
6 *236:10 *431:60 0
7 *236:10 *470:20 0
8 *236:10 *477:126 0
9 *35:18 *236:10 0
10 *36:24 *236:10 0
11 *39:18 *236:10 1.09788e-05
12 *39:35 *236:10 1.04612e-06
13 *76:8 *236:10 3.05118e-08
14 *132:10 *236:10 1.49948e-05
15 *149:137 *236:10 2.29795e-05
16 *149:149 *236:10 6.4693e-07
17 *149:155 *236:10 1.13547e-05
*RES
1 *668:Y *236:6 34.4 
2 *236:6 *236:10 47.0478 
3 *236:10 *670:B1 24.1527 
*END

*D_NET *237 5.72997e-05
*CONN
*I *670:B2 I *D AOI22x1_ASAP7_75t_SL
*I *669:Y O *D NAND2x2_ASAP7_75t_SL
*CAP
1 *670:B2 0
2 *669:Y 6.15784e-06
3 *237:8 6.15784e-06
4 *237:8 *430:10 7.24542e-06
5 *237:8 *430:21 5.6882e-06
6 *237:8 *441:41 2.73184e-05
7 *237:8 *441:64 4.73194e-06
*RES
1 *669:Y *237:8 44.537 
2 *237:8 *670:B2 34.4 
*END

*D_NET *238 0.000213832
*CONN
*I *674:A1 I *D AO22x1_ASAP7_75t_SL
*I *732:C2 I *D OA222x2_ASAP7_75t_SL
*I *671:Y O *D INVx1_ASAP7_75t_SL
*CAP
1 *674:A1 1.1341e-05
2 *732:C2 0
3 *671:Y 1.02196e-05
4 *238:14 3.81236e-05
5 *238:8 3.70022e-05
6 *674:A1 *291:10 3.07185e-05
7 *674:A1 *456:60 2.01337e-05
8 *238:14 *732:C1 2.35086e-05
9 *238:14 *456:60 9.30483e-06
10 *238:14 *481:74 0
11 *238:14 *481:97 4.97654e-06
12 *238:14 *484:10 2.47849e-05
13 *631:A *674:A1 7.58265e-07
14 *28:18 *238:14 1.49407e-08
15 *28:22 *238:8 2.52755e-07
16 *211:18 *238:14 2.69217e-06
*RES
1 *671:Y *238:8 39.2134 
2 *238:8 *238:14 41.8376 
3 *238:14 *732:C2 17.2 
4 *238:14 *674:A1 28.9662 
*END

*D_NET *239 0.000185634
*CONN
*I *674:B1 I *D AO22x1_ASAP7_75t_SL
*I *672:Y O *D NAND2x1_ASAP7_75t_SL
*CAP
1 *674:B1 1.94609e-05
2 *672:Y 1.19892e-05
3 *239:14 4.84502e-05
4 *239:8 4.09785e-05
5 *674:B1 *240:6 1.85565e-05
6 *674:B1 *240:14 3.40704e-06
7 *674:B1 *241:8 1.634e-06
8 *674:B1 *241:14 0
9 *674:B1 *243:8 2.27091e-05
10 *674:B1 *245:12 0
11 *239:8 *336:150 1.27636e-05
12 *239:8 *474:12 1.4191e-06
13 *28:6 *239:14 4.26578e-06
*RES
1 *672:Y *239:8 44.537 
2 *239:8 *239:14 45.6313 
3 *239:14 *674:B1 49.237 
*END

*D_NET *240 0.00017102
*CONN
*I *674:B2 I *D AO22x1_ASAP7_75t_SL
*I *673:Y O *D AO21x1_ASAP7_75t_SL
*CAP
1 *674:B2 0
2 *673:Y 4.606e-05
3 *240:14 1.3098e-05
4 *240:6 5.9158e-05
5 *240:6 *673:A2 1.60115e-05
6 *240:6 *336:150 5.19552e-07
7 *240:14 *241:8 2.27522e-06
8 *240:14 *241:14 1.12558e-05
9 *674:B1 *240:6 1.85565e-05
10 *674:B1 *240:14 3.40704e-06
11 *210:104 *240:14 6.7842e-07
*RES
1 *673:Y *240:6 35.384 
2 *240:6 *240:14 43.1556 
3 *240:14 *674:B2 17.2 
*END

*D_NET *241 0.00016103
*CONN
*I *675:B I *D AO21x2_ASAP7_75t_SL
*I *674:Y O *D AO22x1_ASAP7_75t_SL
*CAP
1 *675:B 0
2 *674:Y 1.21606e-05
3 *241:14 4.04059e-05
4 *241:8 5.25665e-05
5 *241:14 *243:8 0
6 *241:14 *245:12 3.60228e-05
7 *241:14 *245:22 1.09067e-06
8 *241:14 *345:10 0
9 *241:14 *484:58 0
10 *674:B1 *241:8 1.634e-06
11 *674:B1 *241:14 0
12 *78:8 *241:14 3.61852e-06
13 *240:14 *241:8 2.27522e-06
14 *240:14 *241:14 1.12558e-05
*RES
1 *674:Y *241:8 39.2134 
2 *241:8 *241:14 49.5802 
3 *241:14 *675:B 17.2 
*END

*D_NET *242 0.000148446
*CONN
*I *733:C2 I *D OA222x2_ASAP7_75t_SL
*I *679:A1 I *D AO22x1_ASAP7_75t_SL
*I *676:Y O *D INVx1_ASAP7_75t_SL
*CAP
1 *733:C2 0
2 *679:A1 6.61782e-06
3 *676:Y 0
4 *242:31 1.28342e-05
5 *242:23 4.42389e-05
6 *242:6 3.80226e-05
7 *242:23 *651:B 0
8 *242:23 *787:CLK 2.12481e-06
9 *242:23 *341:10 0
10 *242:31 *484:10 1.95873e-06
11 *787:D *242:23 1.09492e-05
12 *25:12 *679:A1 2.35211e-06
13 *25:12 *242:23 3.31686e-06
14 *93:8 *242:31 7.98637e-06
15 *210:104 *679:A1 2.05883e-06
16 *210:104 *242:23 1.59854e-05
*RES
1 *676:Y *242:6 34.4 
2 *242:6 *679:A1 38.7636 
3 *242:6 *242:23 42.5105 
4 *242:23 *242:31 42.5641 
5 *242:31 *733:C2 17.2 
*END

*D_NET *243 0.000156081
*CONN
*I *679:B1 I *D AO22x1_ASAP7_75t_SL
*I *677:Y O *D NAND2x1_ASAP7_75t_SL
*CAP
1 *679:B1 6.14721e-06
2 *677:Y 0
3 *243:8 5.93527e-05
4 *243:6 5.32055e-05
5 *679:B1 *244:14 1.46661e-05
6 *243:8 *245:12 0
7 *243:8 *474:12 0
8 *672:B *243:8 0
9 *674:B1 *243:8 2.27091e-05
10 *150:12 *243:8 0
11 *210:104 *243:8 0
12 *241:14 *243:8 0
*RES
1 *677:Y *243:6 34.4 
2 *243:6 *243:8 36.6058 
3 *243:8 *679:B1 38.1438 
*END

*D_NET *244 0.000145451
*CONN
*I *679:B2 I *D AO22x1_ASAP7_75t_SL
*I *678:Y O *D AO21x1_ASAP7_75t_SL
*CAP
1 *679:B2 0
2 *678:Y 1.81777e-05
3 *244:14 1.99971e-05
4 *244:10 3.81748e-05
5 *244:10 *678:A2 1.54461e-06
6 *244:10 *336:137 6.95214e-06
7 *244:14 *245:8 1.41445e-05
8 *679:B1 *244:14 1.46661e-05
9 *149:226 *244:10 3.79923e-06
10 *149:226 *244:14 9.50756e-06
11 *214:18 *244:10 6.33206e-07
12 *214:26 *244:14 1.78538e-05
*RES
1 *678:Y *244:10 45.3799 
2 *244:10 *244:14 36.4537 
3 *244:14 *679:B2 17.2 
*END

*D_NET *245 0.000279016
*CONN
*I *680:B I *D AO21x2_ASAP7_75t_SL
*I *679:Y O *D AO22x1_ASAP7_75t_SL
*CAP
1 *680:B 0
2 *679:Y 2.77544e-05
3 *245:22 1.80639e-05
4 *245:12 4.99804e-05
5 *245:8 5.96708e-05
6 *245:22 *677:A 3.05302e-06
7 *245:22 *484:41 0
8 *245:22 *484:58 0
9 *674:B1 *245:12 0
10 *15:25 *245:22 2.03526e-06
11 *15:29 *245:12 1.62854e-06
12 *15:29 *245:22 1.69127e-05
13 *28:12 *245:12 7.6492e-06
14 *78:12 *245:22 2.0895e-06
15 *150:12 *245:12 1.2142e-05
16 *210:98 *245:8 5.0551e-07
17 *210:104 *245:12 2.62732e-05
18 *241:14 *245:12 3.60228e-05
19 *241:14 *245:22 1.09067e-06
20 *243:8 *245:12 0
21 *244:14 *245:8 1.41445e-05
*RES
1 *679:Y *245:8 45.6313 
2 *245:8 *245:12 49.3005 
3 *245:12 *245:22 48.7022 
4 *245:22 *680:B 17.2 
*END

*D_NET *246 6.67178e-05
*CONN
*I *682:B I *D AO21x1_ASAP7_75t_SL
*I *681:Y O *D AND3x1_ASAP7_75t_SL
*CAP
1 *682:B 9.40595e-07
2 *681:Y 1.91926e-05
3 *246:10 2.01332e-05
4 *682:B *247:8 2.20493e-06
5 *246:10 *247:10 9.47659e-06
6 *246:10 *293:14 1.40419e-08
7 *246:10 *457:26 0
8 *682:A2 *682:B 2.28976e-06
9 *22:28 *246:10 1.02693e-05
10 *115:10 *246:10 2.19685e-06
*RES
1 *681:Y *246:10 48.2808 
2 *246:10 *682:B 36.0045 
*END

*D_NET *247 0.000248505
*CONN
*I *683:C I *D AO221x2_ASAP7_75t_SL
*I *682:Y O *D AO21x1_ASAP7_75t_SL
*CAP
1 *683:C 9.06207e-06
2 *682:Y 9.2161e-06
3 *247:10 5.11702e-05
4 *247:8 5.13243e-05
5 *683:C *683:A2 6.7842e-07
6 *683:C *683:B1 1.36155e-06
7 *683:C *683:B2 7.35354e-06
8 *683:C *346:16 1.40419e-08
9 *247:10 *303:33 0
10 *247:10 *346:16 8.06436e-06
11 *247:10 *437:24 4.84588e-06
12 *247:10 *476:54 1.73917e-06
13 *247:10 *476:66 2.74606e-06
14 *247:10 *476:77 1.12894e-06
15 *247:10 *478:8 0
16 *247:10 *493:68 1.60661e-05
17 *682:A2 *247:8 1.26378e-06
18 *682:B *247:8 2.20493e-06
19 *773:D *247:10 7.05036e-06
20 *22:28 *247:10 9.15354e-08
21 *68:8 *247:10 0
22 *68:27 *247:10 5.52807e-07
23 *115:10 *247:10 6.30944e-05
24 *246:10 *247:10 9.47659e-06
*RES
1 *682:Y *247:8 38.6786 
2 *247:8 *247:10 41.6743 
3 *247:10 *683:C 39.2134 
*END

*D_NET *248 6.96349e-05
*CONN
*I *688:B1 I *D OA22x2_ASAP7_75t_SL
*I *684:Y O *D NOR2x1_ASAP7_75t_SL
*CAP
1 *688:B1 0
2 *684:Y 6.61234e-06
3 *248:12 2.48857e-05
4 *248:8 3.14981e-05
5 *248:12 *249:8 0
6 *248:12 *250:12 0
7 *248:12 *493:43 0
8 *714:B *248:12 0
9 *146:104 *248:12 0
10 *149:18 *248:12 3.05118e-08
11 *232:32 *248:12 0
12 *232:36 *248:8 5.92989e-06
13 *232:40 *248:8 6.7842e-07
*RES
1 *684:Y *248:8 38.1438 
2 *248:8 *248:12 33.5318 
3 *248:12 *688:B1 17.2 
*END

*D_NET *249 4.4659e-05
*CONN
*I *686:B I *D NOR2x1_ASAP7_75t_SL
*I *685:Y O *D OA21x2_ASAP7_75t_SL
*CAP
1 *686:B 1.05416e-05
2 *685:Y 5.26744e-06
3 *249:8 1.5809e-05
4 *146:104 *249:8 1.30409e-05
5 *248:12 *249:8 0
*RES
1 *685:Y *249:8 38.9053 
2 *249:8 *686:B 39.2134 
*END

*D_NET *250 0.000121865
*CONN
*I *687:C I *D AO221x2_ASAP7_75t_SL
*I *686:Y O *D NOR2x1_ASAP7_75t_SL
*CAP
1 *687:C 0
2 *686:Y 0
3 *250:20 2.41434e-06
4 *250:12 2.52413e-05
5 *250:6 2.2827e-05
6 *250:12 *251:8 0
7 *250:12 *294:35 2.95706e-06
8 *250:12 *457:56 3.35377e-07
9 *250:12 *457:232 2.01227e-07
10 *250:20 *294:35 1.70708e-06
11 *250:20 *483:158 1.88168e-06
12 *687:B2 *250:20 5.85387e-06
13 *64:12 *250:12 0
14 *64:18 *250:20 2.27522e-06
15 *71:20 *250:12 1.38979e-05
16 *120:18 *250:12 1.70708e-06
17 *146:104 *250:12 2.31565e-05
18 *149:18 *250:12 1.04612e-06
19 *149:24 *250:12 0
20 *213:50 *250:12 1.6363e-05
21 *248:12 *250:12 0
*RES
1 *686:Y *250:6 34.4 
2 *250:6 *250:12 36.0065 
3 *250:12 *250:20 36.6615 
4 *250:20 *687:C 17.2 
*END

*D_NET *251 3.04623e-05
*CONN
*I *688:B2 I *D OA22x2_ASAP7_75t_SL
*I *687:Y O *D AO221x2_ASAP7_75t_SL
*CAP
1 *688:B2 5.58837e-06
2 *687:Y 6.65459e-06
3 *251:8 1.2243e-05
4 *688:B2 *467:12 5.75097e-06
5 *64:12 *251:8 2.25464e-07
6 *250:12 *251:8 0
*RES
1 *687:Y *251:8 38.9053 
2 *251:8 *688:B2 38.1438 
*END

*D_NET *252 0.000118725
*CONN
*I *737:C2 I *D OA222x2_ASAP7_75t_SL
*I *691:A1 I *D AO221x2_ASAP7_75t_SL
*I *689:Y O *D INVx1_ASAP7_75t_SL
*CAP
1 *737:C2 0
2 *691:A1 0
3 *689:Y 1.71797e-05
4 *252:21 1.26915e-05
5 *252:6 2.98712e-05
6 *252:6 *691:C 7.80516e-06
7 *252:6 *253:10 7.80516e-06
8 *252:6 *254:10 5.09299e-06
9 *252:6 *348:6 4.05812e-06
10 *252:6 *460:12 1.21211e-05
11 *252:21 *253:10 4.83862e-06
12 *252:21 *448:14 1.94745e-06
13 *252:21 *448:22 5.0551e-07
14 *252:21 *480:50 6.97772e-06
15 *146:52 *252:21 0
16 *210:38 *252:21 7.8305e-06
*RES
1 *689:Y *252:6 32.1751 
2 *252:6 *691:A1 17.2 
3 *252:6 *252:21 44.4803 
4 *252:21 *737:C2 17.2 
*END

*D_NET *253 0.000107308
*CONN
*I *691:C I *D AO221x2_ASAP7_75t_SL
*I *690:Y O *D AO21x1_ASAP7_75t_SL
*CAP
1 *691:C 4.16465e-06
2 *690:Y 3.13667e-05
3 *253:10 3.55313e-05
4 *691:C *348:6 2.90209e-08
5 *253:10 *691:B1 5.51397e-07
6 *253:10 *348:6 0
7 *691:B2 *253:10 3.90258e-06
8 *149:36 *253:10 5.22376e-07
9 *210:38 *691:C 9.52454e-06
10 *210:38 *253:10 1.26641e-06
11 *252:6 *691:C 7.80516e-06
12 *252:6 *253:10 7.80516e-06
13 *252:21 *253:10 4.83862e-06
*RES
1 *690:Y *253:10 47.9123 
2 *253:10 *691:C 38.1438 
*END

*D_NET *254 4.8003e-05
*CONN
*I *692:B I *D OA21x2_ASAP7_75t_SL
*I *691:Y O *D AO221x2_ASAP7_75t_SL
*CAP
1 *692:B 0
2 *691:Y 1.65566e-05
3 *254:10 1.65566e-05
4 *254:10 *348:6 5.09299e-06
5 *254:10 *448:14 0
6 *146:52 *254:10 4.70383e-06
7 *252:6 *254:10 5.09299e-06
*RES
1 *691:Y *254:10 46.0281 
2 *254:10 *692:B 34.4 
*END

*D_NET *255 0.000222167
*CONN
*I *738:C2 I *D OA222x2_ASAP7_75t_SL
*I *695:A1 I *D AO221x2_ASAP7_75t_SL
*I *693:Y O *D INVx1_ASAP7_75t_SL
*CAP
1 *738:C2 0
2 *695:A1 0
3 *693:Y 1.00677e-05
4 *255:22 1.60133e-05
5 *255:14 6.10976e-05
6 *255:8 5.5152e-05
7 *255:8 *693:A 4.57952e-06
8 *255:14 *738:C1 5.80001e-06
9 *255:14 *296:14 8.29794e-07
10 *255:14 *349:18 1.62604e-05
11 *255:14 *449:8 9.76186e-06
12 *255:22 *449:18 2.88806e-06
13 *255:22 *480:61 1.12894e-06
14 *255:22 *483:96 0
15 *255:22 *483:98 0
16 *695:A2 *255:22 7.63254e-07
17 *98:12 *255:22 5.22681e-06
18 *146:48 *255:14 2.67517e-05
19 *149:46 *255:22 1.07377e-06
20 *149:50 *255:14 1.49407e-08
21 *210:32 *255:22 1.88168e-06
22 *213:98 *255:14 0
23 *213:121 *255:22 2.87554e-06
*RES
1 *693:Y *255:8 40.8179 
2 *255:8 *255:14 46.0559 
3 *255:14 *255:22 46.6763 
4 *255:22 *695:A1 17.2 
5 *255:14 *738:C2 17.2 
*END

*D_NET *256 4.8061e-05
*CONN
*I *695:C I *D AO221x2_ASAP7_75t_SL
*I *694:Y O *D AO21x1_ASAP7_75t_SL
*CAP
1 *695:C 9.2515e-06
2 *694:Y 9.2515e-06
3 *695:C *349:43 1.2768e-05
4 *695:C *449:18 2.61188e-06
5 *694:B *695:C 5.41446e-06
6 *149:46 *695:C 5.09299e-06
7 *213:112 *695:C 3.67067e-06
*RES
1 *694:Y *695:C 43.492 
*END

*D_NET *257 3.58098e-05
*CONN
*I *696:B I *D OA21x2_ASAP7_75t_SL
*I *695:Y O *D AO221x2_ASAP7_75t_SL
*CAP
1 *696:B 7.22853e-06
2 *695:Y 7.22853e-06
3 *696:B *449:12 7.21308e-06
4 *696:B *449:18 3.81627e-06
5 *696:A2 *696:B 5.62196e-06
6 *149:46 *696:B 4.70139e-06
*RES
1 *695:Y *696:B 42.4224 
*END

*D_NET *258 0.000195081
*CONN
*I *700:A1 I *D AO221x2_ASAP7_75t_SL
*I *739:C2 I *D OA222x2_ASAP7_75t_SL
*I *697:Y O *D INVx1_ASAP7_75t_SL
*CAP
1 *700:A1 0
2 *739:C2 4.77027e-06
3 *697:Y 0
4 *258:29 4.19829e-05
5 *258:14 3.40983e-05
6 *258:6 7.13109e-05
7 *739:C2 *480:74 9.97906e-07
8 *739:C2 *480:87 8.02814e-07
9 *739:C2 *483:88 6.50104e-06
10 *258:14 *697:A 0
11 *258:14 *739:C1 5.80001e-06
12 *258:14 *450:14 7.84037e-07
13 *258:14 *480:85 1.62563e-06
14 *258:14 *480:87 0
15 *258:29 *704:A2 1.49116e-06
16 *258:29 *450:14 9.41389e-06
17 *258:29 *471:114 1.10099e-06
18 *258:29 *480:87 0
19 *258:29 *494:36 6.954e-06
20 *83:10 *258:29 3.42435e-06
21 *149:50 *258:14 1.51396e-06
22 *149:50 *258:29 2.50837e-06
*RES
1 *697:Y *258:6 34.4 
2 *258:6 *258:14 49.6302 
3 *258:14 *739:C2 39.4685 
4 *258:6 *258:29 48.4539 
5 *258:29 *700:A1 17.2 
*END

*D_NET *259 7.74122e-05
*CONN
*I *699:B I *D AO21x1_ASAP7_75t_SL
*I *698:Y O *D AND3x1_ASAP7_75t_SL
*CAP
1 *699:B 1.60157e-06
2 *698:Y 2.15563e-05
3 *259:10 2.31579e-05
4 *259:10 *698:A 1.07377e-06
5 *259:10 *698:B 8.87763e-06
6 *259:10 *260:10 1.94746e-05
7 *259:10 *457:169 5.37866e-07
8 *259:10 *471:74 5.52807e-07
9 *105:14 *259:10 5.79724e-07
*RES
1 *698:Y *259:10 49.5168 
2 *259:10 *699:B 35.4697 
*END

*D_NET *260 0.000123777
*CONN
*I *700:C I *D AO221x2_ASAP7_75t_SL
*I *699:Y O *D AO21x1_ASAP7_75t_SL
*CAP
1 *700:C 1.48955e-05
2 *699:Y 1.62078e-05
3 *260:10 3.11033e-05
4 *700:C *700:B2 3.68287e-06
5 *700:C *702:B 3.48165e-06
6 *700:C *702:C 1.32074e-05
7 *700:C *350:35 2.28976e-06
8 *260:10 *374:12 1.63973e-05
9 *260:10 *471:74 1.12894e-06
10 *260:10 *471:85 1.908e-06
11 *259:10 *260:10 1.94746e-05
*RES
1 *699:Y *260:10 45.9147 
2 *260:10 *700:C 44.5617 
*END

*D_NET *261 0.000356685
*CONN
*I *740:C2 I *D OA222x2_ASAP7_75t_SL
*I *704:A1 I *D AO221x2_ASAP7_75t_SL
*I *701:Y O *D INVx1_ASAP7_75t_SL
*CAP
1 *740:C2 0
2 *704:A1 1.88882e-06
3 *701:Y 1.06913e-05
4 *261:37 9.48138e-06
5 *261:22 2.89942e-05
6 *261:14 6.9576e-05
7 *261:8 4.36806e-05
8 *704:A1 *451:26 1.35684e-06
9 *261:8 *701:A 2.66797e-07
10 *261:8 *471:120 1.39174e-05
11 *261:8 *483:78 3.83162e-05
12 *261:14 *741:B1 9.07661e-06
13 *261:14 *373:10 1.49407e-08
14 *261:14 *452:24 3.16625e-06
15 *261:14 *457:202 1.49407e-08
16 *261:14 *471:114 0
17 *261:14 *483:80 4.67317e-05
18 *261:14 *483:86 1.06368e-05
19 *261:22 *740:B1 4.7691e-06
20 *261:22 *359:28 2.54626e-07
21 *261:22 *374:12 1.49407e-08
22 *261:22 *451:26 2.70055e-06
23 *261:22 *471:104 2.48612e-05
24 *261:22 *480:99 1.02359e-06
25 *261:22 *483:86 6.63982e-06
26 *261:22 *483:88 1.60454e-05
27 *261:37 *471:108 6.53938e-06
28 *261:37 *480:110 2.68255e-06
29 *149:50 *261:14 3.34248e-06
*RES
1 *701:Y *261:8 46.701 
2 *261:8 *261:14 41.4196 
3 *261:14 *261:22 49.8674 
4 *261:22 *704:A1 18.2696 
5 *261:14 *261:37 40.7807 
6 *261:37 *740:C2 17.2 
*END

*D_NET *262 7.38413e-05
*CONN
*I *703:B I *D AO21x1_ASAP7_75t_SL
*I *702:Y O *D AND3x1_ASAP7_75t_SL
*CAP
1 *703:B 0
2 *702:Y 2.8527e-05
3 *262:10 2.8527e-05
4 *262:10 *702:B 1.47193e-05
5 *262:10 *350:22 5.0551e-07
6 *262:10 *360:10 1.18898e-06
7 *262:10 *457:169 0
8 *262:10 *471:85 3.73518e-07
*RES
1 *702:Y *262:10 47.9974 
2 *262:10 *703:B 34.4 
*END

*D_NET *263 6.56024e-05
*CONN
*I *704:C I *D AO221x2_ASAP7_75t_SL
*I *703:Y O *D AO21x1_ASAP7_75t_SL
*CAP
1 *704:C 0
2 *703:Y 1.88593e-05
3 *263:10 1.88593e-05
4 *263:10 *702:B 7.63678e-06
5 *263:10 *704:B1 4.41457e-06
6 *263:10 *704:B2 7.80516e-06
7 *263:10 *457:163 0
8 *263:10 *483:88 8.02718e-06
*RES
1 *703:Y *263:10 44.7034 
2 *263:10 *704:C 34.4 
*END

*D_NET *264 0.00012432
*CONN
*I *707:A1 I *D AO221x2_ASAP7_75t_SL
*I *741:C2 I *D OA222x2_ASAP7_75t_SL
*I *705:Y O *D INVx1_ASAP7_75t_SL
*CAP
1 *707:A1 0
2 *741:C2 0
3 *705:Y 1.74731e-05
4 *264:22 1.40857e-05
5 *264:14 2.61636e-05
6 *264:10 2.9551e-05
7 *264:10 *266:10 0
8 *264:10 *464:8 9.11384e-07
9 *264:14 *266:10 6.7842e-07
10 *264:14 *452:24 9.59239e-06
11 *264:22 *352:33 0
12 *264:22 *464:8 5.97629e-07
13 *707:A2 *264:14 1.44167e-06
14 *101:10 *264:22 5.0551e-07
15 *146:72 *264:10 3.05118e-08
16 *146:80 *264:10 1.72991e-05
17 *213:96 *264:22 5.35706e-06
18 *213:98 *264:22 6.33206e-07
*RES
1 *705:Y *264:10 44.2252 
2 *264:10 *264:14 26.292 
3 *264:14 *264:22 43.2973 
4 *264:22 *741:C2 17.2 
5 *264:14 *707:A1 17.2 
*END

*D_NET *265 3.27517e-05
*CONN
*I *707:C I *D AO221x2_ASAP7_75t_SL
*I *706:Y O *D AO21x1_ASAP7_75t_SL
*CAP
1 *707:C 1.30223e-05
2 *706:Y 1.30223e-05
3 *707:C *707:B1 3.46317e-06
4 *707:C *452:24 1.0391e-06
5 *707:B2 *707:C 2.20493e-06
*RES
1 *706:Y *707:C 41.8876 
*END

*D_NET *266 5.17766e-05
*CONN
*I *708:B I *D OA21x2_ASAP7_75t_SL
*I *707:Y O *D AO221x2_ASAP7_75t_SL
*CAP
1 *708:B 0
2 *707:Y 1.43636e-05
3 *266:10 1.43636e-05
4 *266:10 *705:A 1.52651e-06
5 *266:10 *452:18 0
6 *266:10 *463:10 1.6414e-05
7 *146:80 *266:10 4.43048e-06
8 *264:10 *266:10 0
9 *264:14 *266:10 6.7842e-07
*RES
1 *707:Y *266:10 43.7754 
2 *266:10 *708:B 34.4 
*END

*D_NET *267 5.90235e-05
*CONN
*I *713:B1 I *D OA22x2_ASAP7_75t_SL
*I *709:Y O *D NOR2x1_ASAP7_75t_SL
*CAP
1 *713:B1 1.71358e-05
2 *709:Y 5.12131e-06
3 *267:8 2.22571e-05
4 *267:8 *269:8 1.8616e-06
5 *267:8 *457:99 1.26478e-05
*RES
1 *709:Y *267:8 38.9053 
2 *267:8 *713:B1 41.3527 
*END

*D_NET *268 0.000112243
*CONN
*I *711:B I *D NOR2x1_ASAP7_75t_SL
*I *710:Y O *D OA21x2_ASAP7_75t_SL
*CAP
1 *711:B 0
2 *710:Y 1.03293e-05
3 *268:12 3.05168e-05
4 *268:8 4.08461e-05
5 *268:8 *455:27 0
6 *268:8 *483:158 4.8639e-07
7 *268:12 *797:CLK 5.51397e-07
8 *268:12 *457:99 9.07421e-06
9 *232:44 *268:8 7.86436e-06
10 *232:52 *268:12 1.25743e-05
*RES
1 *710:Y *268:8 41.158 
2 *268:8 *268:12 35.384 
3 *268:12 *711:B 17.2 
*END

*D_NET *269 0.000256021
*CONN
*I *712:C I *D AO221x2_ASAP7_75t_SL
*I *711:Y O *D NOR2x1_ASAP7_75t_SL
*CAP
1 *712:C 1.13576e-05
2 *711:Y 0
3 *269:16 2.26903e-05
4 *269:8 6.27681e-05
5 *269:6 5.14354e-05
6 *712:C *712:A1 2.12481e-06
7 *712:C *712:A2 3.68287e-06
8 *712:C *457:124 3.39742e-05
9 *712:C *457:141 7.63254e-07
10 *269:8 *754:A 1.34257e-05
11 *269:8 *270:10 0
12 *269:8 *300:10 1.31716e-05
13 *269:8 *422:8 3.16603e-06
14 *269:8 *457:99 2.74173e-06
15 *269:8 *457:112 5.47821e-07
16 *269:8 *457:118 2.19629e-06
17 *269:16 *457:118 1.18128e-05
18 *48:8 *269:16 0
19 *113:10 *269:8 0
20 *113:14 *712:C 1.32074e-05
21 *113:14 *269:16 5.09299e-06
22 *267:8 *269:8 1.8616e-06
*RES
1 *711:Y *269:6 34.4 
2 *269:6 *269:8 37.169 
3 *269:8 *269:16 42.0859 
4 *269:16 *712:C 46.1661 
*END

*D_NET *270 0.000138239
*CONN
*I *713:B2 I *D OA22x2_ASAP7_75t_SL
*I *712:Y O *D AO221x2_ASAP7_75t_SL
*CAP
1 *713:B2 0
2 *712:Y 0
3 *270:10 1.33004e-05
4 *270:6 1.33004e-05
5 *270:10 *457:118 4.82093e-05
6 *113:10 *270:10 6.34286e-05
7 *269:8 *270:10 0
*RES
1 *712:Y *270:6 34.4 
2 *270:6 *270:10 38.6003 
3 *270:10 *713:B2 17.2 
*END

*D_NET *271 3.29114e-05
*CONN
*I *718:B1 I *D OA22x2_ASAP7_75t_SL
*I *714:Y O *D NOR2x1_ASAP7_75t_SL
*CAP
1 *718:B1 3.15456e-06
2 *714:Y 5.34191e-06
3 *271:8 8.49647e-06
4 *718:B1 *279:24 2.20493e-06
5 *271:8 *493:35 1.31643e-05
6 *714:B *271:8 5.49212e-07
*RES
1 *714:Y *271:8 38.9053 
2 *271:8 *718:B1 36.0045 
*END

*D_NET *272 0.000210073
*CONN
*I *716:B I *D NOR2x1_ASAP7_75t_SL
*I *715:Y O *D OA21x2_ASAP7_75t_SL
*CAP
1 *716:B 0
2 *715:Y 1.82908e-05
3 *272:12 2.2529e-05
4 *272:8 4.08198e-05
5 *272:8 *781:CLK 0
6 *272:12 *797:CLK 9.67723e-06
7 *272:12 *457:99 5.38447e-06
8 *272:12 *478:99 1.8826e-05
9 *272:12 *493:10 7.85973e-05
10 *715:B *272:8 3.3921e-06
11 *232:52 *272:12 1.25559e-05
*RES
1 *715:Y *272:8 41.3527 
2 *272:8 *272:12 44.232 
3 *272:12 *716:B 17.2 
*END

*D_NET *273 0.000125078
*CONN
*I *717:C I *D AO221x2_ASAP7_75t_SL
*I *716:Y O *D NOR2x1_ASAP7_75t_SL
*CAP
1 *717:C 1.40256e-05
2 *716:Y 3.42287e-05
3 *273:8 4.82543e-05
4 *717:C *717:B1 3.89037e-06
5 *717:C *375:14 0
6 *717:C *483:28 9.58449e-06
7 *717:C *483:36 0
8 *273:8 *483:28 6.15528e-07
9 *213:20 *717:C 3.51548e-06
10 *213:147 *717:C 1.09633e-05
*RES
1 *716:Y *273:8 45.6313 
2 *273:8 *717:C 44.3103 
*END

*D_NET *274 0.000200553
*CONN
*I *718:B2 I *D OA22x2_ASAP7_75t_SL
*I *717:Y O *D AO221x2_ASAP7_75t_SL
*CAP
1 *718:B2 0
2 *717:Y 8.34857e-06
3 *274:10 4.56915e-05
4 *274:8 5.40401e-05
5 *274:10 *375:14 2.98814e-07
6 *274:10 *454:12 1.46825e-05
7 *274:10 *454:25 5.34012e-05
8 *274:10 *483:18 1.48196e-05
9 *274:10 *493:33 4.9137e-07
10 *274:10 *493:35 3.21821e-06
11 *103:14 *274:10 2.92053e-06
12 *213:12 *274:8 2.6409e-06
*RES
1 *717:Y *274:8 38.1438 
2 *274:8 *274:10 38.2953 
3 *274:10 *718:B2 34.4 
*END

*D_NET *275 0.000444352
*CONN
*I *728:A2 I *D OA222x2_ASAP7_75t_SL
*I *719:Y O *D BUFx2_ASAP7_75t_SL
*CAP
1 *728:A2 1.43996e-05
2 *719:Y 0
3 *275:16 3.58129e-05
4 *275:10 3.75498e-05
5 *275:6 0.000136918
6 *275:4 0.000120782
7 *728:A2 *281:14 5.33881e-07
8 *728:A2 *288:37 6.7842e-07
9 *728:A2 *397:87 0
10 *728:A2 *397:95 2.47892e-06
11 *275:6 *288:10 5.51397e-07
12 *275:6 *306:13 6.86929e-06
13 *275:6 *475:20 1.66584e-05
14 *275:10 *288:10 5.03576e-06
15 *275:10 *336:106 1.64638e-05
16 *275:10 *475:10 8.06799e-07
17 *275:16 *768:CLK 2.90209e-08
18 *275:16 *281:8 8.20846e-06
19 *18:23 *275:10 1.76569e-05
20 *74:12 *275:16 1.88951e-06
21 *149:193 *275:10 1.19507e-05
22 *149:206 *275:10 8.46363e-06
23 *224:8 *728:A2 6.1473e-07
*RES
1 *719:Y *275:4 17.2 
2 *275:4 *275:6 48.6691 
3 *275:6 *275:10 38.0371 
4 *275:10 *275:16 46.701 
5 *275:16 *728:A2 43.354 
*END

*D_NET *276 0.000377505
*CONN
*I *940:A I *D BUFx3_ASAP7_75t_SL
*I *1026:A I *D BUFx6f_ASAP7_75t_SL
*I *720:Y O *D AO21x2_ASAP7_75t_SL
*CAP
1 *940:A 8.5928e-06
2 *1026:A 0
3 *720:Y 0
4 *276:27 3.00729e-05
5 *276:14 9.24187e-05
6 *276:12 0.00010353
7 *276:4 3.2591e-05
8 *276:14 *638:A1 1.00976e-05
9 *276:27 *431:25 1.25735e-05
10 *658:B *276:12 3.03042e-06
11 *720:A1 *276:14 8.61756e-06
12 *720:A2 *276:12 4.71862e-06
13 *720:A2 *276:14 1.04611e-05
14 *4:110 *276:14 1.48785e-05
15 *41:6 *940:A 2.26674e-05
16 *133:58 *276:14 2.30405e-06
17 *209:72 *276:12 8.03327e-06
18 *210:71 *276:14 0
19 *232:75 *276:27 1.29184e-05
*RES
1 *720:Y *276:4 17.2 
2 *276:4 *276:12 42.1993 
3 *276:12 *276:14 35.8333 
4 *276:14 *1026:A 17.2 
5 *276:4 *276:27 45.8581 
6 *276:27 *940:A 23.0831 
*END

*D_NET *277 0.000382966
*CONN
*I *726:A2 I *D OA222x2_ASAP7_75t_SL
*I *721:Y O *D BUFx2_ASAP7_75t_SL
*CAP
1 *726:A2 4.01465e-05
2 *721:Y 0
3 *277:20 4.21055e-05
4 *277:14 2.27848e-05
5 *277:6 8.13559e-05
6 *277:4 6.05301e-05
7 *726:A2 *726:B1 1.2768e-05
8 *726:A2 *481:53 2.90209e-08
9 *277:6 *721:A 9.9223e-06
10 *277:6 *362:6 3.58414e-05
11 *277:14 *336:97 0
12 *89:8 *726:A2 2.7707e-05
13 *149:185 *277:20 4.47696e-06
14 *218:12 *726:A2 4.39365e-05
15 *219:10 *277:6 1.36155e-06
*RES
1 *721:Y *277:4 17.2 
2 *277:4 *277:6 43.3208 
3 *277:6 *277:14 41.8107 
4 *277:14 *277:20 35.9956 
5 *277:20 *726:A2 46.6154 
*END

*D_NET *278 2.25176e-05
*CONN
*I *723:B I *D NAND2x2_ASAP7_75t_SL
*I *722:Y O *D AO21x2_ASAP7_75t_SL
*CAP
1 *723:B 0
2 *722:Y 7.16722e-06
3 *278:8 7.16722e-06
4 *278:8 *476:148 8.18318e-06
5 *141:89 *278:8 0
*RES
1 *722:Y *278:8 41.158 
2 *278:8 *723:B 34.4 
*END

*D_NET *279 0.00048887
*CONN
*I *1024:A I *D BUFx6f_ASAP7_75t_SL
*I *1023:A I *D BUFx6f_ASAP7_75t_SL
*I *1037:A I *D BUFx3_ASAP7_75t_SL
*I *723:Y O *D NAND2x2_ASAP7_75t_SL
*CAP
1 *1024:A 2.33034e-05
2 *1023:A 0
3 *1037:A 0
4 *723:Y 6.28248e-06
5 *279:24 4.95246e-05
6 *279:22 6.77645e-05
7 *279:16 7.1356e-05
8 *279:12 6.41298e-05
9 *279:8 4.05995e-05
10 *279:8 *461:20 5.52807e-07
11 *279:8 *476:148 0
12 *279:12 *461:20 2.70427e-06
13 *279:12 *476:148 0
14 *279:16 *461:16 3.97879e-05
15 *279:22 *480:8 2.22736e-06
16 *279:24 *718:A1 3.46317e-06
17 *279:24 *409:16 5.72878e-05
18 *279:24 *461:10 5.17782e-06
19 *279:24 *461:52 2.11212e-05
20 *279:24 *493:8 6.19533e-06
21 *718:B1 *279:24 2.20493e-06
22 *4:72 *279:22 0
23 *141:89 *279:8 5.49212e-07
24 *147:48 *279:22 1.36537e-05
25 *147:48 *279:24 1.03509e-05
26 *232:18 *279:12 6.33206e-07
*RES
1 *723:Y *279:8 38.9053 
2 *279:8 *279:12 26.2107 
3 *279:12 *279:16 45.5457 
4 *279:16 *279:22 32.4585 
5 *279:22 *279:24 40.6467 
6 *279:24 *1037:A 17.2 
7 *279:22 *1023:A 17.2 
8 *279:8 *1024:A 42.9572 
*END

*D_NET *280 0.000429825
*CONN
*I *725:A2 I *D OA222x2_ASAP7_75t_SL
*I *724:Y O *D BUFx2_ASAP7_75t_SL
*CAP
1 *725:A2 7.92206e-06
2 *724:Y 0
3 *280:8 0.000133933
4 *280:6 0.000126011
5 *725:A2 *725:A1 7.35354e-06
6 *725:A2 *397:55 7.58265e-07
7 *280:8 *923:A 0
8 *280:8 *302:8 1.79773e-05
9 *280:8 *380:10 0
10 *280:8 *477:47 2.35559e-05
11 *5:22 *280:8 2.41931e-06
12 *146:161 *280:8 7.99346e-05
13 *208:10 *280:8 2.99609e-05
*RES
1 *724:Y *280:6 34.4 
2 *280:6 *280:8 114.323 
3 *280:8 *725:A2 39.2134 
*END

*D_NET *281 0.00014168
*CONN
*I *728:C2 I *D OA222x2_ASAP7_75t_SL
*I *727:Y O *D INVx1_ASAP7_75t_SL
*CAP
1 *728:C2 0
2 *727:Y 1.96512e-05
3 *281:14 2.45084e-05
4 *281:8 4.41596e-05
5 *281:14 *728:C1 1.46952e-05
6 *281:14 *397:95 2.47892e-06
7 *281:14 *456:106 1.98419e-05
8 *655:B1 *281:14 5.63702e-07
9 *728:A2 *281:14 5.33881e-07
10 *37:22 *281:8 2.92476e-07
11 *74:12 *281:14 5.73634e-06
12 *149:185 *281:14 1.01031e-06
13 *275:16 *281:8 8.20846e-06
*RES
1 *727:Y *281:8 43.492 
2 *281:8 *281:14 36.0642 
3 *281:14 *728:C2 17.2 
*END

*D_NET *282 3.85868e-05
*CONN
*I *731:C2 I *D OA222x2_ASAP7_75t_SL
*I *730:Y O *D INVx1_ASAP7_75t_SL
*CAP
1 *731:C2 2.8053e-06
2 *730:Y 1.31044e-05
3 *282:8 1.59097e-05
4 *731:C2 *731:C1 2.96818e-06
5 *282:8 *397:110 0
6 *282:8 *470:10 3.79923e-06
7 *31:22 *282:8 0
8 *42:10 *282:8 0
*RES
1 *730:Y *282:8 42.2843 
2 *282:8 *731:C2 36.5393 
*END

*D_NET *283 0.000119445
*CONN
*I *736:C2 I *D OA222x2_ASAP7_75t_SL
*I *735:Y O *D INVx1_ASAP7_75t_SL
*CAP
1 *736:C2 0
2 *735:Y 0
3 *283:10 1.88105e-05
4 *283:6 1.88105e-05
5 *283:10 *736:B2 0
6 *283:10 *476:46 1.49407e-08
7 *283:10 *493:43 6.39706e-05
8 *64:12 *283:10 1.78389e-05
*RES
1 *735:Y *283:6 34.4 
2 *283:6 *283:10 38.6003 
3 *283:10 *736:C2 17.2 
*END

*D_NET *284 5.79702e-05
*CONN
*I *743:C2 I *D OA222x2_ASAP7_75t_SL
*I *742:Y O *D INVx1_ASAP7_75t_SL
*CAP
1 *743:C2 2.45339e-06
2 *742:Y 1.27185e-05
3 *284:10 1.51719e-05
4 *743:C2 *459:12 1.10364e-05
5 *743:C2 *462:26 7.58265e-07
6 *743:C2 *493:22 1.44167e-06
7 *284:10 *459:12 6.29754e-06
8 *284:10 *462:26 6.78445e-06
9 *284:10 *493:22 1.30795e-06
*RES
1 *742:Y *284:10 44.7034 
2 *284:10 *743:C2 37.609 
*END

*D_NET *285 0.000261894
*CONN
*I *745:C2 I *D OA222x2_ASAP7_75t_SL
*I *744:Y O *D INVx1_ASAP7_75t_SL
*CAP
1 *745:C2 9.86472e-06
2 *744:Y 7.7248e-06
3 *285:10 6.31409e-05
4 *285:8 6.10009e-05
5 *285:8 *461:16 5.17782e-06
6 *285:10 *301:10 2.31419e-05
7 *285:10 *301:25 5.7567e-05
8 *285:10 *437:79 1.49407e-08
9 *285:10 *480:8 0
10 *4:110 *745:C2 7.61899e-06
11 *4:116 *745:C2 7.9646e-06
12 *43:12 *285:10 0
13 *43:21 *285:10 0
14 *103:8 *745:C2 3.04311e-07
15 *146:8 *285:10 1.8373e-05
*RES
1 *744:Y *285:8 38.1438 
2 *285:8 *285:10 41.6743 
3 *285:10 *745:C2 40.8179 
*END

*D_NET *286 0.000867311
*CONN
*P clk I
*I *1022:A I *D BUFx4_ASAP7_75t_SL
*CAP
1 clk 0.000332968
2 *1022:A 1.62651e-06
3 *286:18 6.08147e-06
4 *286:10 9.75977e-05
5 *286:8 9.31427e-05
6 *286:6 0.000332968
7 *1022:A *335:25 1.52651e-06
8 *286:6 *419:32 0
9 *286:18 *335:21 1.39984e-06
*RES
1 clk *286:6 133.542 
2 *286:6 *286:8 11.8 
3 *286:8 *286:10 45.1283 
4 *286:10 *286:18 30.44 
5 *286:18 *1022:A 35.4697 
*END

*D_NET *287 0.000404818
*CONN
*I *752:A I *D HAxp5_ASAP7_75t_SL
*I *726:B2 I *D OA222x2_ASAP7_75t_SL
*I *650:A1 I *D OA21x2_ASAP7_75t_SL
*I *635:Y O *D INVx1_ASAP7_75t_SL
*CAP
1 *752:A 0
2 *726:B2 1.32641e-06
3 *650:A1 8.05747e-06
4 *635:Y 0
5 *287:40 1.45136e-05
6 *287:32 4.26079e-05
7 *287:17 3.96082e-05
8 *287:6 7.94904e-05
9 *287:4 6.12455e-05
10 *726:B2 *726:B1 3.89037e-06
11 *287:6 *767:CLK 2.81586e-05
12 *287:6 *336:93 3.02913e-05
13 *287:17 *456:16 6.6421e-06
14 *287:17 *477:58 5.52807e-07
15 *287:32 *456:16 1.09533e-05
16 *287:32 *472:14 8.75305e-06
17 *287:32 *477:71 1.09067e-06
18 *287:32 *477:77 1.23862e-05
19 *287:32 *477:92 6.63277e-06
20 *287:40 *397:22 1.43515e-05
21 *287:40 *472:22 1.13518e-05
22 *287:40 *477:77 2.46296e-06
23 *635:A *287:6 1.26378e-06
24 *650:A2 *650:A1 2.6409e-06
25 *752:B *287:40 6.1473e-07
26 *767:D *287:6 2.79435e-06
27 *40:18 *726:B2 1.36155e-06
28 *40:29 *287:40 2.49851e-06
29 *41:6 *287:40 4.18905e-06
30 *220:14 *287:6 5.08828e-06
*RES
1 *635:Y *287:4 17.2 
2 *287:4 *287:6 42.786 
3 *287:6 *650:A1 22.0134 
4 *287:6 *287:17 23.958 
5 *287:17 *726:B2 35.4697 
6 *287:17 *287:32 39.5813 
7 *287:32 *287:40 46.0281 
8 *287:40 *752:A 17.2 
*END

*D_NET *288 0.000332757
*CONN
*I *728:B2 I *D OA222x2_ASAP7_75t_SL
*I *751:A I *D HAxp5_ASAP7_75t_SL
*I *634:Y O *D INVx1_ASAP7_75t_SL
*CAP
1 *728:B2 0
2 *751:A 1.59023e-05
3 *634:Y 1.66625e-05
4 *288:37 1.31738e-05
5 *288:20 3.81916e-05
6 *288:16 1.83795e-05
7 *288:10 2.59264e-05
8 *751:A *477:104 2.40363e-05
9 *751:A *477:162 3.39742e-05
10 *751:A *481:61 1.44639e-06
11 *288:10 *475:10 3.47607e-06
12 *288:10 *475:20 3.56648e-06
13 *288:16 *363:20 5.21689e-05
14 *288:20 *481:74 0
15 *288:37 *477:162 7.31297e-06
16 *288:37 *481:61 1.44167e-06
17 *655:B1 *288:37 7.60413e-06
18 *728:A2 *288:37 6.7842e-07
19 *74:12 *288:20 0
20 *149:206 *288:10 5.49212e-07
21 *149:206 *288:16 1.2768e-05
22 *221:10 *288:20 1.66514e-05
23 *222:8 *751:A 1.09492e-05
24 *224:8 *288:37 6.02341e-06
25 *233:12 *288:16 1.62873e-05
26 *275:6 *288:10 5.51397e-07
27 *275:10 *288:10 5.03576e-06
*RES
1 *634:Y *288:10 46.0281 
2 *288:10 *288:16 49.9099 
3 *288:16 *288:20 25.0843 
4 *288:20 *751:A 34.8492 
5 *288:20 *288:37 45.4933 
6 *288:37 *728:B2 17.2 
*END

*D_NET *289 0.000156553
*CONN
*I *750:B I *D HAxp5_ASAP7_75t_SL
*I *990:A I *D BUFx3_ASAP7_75t_SL
*I *633:Y O *D INVx1_ASAP7_75t_SL
*CAP
1 *750:B 0
2 *990:A 1.52972e-05
3 *633:Y 0
4 *289:23 2.50902e-05
5 *289:6 4.03874e-05
6 *990:A *458:159 6.53466e-06
7 *750:A *289:23 6.29754e-06
8 *17:10 *990:A 5.53723e-06
9 *34:18 *990:A 7.43024e-06
10 *34:18 *289:23 1.67815e-06
11 *35:8 *289:23 9.08513e-06
12 *40:29 *289:23 0
13 *135:6 *289:23 3.05232e-05
14 *210:77 *990:A 5.33565e-06
15 *210:77 *289:23 3.3563e-06
*RES
1 *633:Y *289:6 34.4 
2 *289:6 *990:A 49.3504 
3 *289:6 *289:23 39.5246 
4 *289:23 *750:B 17.2 
*END

*D_NET *290 0.000415197
*CONN
*I *749:B I *D HAxp5_ASAP7_75t_SL
*I *731:B2 I *D OA222x2_ASAP7_75t_SL
*I *632:Y O *D INVx1_ASAP7_75t_SL
*CAP
1 *749:B 0
2 *731:B2 1.38648e-05
3 *632:Y 6.86641e-07
4 *290:31 1.70221e-05
5 *290:14 3.0887e-05
6 *290:12 4.04367e-05
7 *290:8 4.11233e-05
8 *731:B2 *397:127 7.15974e-07
9 *290:8 *732:A1 1.23321e-06
10 *290:12 *291:24 0
11 *290:12 *340:14 0
12 *290:12 *397:141 8.70997e-06
13 *290:12 *484:22 0
14 *290:31 *427:42 2.66508e-05
15 *290:31 *427:50 2.69203e-06
16 *16:14 *290:12 0.000106889
17 *28:33 *290:8 3.04043e-06
18 *31:14 *290:12 3.62796e-06
19 *31:22 *731:B2 4.57677e-07
20 *31:31 *731:B2 5.01362e-06
21 *31:31 *290:31 1.80596e-06
22 *32:14 *290:31 2.03526e-06
23 *35:10 *731:B2 7.73798e-06
24 *35:16 *731:B2 2.03526e-06
25 *35:33 *290:31 1.49407e-08
26 *36:24 *731:B2 3.98745e-05
27 *36:24 *290:31 1.51399e-05
28 *139:10 *290:31 4.12973e-05
29 *214:44 *731:B2 2.20493e-06
*RES
1 *632:Y *290:8 35.4325 
2 *290:8 *290:12 38.4109 
3 *290:12 *290:14 17.2 
4 *290:14 *731:B2 49.6143 
5 *290:14 *290:31 37.8583 
6 *290:31 *749:B 17.2 
*END

*D_NET *291 0.00024266
*CONN
*I *732:B2 I *D OA222x2_ASAP7_75t_SL
*I *748:B I *D HAxp5_ASAP7_75t_SL
*I *631:Y O *D INVx1_ASAP7_75t_SL
*CAP
1 *732:B2 0
2 *748:B 0
3 *631:Y 1.75134e-05
4 *291:37 9.98013e-06
5 *291:24 2.0749e-05
6 *291:14 4.66416e-05
7 *291:10 3.3426e-05
8 *291:10 *456:88 1.49407e-08
9 *291:10 *484:10 1.63609e-05
10 *291:14 *292:29 1.9688e-06
11 *291:14 *484:22 1.08471e-05
12 *291:24 *292:29 3.73274e-06
13 *291:24 *397:141 0
14 *291:24 *456:99 4.47696e-06
15 *291:24 *484:22 1.79324e-05
16 *291:24 *488:22 1.04475e-06
17 *291:37 *733:B2 1.908e-06
18 *291:37 *292:10 4.1017e-06
19 *291:37 *292:29 3.05118e-08
20 *631:A *291:10 2.6409e-06
21 *674:A1 *291:10 3.07185e-05
22 *732:A2 *291:37 3.89037e-06
23 *1032:A *291:37 1.29983e-05
24 *16:14 *291:24 9.47507e-07
25 *28:33 *291:37 0
26 *211:18 *291:14 7.35565e-07
27 *290:12 *291:24 0
*RES
1 *631:Y *291:10 49.2175 
2 *291:10 *291:14 23.4767 
3 *291:14 *291:24 45.1754 
4 *291:24 *748:B 17.2 
5 *291:14 *291:37 42.3215 
6 *291:37 *732:B2 17.2 
*END

*D_NET *292 0.000226811
*CONN
*I *747:A I *D HAxp5_ASAP7_75t_SL
*I *733:B2 I *D OA222x2_ASAP7_75t_SL
*I *630:Y O *D INVx1_ASAP7_75t_SL
*CAP
1 *747:A 1.45851e-05
2 *733:B2 1.52496e-05
3 *630:Y 2.91575e-05
4 *292:29 2.62437e-05
5 *292:10 5.60658e-05
6 *733:B2 *732:A1 0
7 *733:B2 *397:149 7.35354e-06
8 *733:B2 *397:164 2.66394e-05
9 *747:A *732:A1 2.12481e-06
10 *292:10 *484:10 0
11 *292:10 *484:20 3.73144e-06
12 *292:10 *484:41 4.32973e-06
13 *292:10 *488:10 0
14 *27:8 *747:A 2.70479e-05
15 *28:33 *733:B2 0
16 *150:18 *733:B2 0
17 *150:18 *292:29 0
18 *211:18 *733:B2 2.5412e-06
19 *291:14 *292:29 1.9688e-06
20 *291:24 *292:29 3.73274e-06
21 *291:37 *733:B2 1.908e-06
22 *291:37 *292:10 4.1017e-06
23 *291:37 *292:29 3.05118e-08
*RES
1 *630:Y *292:10 49.5363 
2 *292:10 *733:B2 47.8115 
3 *292:10 *292:29 39.2996 
4 *292:29 *747:A 45.6313 
*END

*D_NET *293 0.000417376
*CONN
*I *761:A I *D HAxp5_ASAP7_75t_SL
*I *734:B2 I *D OA222x2_ASAP7_75t_SL
*I *681:B I *D AND3x1_ASAP7_75t_SL
*I *629:Y O *D INVx1_ASAP7_75t_SL
*CAP
1 *761:A 0
2 *734:B2 1.00836e-06
3 *681:B 0
4 *629:Y 2.56499e-05
5 *293:58 1.7249e-05
6 *293:43 1.26032e-05
7 *293:35 2.27511e-05
8 *293:27 3.69934e-05
9 *293:18 1.28364e-05
10 *293:14 3.60318e-05
11 *293:6 5.74335e-05
12 *734:B2 *478:21 1.36155e-06
13 *293:6 *415:10 1.41719e-05
14 *293:6 *490:10 2.0895e-06
15 *293:14 *415:10 0
16 *293:14 *476:66 5.0551e-07
17 *293:14 *490:10 0
18 *293:27 *415:20 1.12894e-06
19 *293:27 *471:155 1.25267e-05
20 *293:27 *476:66 7.02653e-06
21 *293:35 *773:CLK 2.45559e-05
22 *293:35 *415:20 3.153e-05
23 *293:35 *471:8 2.03526e-06
24 *293:35 *471:14 2.20493e-06
25 *293:43 *303:14 2.5852e-05
26 *293:58 *773:CLK 2.90773e-05
27 *293:58 *303:22 2.19482e-06
28 *293:58 *476:66 1.62612e-05
29 *293:58 *478:8 1.33022e-05
30 *734:A2 *734:B2 1.52651e-06
31 *22:28 *293:14 5.55931e-06
32 *69:8 *293:58 2.66797e-07
33 *115:10 *293:18 5.52807e-07
34 *115:10 *293:27 1.07573e-06
35 *246:10 *293:14 1.40419e-08
*RES
1 *629:Y *293:6 35.9189 
2 *293:6 *293:14 49.5735 
3 *293:14 *293:18 20.0158 
4 *293:18 *681:B 34.4 
5 *293:18 *293:27 9.01066 
6 *293:27 *293:35 47.8681 
7 *293:35 *293:43 39.949 
8 *293:43 *734:B2 35.4697 
9 *293:27 *293:58 35.1363 
10 *293:58 *761:A 17.2 
*END

*D_NET *294 0.000439095
*CONN
*I *688:A1 I *D OA22x2_ASAP7_75t_SL
*I *736:B2 I *D OA222x2_ASAP7_75t_SL
*I *760:A I *D HAxp5_ASAP7_75t_SL
*I *628:Y O *D INVx1_ASAP7_75t_SL
*CAP
1 *688:A1 0
2 *736:B2 1.58182e-05
3 *760:A 0
4 *628:Y 3.3911e-05
5 *294:41 3.20021e-05
6 *294:35 3.412e-05
7 *294:26 7.93366e-06
8 *294:18 2.74806e-05
9 *294:8 4.30954e-05
10 *294:6 3.95233e-05
11 *736:B2 *476:46 1.30746e-06
12 *294:6 *467:12 3.07765e-05
13 *294:8 *467:12 9.74424e-06
14 *294:18 *687:B1 1.04475e-06
15 *294:18 *457:56 2.32756e-05
16 *294:18 *467:12 1.711e-05
17 *294:18 *483:158 5.8198e-06
18 *294:26 *687:B1 1.99018e-05
19 *294:26 *457:56 2.95693e-06
20 *294:26 *478:92 3.16603e-06
21 *294:35 *457:232 3.32721e-06
22 *294:35 *483:158 1.34057e-05
23 *64:18 *294:18 0
24 *66:8 *294:26 5.25794e-06
25 *80:8 *294:18 9.5813e-06
26 *120:10 *736:B2 0
27 *120:10 *294:35 1.17667e-05
28 *120:18 *294:35 9.3535e-07
29 *120:18 *294:41 1.70303e-06
30 *146:104 *294:35 8.3257e-06
31 *213:42 *294:35 1.50458e-05
32 *213:50 *294:35 1.60944e-05
33 *250:12 *294:35 2.95706e-06
34 *250:20 *294:35 1.70708e-06
35 *283:10 *736:B2 0
*RES
1 *628:Y *294:6 36.9885 
2 *294:6 *294:8 3.20895 
3 *294:8 *294:18 49.7719 
4 *294:18 *294:26 43.0989 
5 *294:26 *760:A 17.2 
6 *294:8 *294:35 36.9108 
7 *294:35 *294:41 42.4224 
8 *294:41 *736:B2 44.4236 
9 *294:6 *688:A1 17.2 
*END

*D_NET *295 0.000111639
*CONN
*I *991:A I *D BUFx3_ASAP7_75t_SL
*I *759:A I *D HAxp5_ASAP7_75t_SL
*I *627:Y O *D INVx1_ASAP7_75t_SL
*CAP
1 *991:A 2.01359e-05
2 *759:A 0
3 *627:Y 2.64677e-05
4 *295:10 4.66036e-05
5 *991:A *448:6 1.21211e-05
6 *991:A *460:8 0
7 *627:A *295:10 0
8 *759:B *991:A 2.35211e-06
9 *759:B *295:10 3.95845e-06
*RES
1 *627:Y *295:10 46.871 
2 *295:10 *759:A 34.4 
3 *295:10 *991:A 49.6302 
*END

*D_NET *296 0.000256824
*CONN
*I *758:A I *D HAxp5_ASAP7_75t_SL
*I *992:A I *D BUFx3_ASAP7_75t_SL
*I *626:Y O *D INVx1_ASAP7_75t_SL
*CAP
1 *758:A 3.67419e-06
2 *992:A 0
3 *626:Y 0
4 *296:14 3.35306e-05
5 *296:8 6.5356e-05
6 *296:4 3.54996e-05
7 *758:A *480:44 8.65792e-06
8 *296:8 *480:44 6.10326e-05
9 *296:14 *449:8 3.30856e-06
10 *82:8 *296:14 2.83874e-07
11 *146:48 *296:14 3.56177e-06
12 *146:52 *296:14 1.21437e-05
13 *149:50 *296:14 2.89455e-05
14 *255:14 *296:14 8.29794e-07
*RES
1 *626:Y *296:4 17.2 
2 *296:4 *296:8 35.9189 
3 *296:8 *296:14 46.9061 
4 *296:14 *992:A 17.2 
5 *296:4 *758:A 19.8741 
*END

*D_NET *297 0.000195628
*CONN
*I *993:A I *D BUFx3_ASAP7_75t_SL
*I *757:A I *D HAxp5_ASAP7_75t_SL
*I *625:Y O *D INVx1_ASAP7_75t_SL
*CAP
1 *993:A 0
2 *757:A 3.09189e-05
3 *625:Y 8.91185e-06
4 *297:23 3.31098e-05
5 *297:8 7.29405e-05
6 *757:A *465:17 0
7 *297:8 *465:17 0
8 *297:23 *697:A 4.38832e-06
9 *297:23 *450:8 1.48206e-05
10 *757:B *757:A 4.94096e-06
11 *757:B *297:23 1.33301e-05
12 *55:10 *297:8 0
13 *146:42 *757:A 0
14 *146:42 *297:8 0
15 *146:72 *297:8 1.22671e-05
*RES
1 *625:Y *297:8 41.158 
2 *297:8 *757:A 48.4472 
3 *297:8 *297:23 39.6627 
4 *297:23 *993:A 17.2 
*END

*D_NET *298 0.000202349
*CONN
*I *756:B I *D HAxp5_ASAP7_75t_SL
*I *994:A I *D BUFx3_ASAP7_75t_SL
*I *624:Y O *D INVx1_ASAP7_75t_SL
*CAP
1 *756:B 2.22485e-05
2 *994:A 0
3 *624:Y 0
4 *298:22 1.67194e-05
5 *298:14 3.9629e-05
6 *298:4 4.51581e-05
7 *298:14 *352:33 1.12894e-06
8 *298:14 *373:10 1.35961e-06
9 *298:14 *459:60 1.25483e-05
10 *298:22 *373:10 8.06436e-06
11 *298:22 *451:10 1.07377e-06
12 *298:22 *459:60 3.78768e-05
13 *624:A *298:14 2.12481e-06
14 *1007:A *756:B 1.4417e-05
*RES
1 *624:Y *298:4 17.2 
2 *298:4 *298:14 48.054 
3 *298:14 *298:22 48.4472 
4 *298:22 *994:A 17.2 
5 *298:4 *756:B 33.7796 
*END

*D_NET *299 0.000169071
*CONN
*I *995:A I *D BUFx3_ASAP7_75t_SL
*I *755:B I *D HAxp5_ASAP7_75t_SL
*I *623:Y O *D INVx1_ASAP7_75t_SL
*CAP
1 *995:A 0
2 *755:B 5.04099e-06
3 *623:Y 2.454e-05
4 *299:25 2.52977e-05
5 *299:10 5.48787e-05
6 *299:10 *452:10 0
7 *299:25 *351:6 1.1199e-05
8 *299:25 *351:12 0
9 *299:25 *452:10 0
10 *623:A *299:10 0
11 *53:6 *299:25 4.37168e-05
12 *56:19 *299:10 1.09067e-06
13 *56:19 *299:25 1.10561e-06
14 *56:27 *299:25 2.20128e-06
*RES
1 *623:Y *299:10 46.9844 
2 *299:10 *755:B 37.0741 
3 *299:10 *299:25 40.6509 
4 *299:25 *995:A 17.2 
*END

*D_NET *300 0.000162183
*CONN
*I *754:A I *D HAxp5_ASAP7_75t_SL
*I *1036:A I *D BUFx3_ASAP7_75t_SL
*I *622:Y O *D INVx1_ASAP7_75t_SL
*CAP
1 *754:A 1.01071e-05
2 *1036:A 6.71668e-06
3 *622:Y 3.0415e-05
4 *300:10 4.72389e-05
5 *754:A *422:8 4.83862e-06
6 *754:A *422:12 9.31704e-06
7 *1036:A *422:12 5.51397e-07
8 *622:A *300:10 0
9 *47:6 *1036:A 2.6401e-05
10 *269:8 *754:A 1.34257e-05
11 *269:8 *300:10 1.31716e-05
*RES
1 *622:Y *300:10 49.067 
2 *300:10 *1036:A 42.4224 
3 *300:10 *754:A 42.1426 
*END

*D_NET *301 0.000312552
*CONN
*I *753:B I *D HAxp5_ASAP7_75t_SL
*I *997:A I *D BUFx3_ASAP7_75t_SL
*I *621:Y O *D INVx1_ASAP7_75t_SL
*CAP
1 *753:B 0
2 *997:A 4.27431e-06
3 *621:Y 2.19936e-05
4 *301:25 3.38321e-05
5 *301:10 4.39449e-05
6 *301:6 2.78321e-05
7 *997:A *454:6 1.27802e-05
8 *301:6 *409:6 1.14488e-05
9 *301:25 *439:18 7.36391e-07
10 *301:25 *483:10 8.07416e-06
11 *301:25 *485:16 0
12 *301:25 *493:33 0
13 *723:A *301:6 6.7842e-07
14 *4:91 *301:6 9.30483e-06
15 *6:6 *301:6 1.62227e-05
16 *43:21 *301:25 0
17 *133:24 *301:25 5.75259e-06
18 *141:60 *301:10 1.6338e-05
19 *141:60 *301:25 1.14525e-05
20 *213:12 *301:25 7.1772e-06
21 *285:10 *301:10 2.31419e-05
22 *285:10 *301:25 5.7567e-05
*RES
1 *621:Y *301:6 38.0582 
2 *301:6 *301:10 25.0843 
3 *301:10 *997:A 38.1438 
4 *301:10 *301:25 47.9191 
5 *301:25 *753:B 17.2 
*END

*D_NET *302 0.000276819
*CONN
*I *1035:A I *D BUFx3_ASAP7_75t_SL
*I *762:A I *D HAxp5_ASAP7_75t_SL
*I *496:Y O *D INVx1_ASAP7_75t_SL
*CAP
1 *1035:A 9.79035e-06
2 *762:A 2.83118e-06
3 *496:Y 0
4 *302:33 3.15275e-05
5 *302:25 4.19899e-05
6 *302:8 2.74613e-05
7 *302:4 4.48828e-05
8 *302:8 *339:33 6.48916e-06
9 *302:8 *477:47 1.18665e-05
10 *302:25 *645:B2 2.12481e-06
11 *302:25 *339:33 1.40419e-08
12 *302:25 *437:95 9.94583e-06
13 *302:33 *725:B1 5.62196e-06
14 *302:33 *725:C1 1.04475e-06
15 *302:33 *725:C2 2.80839e-07
16 *302:33 *455:35 3.47607e-06
17 *636:A *762:A 2.03526e-06
18 *5:22 *302:8 2.19482e-06
19 *70:10 *302:8 2.14973e-05
20 *70:18 *302:8 8.06436e-06
21 *208:10 *302:8 1.93545e-05
22 *208:25 *302:8 6.34892e-06
23 *280:8 *302:8 1.79773e-05
*RES
1 *496:Y *302:4 17.2 
2 *302:4 *302:8 45.3583 
3 *302:8 *762:A 36.0045 
4 *302:4 *302:25 43.6621 
5 *302:25 *302:33 45.2382 
6 *302:33 *1035:A 23.0831 
*END

*D_NET *303 0.000363721
*CONN
*I *746:CI I *D FAx1_ASAP7_75t_SL
*I *683:A1 I *D AO221x2_ASAP7_75t_SL
*I *734:C2 I *D OA222x2_ASAP7_75t_SL
*I *495:Y O *D INVx1_ASAP7_75t_SL
*CAP
1 *746:CI 5.32567e-06
2 *683:A1 3.31021e-06
3 *734:C2 0
4 *495:Y 1.25222e-05
5 *303:41 9.3743e-06
6 *303:33 2.02449e-05
7 *303:29 3.25998e-05
8 *303:22 2.88617e-06
9 *303:14 3.37948e-05
10 *303:10 3.03375e-05
11 *683:A1 *683:A2 7.58545e-06
12 *746:CI *346:8 1.68784e-06
13 *746:CI *476:50 4.98688e-07
14 *746:CI *483:162 1.17191e-05
15 *303:10 *734:A1 9.13939e-06
16 *303:10 *478:21 0
17 *303:10 *483:170 0
18 *303:14 *483:162 2.42051e-05
19 *303:22 *734:C1 2.03526e-06
20 *303:22 *476:66 2.19482e-06
21 *303:29 *476:50 9.10106e-07
22 *303:29 *483:162 3.36978e-05
23 *303:33 *476:54 2.84374e-06
24 *303:33 *476:77 8.21855e-06
25 *303:33 *493:68 1.07368e-06
26 *303:41 *683:A2 9.75645e-06
27 *303:41 *346:16 9.52454e-06
28 *734:A2 *303:22 5.62196e-06
29 *22:22 *746:CI 1.68784e-06
30 *22:22 *303:33 2.58414e-05
31 *24:8 *303:33 2.32117e-06
32 *24:14 *303:33 1.66514e-05
33 *24:14 *303:41 8.06436e-06
34 *247:10 *303:33 0
35 *293:43 *303:14 2.5852e-05
36 *293:58 *303:22 2.19482e-06
*RES
1 *495:Y *303:10 41.2412 
2 *303:10 *303:14 25.4246 
3 *303:14 *303:22 36.8492 
4 *303:22 *734:C2 17.2 
5 *303:14 *303:29 6.2767 
6 *303:29 *303:33 33.2502 
7 *303:33 *303:41 39.89 
8 *303:41 *683:A1 36.5393 
9 *303:29 *746:CI 38.1887 
*END

*D_NET *304 0.000151158
*CONN
*P req_msg[0] I
*I *724:A I *D BUFx2_ASAP7_75t_SL
*CAP
1 req_msg[0] 4.18137e-05
2 *724:A 0
3 *304:13 3.37653e-05
4 *304:9 7.55789e-05
5 *304:9 resp_msg[0] 0
6 *304:13 *380:10 0
*RES
1 req_msg[0] *304:9 33.9487 
2 *304:9 *304:13 44.5135 
3 *304:13 *724:A 34.4 
*END

*D_NET *305 0.000389739
*CONN
*P req_msg[10] I
*I *721:A I *D BUFx2_ASAP7_75t_SL
*CAP
1 req_msg[10] 3.25455e-05
2 *721:A 9.24645e-06
3 *305:19 1.28858e-05
4 *305:13 3.87731e-05
5 *305:9 6.76793e-05
6 *721:A *322:29 1.04475e-06
7 *721:A *362:6 3.98264e-05
8 *305:9 resp_msg[10] 5.26779e-05
9 *305:9 *322:7 7.95093e-05
10 *305:9 *322:13 5.26713e-06
11 *305:13 *322:13 3.73146e-05
12 *305:19 *322:21 1.45047e-06
13 *305:19 *322:29 1.5963e-06
14 *277:6 *721:A 9.9223e-06
*RES
1 req_msg[10] *305:9 47.8237 
2 *305:9 *305:13 46.6154 
3 *305:13 *305:19 37.2158 
4 *305:19 *721:A 30.5706 
*END

*D_NET *306 0.000387695
*CONN
*P req_msg[11] I
*I *719:A I *D BUFx2_ASAP7_75t_SL
*CAP
1 req_msg[11] 6.0618e-05
2 *719:A 0
3 *306:13 2.20537e-05
4 *306:11 2.92563e-05
5 *306:7 6.78206e-05
6 *306:7 resp_msg[12] 5.21548e-05
7 *306:11 *363:8 1.33834e-05
8 *306:13 *926:A 2.6401e-05
9 *306:13 *363:12 8.85305e-05
10 *306:13 *383:6 2.06079e-05
11 *275:6 *306:13 6.86929e-06
*RES
1 req_msg[11] *306:7 49.2869 
2 *306:7 *306:11 23.1132 
3 *306:11 *306:13 33.694 
4 *306:13 *719:A 17.2 
*END

*D_NET *307 0.000166082
*CONN
*P req_msg[12] I
*I *643:A I *D BUFx2_ASAP7_75t_SL
*CAP
1 req_msg[12] 3.72215e-05
2 *643:A 0
3 *307:13 1.34736e-05
4 *307:9 5.0695e-05
5 *307:9 resp_val 2.61375e-05
6 *307:9 *337:9 0
7 *307:13 *324:13 2.41528e-05
8 *307:13 *396:8 1.44012e-05
*RES
1 req_msg[12] *307:9 33.7323 
2 *307:9 *307:13 36.0661 
3 *307:13 *643:A 34.4 
*END

*D_NET *308 0.000165344
*CONN
*P req_msg[13] I
*I *642:A I *D BUFx2_ASAP7_75t_SL
*CAP
1 req_msg[13] 1.32236e-05
2 *642:A 3.09751e-05
3 *308:11 4.41987e-05
4 *642:A *328:13 4.00461e-05
5 *308:11 *310:7 2.35027e-05
6 *308:11 *325:7 1.33978e-05
*RES
1 req_msg[13] *308:11 47.1477 
2 *308:11 *642:A 45.5457 
*END

*D_NET *309 0.000277456
*CONN
*P req_msg[14] I
*I *639:A I *D BUFx2_ASAP7_75t_SL
*CAP
1 req_msg[14] 1.75598e-05
2 *639:A 0
3 *309:13 6.6804e-05
4 *309:11 6.6804e-05
5 *309:9 1.75598e-05
6 *309:9 *310:7 5.21548e-05
7 *309:9 *327:9 8.32162e-08
8 *309:9 *328:9 5.47216e-05
9 *211:6 *309:13 1.76928e-06
*RES
1 req_msg[14] *309:9 37.8963 
2 *309:9 *309:11 17.2 
3 *309:11 *309:13 40.1119 
4 *309:13 *639:A 17.2 
*END

*D_NET *310 0.000294778
*CONN
*P req_msg[15] I
*I *546:A I *D BUFx2_ASAP7_75t_SL
*CAP
1 req_msg[15] 4.44407e-05
2 *546:A 0
3 *310:13 3.11401e-05
4 *310:7 7.55808e-05
5 *310:7 *325:7 0
6 *310:13 *328:13 6.7959e-05
7 *308:11 *310:7 2.35027e-05
8 *309:9 *310:7 5.21548e-05
*RES
1 req_msg[15] *310:7 44.0924 
2 *310:7 *310:13 45.0978 
3 *310:13 *546:A 17.2 
*END

*D_NET *311 0.00036783
*CONN
*P req_msg[16] I
*I *537:A I *D BUFx2_ASAP7_75t_SL
*CAP
1 req_msg[16] 2.87274e-05
2 *537:A 4.03094e-05
3 *311:19 4.46566e-05
4 *311:13 0.000111047
5 *311:11 0.0001067
6 *311:9 2.87274e-05
7 *143:6 *537:A 7.66313e-06
*RES
1 req_msg[16] *311:9 35.5793 
2 *311:9 *311:11 17.2 
3 *311:11 *311:13 73.271 
4 *311:13 *311:19 37.2158 
5 *311:19 *537:A 42.3368 
*END

*D_NET *312 0.00015948
*CONN
*P req_msg[17] I
*I *523:A I *D BUFx2_ASAP7_75t_SL
*CAP
1 req_msg[17] 4.41526e-05
2 *523:A 0
3 *312:15 7.84413e-06
4 *312:9 5.19967e-05
5 *312:9 req_rdy 2.67819e-05
6 *312:9 resp_msg[1] 2.71041e-05
7 *312:9 *315:5 0
8 *312:15 *379:8 1.60097e-06
*RES
1 req_msg[17] *312:9 40.255 
2 *312:9 *312:15 40.3132 
3 *312:15 *523:A 17.2 
*END

*D_NET *313 0.000287291
*CONN
*P req_msg[18] I
*I *514:A I *D BUFx2_ASAP7_75t_SL
*CAP
1 req_msg[18] 3.71047e-05
2 *514:A 6.18184e-06
3 *313:13 4.09055e-05
4 *313:11 7.18284e-05
5 *313:11 resp_msg[2] 1.17194e-05
6 *313:11 *326:11 2.60354e-06
7 *313:13 *388:10 0.000116661
8 *120:8 *514:A 2.86376e-07
*RES
1 req_msg[18] *313:11 48.4036 
2 *313:11 *313:13 41.3927 
3 *313:13 *514:A 37.0741 
*END

*D_NET *314 0.000172643
*CONN
*P req_msg[19] I
*I *513:A I *D BUFx2_ASAP7_75t_SL
*CAP
1 req_msg[19] 4.38868e-05
2 *513:A 0
3 *314:13 4.24349e-05
4 *314:9 8.63217e-05
5 *314:9 resp_msg[3] 0
6 *314:9 resp_msg[4] 0
*RES
1 req_msg[19] *314:9 40.5443 
2 *314:9 *314:13 38.0582 
3 *314:13 *513:A 17.2 
*END

*D_NET *315 0.000306236
*CONN
*P req_msg[1] I
*I *509:A I *D BUFx2_ASAP7_75t_SL
*CAP
1 req_msg[1] 0.000136938
2 *509:A 0
3 *315:13 1.61804e-05
4 *315:5 0.000153118
5 *315:5 req_rdy 0
6 *312:9 *315:5 0
*RES
1 req_msg[1] *315:5 62.1464 
2 *315:5 *315:13 35.7868 
3 *315:13 *509:A 34.4 
*END

*D_NET *316 0.000170541
*CONN
*P req_msg[20] I
*I *501:A I *D BUFx2_ASAP7_75t_SL
*CAP
1 req_msg[20] 5.36704e-05
2 *501:A 0
3 *316:9 5.36704e-05
4 *316:9 resp_msg[4] 6.31997e-05
5 *316:9 *330:9 0
*RES
1 req_msg[20] *316:9 44.1509 
2 *316:9 *501:A 34.4 
*END

*D_NET *317 0.000198862
*CONN
*P req_msg[21] I
*I *499:A I *D BUFx2_ASAP7_75t_SL
*CAP
1 req_msg[21] 4.24463e-05
2 *499:A 7.91817e-06
3 *317:9 5.03645e-05
4 *317:9 resp_msg[5] 2.28166e-05
5 *317:9 *319:9 1.66845e-05
6 *317:9 *331:7 5.86317e-05
7 *317:9 *331:13 0
*RES
1 req_msg[21] *317:9 49.3673 
2 *317:9 *499:A 38.1438 
*END

*D_NET *318 0.000258329
*CONN
*P req_msg[22] I
*I *497:A I *D BUFx2_ASAP7_75t_SL
*CAP
1 req_msg[22] 6.49964e-05
2 *497:A 0
3 *318:13 2.24511e-05
4 *318:9 8.74475e-05
5 *318:9 *320:7 2.10259e-05
6 *318:9 *334:5 0
7 *318:13 *372:6 6.24083e-05
*RES
1 req_msg[22] *318:9 46.5052 
2 *318:9 *318:13 34.8492 
3 *318:13 *497:A 17.2 
*END

*D_NET *319 0.000139305
*CONN
*P req_msg[23] I
*I *902:A I *D BUFx2_ASAP7_75t_SL
*CAP
1 req_msg[23] 4.86107e-05
2 *902:A 0
3 *319:9 4.86107e-05
4 *319:9 resp_msg[5] 2.28166e-05
5 *319:9 *320:17 2.58225e-06
6 *319:9 *331:7 0
7 *317:9 *319:9 1.66845e-05
*RES
1 req_msg[23] *319:9 43.8063 
2 *319:9 *902:A 34.4 
*END

*D_NET *320 0.00025553
*CONN
*P req_msg[24] I
*I *903:A I *D BUFx2_ASAP7_75t_SL
*CAP
1 req_msg[24] 7.13183e-06
2 *903:A 2.42842e-05
3 *320:17 6.09379e-05
4 *320:11 6.42713e-05
5 *320:7 3.47495e-05
6 *903:A *359:12 7.75723e-06
7 *320:7 *332:9 1.13174e-05
8 *320:11 *332:9 2.14727e-05
9 *320:17 *391:6 0
10 *318:9 *320:7 2.10259e-05
11 *319:9 *320:17 2.58225e-06
*RES
1 req_msg[24] *320:7 24.9377 
2 *320:7 *320:11 43.3872 
3 *320:11 *320:17 44.083 
4 *320:17 *903:A 46.701 
*END

*D_NET *321 0.000199126
*CONN
*P req_msg[25] I
*I *904:A I *D BUFx2_ASAP7_75t_SL
*CAP
1 req_msg[25] 3.49737e-05
2 *904:A 0
3 *321:13 4.51637e-05
4 *321:11 8.01374e-05
5 *321:11 resp_msg[9] 3.1114e-05
6 *321:11 *335:11 7.73665e-06
7 *321:13 *335:13 0
*RES
1 req_msg[25] *321:11 48.6015 
2 *321:11 *321:13 38.3891 
3 *321:13 *904:A 34.4 
*END

*D_NET *322 0.000318627
*CONN
*P req_msg[26] I
*I *905:A I *D BUFx2_ASAP7_75t_SL
*CAP
1 req_msg[26] 3.95313e-05
2 *905:A 0
3 *322:29 6.536e-06
4 *322:21 2.17718e-05
5 *322:13 5.01547e-05
6 *322:7 7.44502e-05
7 *721:A *322:29 1.04475e-06
8 *305:9 *322:7 7.95093e-05
9 *305:9 *322:13 5.26713e-06
10 *305:13 *322:13 3.73146e-05
11 *305:19 *322:21 1.45047e-06
12 *305:19 *322:29 1.5963e-06
*RES
1 req_msg[26] *322:7 46.6897 
2 *322:7 *322:13 48.0056 
3 *322:13 *322:21 39.6751 
4 *322:21 *322:29 38.9142 
5 *322:29 *905:A 17.2 
*END

*D_NET *323 0.000196451
*CONN
*P req_msg[27] I
*I *906:A I *D BUFx2_ASAP7_75t_SL
*CAP
1 req_msg[27] 2.90148e-05
2 *906:A 0
3 *323:13 4.37821e-05
4 *323:9 7.27969e-05
5 *323:9 resp_msg[11] 0
6 *323:9 resp_msg[12] 5.08573e-05
*RES
1 req_msg[27] *323:9 37.9979 
2 *323:9 *323:13 42.3368 
3 *323:13 *906:A 17.2 
*END

*D_NET *324 0.000416864
*CONN
*P req_msg[28] I
*I *907:A I *D BUFx2_ASAP7_75t_SL
*CAP
1 req_msg[28] 2.11779e-05
2 *907:A 0
3 *324:13 0.000129397
4 *324:11 0.000150575
5 *324:11 resp_val 2.77234e-05
6 *324:11 *355:11 2.46769e-05
7 *324:13 *939:A 0
8 *324:13 *396:8 0
9 *146:145 *324:13 1.1958e-05
10 *215:8 *324:13 2.72036e-05
11 *307:13 *324:13 2.41528e-05
*RES
1 req_msg[28] *324:11 43.8421 
2 *324:11 *324:13 114.417 
3 *324:13 *907:A 34.4 
*END

*D_NET *325 0.000283777
*CONN
*P req_msg[29] I
*I *908:A I *D BUFx2_ASAP7_75t_SL
*CAP
1 req_msg[29] 3.36045e-05
2 *908:A 0
3 *325:13 5.41139e-05
4 *325:11 7.73949e-05
5 *325:7 5.68855e-05
6 *325:7 resp_msg[11] 0
7 *325:11 *382:12 1.82219e-06
8 *214:8 *325:11 0
9 *214:12 *325:13 4.65585e-05
10 *308:11 *325:7 1.33978e-05
11 *310:7 *325:7 0
*RES
1 req_msg[29] *325:7 35.002 
2 *325:7 *325:11 35.5029 
3 *325:11 *325:13 42.2512 
4 *325:13 *908:A 17.2 
*END

*D_NET *326 0.000187616
*CONN
*P req_msg[2] I
*I *909:A I *D BUFx2_ASAP7_75t_SL
*CAP
1 req_msg[2] 2.06957e-05
2 *909:A 0
3 *326:13 5.65229e-05
4 *326:11 7.72186e-05
5 *326:11 resp_msg[2] 3.05748e-05
6 *326:13 *388:10 0
7 *313:11 *326:11 2.60354e-06
*RES
1 req_msg[2] *326:11 42.0483 
2 *326:11 *326:13 45.3349 
3 *326:13 *909:A 34.4 
*END

*D_NET *327 0.000247343
*CONN
*P req_msg[30] I
*I *910:A I *D BUFx2_ASAP7_75t_SL
*CAP
1 req_msg[30] 2.7965e-05
2 *910:A 0
3 *327:13 6.81322e-05
4 *327:11 6.81322e-05
5 *327:9 2.7965e-05
6 *327:9 *328:9 5.0364e-05
7 *327:13 *367:6 4.70139e-06
8 *309:9 *327:9 8.32162e-08
*RES
1 req_msg[30] *327:9 37.1454 
2 *327:9 *327:11 17.2 
3 *327:11 *327:13 42.2512 
4 *327:13 *910:A 17.2 
*END

*D_NET *328 0.000415104
*CONN
*P req_msg[31] I
*I *911:A I *D BUFx2_ASAP7_75t_SL
*CAP
1 req_msg[31] 3.51353e-05
2 *911:A 0
3 *328:21 1.10188e-05
4 *328:13 4.69698e-05
5 *328:11 3.59509e-05
6 *328:9 3.51353e-05
7 *328:21 *368:6 1.76928e-06
8 *642:A *328:13 4.00461e-05
9 *150:6 *328:13 3.13426e-06
10 *150:6 *328:21 3.29001e-05
11 *309:9 *328:9 5.47216e-05
12 *310:13 *328:13 6.7959e-05
13 *327:9 *328:9 5.0364e-05
*RES
1 req_msg[31] *328:9 49.8244 
2 *328:9 *328:11 17.2 
3 *328:11 *328:13 34.7636 
4 *328:13 *328:21 47.3775 
5 *328:21 *911:A 17.2 
*END

*D_NET *329 0.00014647
*CONN
*P req_msg[3] I
*I *912:A I *D BUFx2_ASAP7_75t_SL
*CAP
1 req_msg[3] 1.85262e-05
2 *912:A 4.85511e-05
3 *329:11 6.70772e-05
4 *329:11 resp_msg[3] 1.2316e-05
*RES
1 req_msg[3] *329:11 46.6353 
2 *329:11 *912:A 48.7547 
*END

*D_NET *330 0.000113277
*CONN
*P req_msg[4] I
*I *913:A I *D BUFx2_ASAP7_75t_SL
*CAP
1 req_msg[4] 2.74089e-05
2 *913:A 0
3 *330:13 2.92294e-05
4 *330:9 5.66383e-05
5 *316:9 *330:9 0
*RES
1 req_msg[4] *330:9 34.6915 
2 *330:9 *330:13 39.1278 
3 *330:13 *913:A 17.2 
*END

*D_NET *331 0.000238467
*CONN
*P req_msg[5] I
*I *914:A I *D BUFx2_ASAP7_75t_SL
*CAP
1 req_msg[5] 4.77148e-05
2 *914:A 0
3 *331:13 3.9458e-05
4 *331:7 8.71728e-05
5 *105:6 *331:13 5.4895e-06
6 *317:9 *331:7 5.86317e-05
7 *317:9 *331:13 0
8 *319:9 *331:7 0
*RES
1 req_msg[5] *331:7 43.1185 
2 *331:7 *331:13 40.6704 
3 *331:13 *914:A 17.2 
*END

*D_NET *332 0.000153337
*CONN
*P req_msg[6] I
*I *915:A I *D BUFx2_ASAP7_75t_SL
*CAP
1 req_msg[6] 2.1307e-05
2 *915:A 0
3 *332:13 2.75582e-05
4 *332:9 4.88651e-05
5 *332:9 *334:5 2.28166e-05
6 *320:7 *332:9 1.13174e-05
7 *320:11 *332:9 2.14727e-05
*RES
1 req_msg[6] *332:9 38.6337 
2 *332:9 *332:13 39.1278 
3 *332:13 *915:A 17.2 
*END

*D_NET *333 0.000126695
*CONN
*P req_msg[7] I
*I *916:A I *D BUFx2_ASAP7_75t_SL
*CAP
1 req_msg[7] 4.17307e-05
2 *916:A 1.02086e-05
3 *333:9 5.19392e-05
4 *333:9 resp_msg[6] 2.28166e-05
5 *333:9 *334:5 0
*RES
1 req_msg[7] *333:9 41.2952 
2 *333:9 *916:A 39.2134 
*END

*D_NET *334 0.000259514
*CONN
*P req_msg[8] I
*I *917:A I *D BUFx2_ASAP7_75t_SL
*CAP
1 req_msg[8] 8.45349e-05
2 *917:A 0
3 *334:9 3.38138e-05
4 *334:5 0.000118349
5 *334:9 *351:20 0
6 *334:9 *372:12 0
7 *318:9 *334:5 0
8 *332:9 *334:5 2.28166e-05
9 *333:9 *334:5 0
*RES
1 req_msg[8] *334:5 35.0088 
2 *334:5 *334:9 41.6977 
3 *334:9 *917:A 34.4 
*END

*D_NET *335 0.00102127
*CONN
*P req_msg[9] I
*I *918:A I *D BUFx2_ASAP7_75t_SL
*CAP
1 req_msg[9] 1.88659e-05
2 *918:A 0
3 *335:25 2.23721e-05
4 *335:21 0.000131304
5 *335:19 0.000116896
6 *335:13 0.000145609
7 *335:11 0.000156511
8 *335:11 resp_msg[9] 1.16554e-05
9 *335:13 *354:10 9.79818e-05
10 *335:13 *361:10 0
11 *335:13 *395:8 0
12 *335:13 *405:10 6.5231e-05
13 *335:21 *968:A 2.19685e-06
14 *335:21 *969:A 2.18135e-06
15 *335:21 *354:10 0
16 *335:21 *354:23 0
17 *335:21 *408:33 1.12894e-06
18 *335:21 *411:8 5.00394e-06
19 *335:21 *411:21 7.75e-06
20 *335:21 *425:8 6.8919e-06
21 *335:21 *426:10 2.77657e-06
22 *335:21 *428:37 2.74606e-06
23 *335:21 *428:50 7.62403e-06
24 *335:21 *433:16 9.8079e-06
25 *335:21 *433:18 2.21123e-06
26 *335:21 *479:11 6.33206e-07
27 *335:25 *354:29 1.49302e-05
28 *335:25 *375:8 2.12481e-06
29 *527:A2 *335:21 3.3563e-06
30 *586:B *335:21 1.51765e-05
31 *949:A *335:19 6.70433e-06
32 *949:A *335:21 0
33 *1022:A *335:25 1.52651e-06
34 *39:68 *335:21 0
35 *44:10 *335:21 1.37455e-06
36 *44:23 *335:21 0
37 *121:25 *335:21 6.70508e-05
38 *124:25 *335:21 5.69885e-06
39 *126:8 *335:21 2.68658e-05
40 *173:8 *335:21 9.77825e-06
41 *176:25 *335:21 2.68658e-05
42 *177:12 *335:21 0
43 *183:12 *335:21 0
44 *183:20 *335:21 1.33022e-05
45 *286:18 *335:21 1.39984e-06
46 *321:11 *335:11 7.73665e-06
47 *321:13 *335:13 0
*RES
1 req_msg[9] *335:11 39.7735 
2 *335:11 *335:13 139.384 
3 *335:13 *335:19 40.2831 
4 *335:19 *335:21 103.059 
5 *335:21 *335:25 33.7796 
6 *335:25 *918:A 17.2 
*END

*D_NET *336 0.00226292
*CONN
*I *673:A1 I *D AO21x1_ASAP7_75t_SL
*I *678:A1 I *D AO21x1_ASAP7_75t_SL
*I *667:A1 I *D AO21x1_ASAP7_75t_SL
*I *648:A1 I *D AO21x1_ASAP7_75t_SL
*I *644:A1 I *D AO21x1_ASAP7_75t_SL
*I *663:A1 I *D OA33x2_ASAP7_75t_SL
*I *662:A1 I *D AO21x1_ASAP7_75t_SL
*I *550:A2 I *D AO221x1_ASAP7_75t_SL
*I *1000:A I *D BUFx6f_ASAP7_75t_SL
*I *498:Y O *D INVx1_ASAP7_75t_SL
*CAP
1 *673:A1 0
2 *678:A1 0
3 *667:A1 2.63551e-05
4 *648:A1 0
5 *644:A1 0
6 *663:A1 0
7 *662:A1 1.93706e-05
8 *550:A2 0
9 *1000:A 0
10 *498:Y 0
11 *336:150 2.87302e-05
12 *336:137 5.48668e-05
13 *336:135 3.29261e-05
14 *336:129 5.23348e-05
15 *336:116 3.25343e-05
16 *336:110 7.78204e-05
17 *336:108 0.000117187
18 *336:106 3.99106e-05
19 *336:97 4.7765e-05
20 *336:93 4.43732e-05
21 *336:82 1.98063e-05
22 *336:76 5.63251e-05
23 *336:74 0.000108323
24 *336:67 1.53022e-06
25 *336:61 0.000119427
26 *336:57 4.92335e-05
27 *336:46 8.6155e-05
28 *336:35 3.43456e-05
29 *336:27 2.44156e-05
30 *336:19 9.98441e-05
31 *336:12 2.3257e-05
32 *336:4 0.000105906
33 *662:A1 *364:12 5.51397e-07
34 *667:A1 *469:34 1.32074e-05
35 *336:19 *377:28 0
36 *336:27 *377:22 2.10126e-05
37 *336:27 *377:28 2.36328e-05
38 *336:27 *378:21 2.68586e-05
39 *336:35 *356:27 6.7842e-07
40 *336:35 *377:16 1.97503e-05
41 *336:46 *540:A 0
42 *336:46 *377:16 0
43 *336:57 *763:CLK 0
44 *336:57 *458:30 3.65426e-06
45 *336:57 *458:38 2.63836e-06
46 *336:57 *458:65 1.34466e-06
47 *336:57 *476:137 0
48 *336:57 *476:148 0
49 *336:57 *477:18 3.05118e-08
50 *336:67 *663:A2 6.74764e-06
51 *336:74 *397:34 2.56655e-05
52 *336:74 *458:20 4.38272e-06
53 *336:74 *458:169 0
54 *336:74 *479:46 2.42315e-07
55 *336:74 *481:12 0
56 *336:74 *481:27 0
57 *336:82 *491:8 5.37569e-06
58 *336:97 *362:14 1.32788e-06
59 *336:106 *362:14 1.5728e-06
60 *336:106 *475:20 8.33296e-06
61 *336:110 *342:12 0.000130067
62 *336:116 *342:8 1.12901e-05
63 *336:129 *342:12 6.44006e-05
64 *336:135 *363:20 3.99925e-05
65 *336:150 *673:A2 1.07377e-06
66 *543:A *336:57 3.2613e-05
67 *667:B *667:A1 1.75355e-05
68 *672:B *336:137 5.67747e-07
69 *1018:A *336:106 2.45021e-07
70 *1019:A *336:57 5.09995e-06
71 *1:10 *336:46 3.19161e-06
72 *4:45 *336:12 5.49212e-07
73 *4:51 *336:12 8.67664e-06
74 *18:23 *336:106 7.21451e-07
75 *40:12 *336:93 4.42421e-06
76 *42:10 *336:116 1.09842e-06
77 *74:12 *336:106 1.64764e-06
78 *75:10 *336:57 1.59139e-06
79 *75:18 *336:61 9.57673e-06
80 *75:18 *336:74 7.16111e-06
81 *106:10 *336:35 8.37597e-06
82 *106:18 *336:35 4.43244e-06
83 *142:18 *336:57 5.98031e-06
84 *142:18 *336:67 6.74764e-06
85 *143:12 *336:82 0
86 *145:8 *336:57 3.80659e-05
87 *146:145 *336:46 4.91471e-05
88 *146:145 *336:57 3.02222e-05
89 *148:10 *336:27 0
90 *149:174 *336:82 0
91 *149:174 *336:93 0
92 *149:174 *336:97 1.31716e-05
93 *149:185 *336:97 1.17284e-05
94 *149:185 *336:106 8.50006e-05
95 *149:193 *336:106 1.19507e-05
96 *149:206 *336:106 2.13666e-05
97 *149:206 *336:135 1.02586e-05
98 *149:214 *336:129 3.66841e-06
99 *149:218 *336:137 1.65842e-06
100 *149:226 *336:137 3.58577e-07
101 *149:226 *336:150 1.04585e-07
102 *149:239 *336:150 1.31955e-05
103 *151:8 *336:19 5.01287e-06
104 *152:8 *336:19 3.90258e-06
105 *211:6 *336:150 1.62312e-05
106 *211:12 *336:150 1.49407e-08
107 *214:18 *336:137 5.52807e-07
108 *215:8 *336:57 0
109 *216:6 *336:82 5.34278e-06
110 *219:10 *336:106 0
111 *219:18 *336:106 1.12058e-05
112 *221:10 *336:106 0
113 *233:12 *667:A1 1.36676e-05
114 *233:12 *336:135 1.27707e-05
115 *235:6 *667:A1 5.19552e-07
116 *239:8 *336:150 1.27636e-05
117 *240:6 *336:150 5.19552e-07
118 *244:10 *336:137 6.95214e-06
119 *275:10 *336:106 1.64638e-05
120 *277:14 *336:97 0
121 *287:6 *336:93 3.02913e-05
*RES
1 *498:Y *336:4 17.2 
2 *336:4 *336:12 46.3362 
3 *336:12 *1000:A 17.2 
4 *336:4 *336:19 37.9726 
5 *336:19 *336:27 49.2937 
6 *336:27 *336:35 42.2276 
7 *336:35 *550:A2 17.2 
8 *336:35 *336:46 41.0194 
9 *336:46 *662:A1 44.5617 
10 *336:46 *336:57 41.0173 
11 *336:57 *336:61 20.2301 
12 *336:61 *336:67 36.7465 
13 *336:67 *663:A1 17.2 
14 *336:61 *336:74 39.3917 
15 *336:74 *336:76 17.2 
16 *336:76 *336:82 33.2396 
17 *336:82 *644:A1 17.2 
18 *336:76 *336:93 41.5914 
19 *336:93 *336:97 25.0843 
20 *336:97 *648:A1 34.4 
21 *336:97 *336:106 43.9269 
22 *336:106 *336:108 17.2 
23 *336:108 *336:110 39.0422 
24 *336:110 *336:116 39.4685 
25 *336:116 *667:A1 35.9189 
26 *336:108 *336:129 40.9874 
27 *336:129 *336:135 45.6313 
28 *336:135 *336:137 17.4581 
29 *336:137 *678:A1 34.4 
30 *336:137 *336:150 41.6109 
31 *336:150 *673:A1 17.2 
*END

*D_NET *337 0.00029584
*CONN
*P req_val I
*I *919:A I *D BUFx2_ASAP7_75t_SL
*CAP
1 req_val 3.28215e-05
2 *919:A 0
3 *337:13 2.82273e-05
4 *337:11 2.82273e-05
5 *337:9 3.28215e-05
6 *337:9 *338:11 2.67819e-05
7 *337:9 *355:11 2.71041e-05
8 *337:13 *338:13 0.000107467
9 *337:13 *355:13 1.23889e-05
10 *307:9 *337:9 0
*RES
1 req_val *337:9 34.4898 
2 *337:9 *337:11 17.2 
3 *337:11 *337:13 35.761 
4 *337:13 *919:A 34.4 
*END

*D_NET *338 0.000365844
*CONN
*P reset I
*I *920:A I *D BUFx2_ASAP7_75t_SL
*CAP
1 reset 1.50995e-05
2 *920:A 2.95274e-06
3 *338:13 9.31435e-05
4 *338:11 0.00010529
5 *338:13 *355:13 0
6 *338:13 *355:25 1.10453e-05
7 *338:13 *376:8 4.06388e-06
8 *337:9 *338:11 2.67819e-05
9 *337:13 *338:13 0.000107467
*RES
1 reset *338:11 39.6674 
2 *338:11 *338:13 87.5723 
3 *338:13 *920:A 36.0045 
*END

*D_NET *339 0.00026116
*CONN
*I *645:B1 I *D AO221x1_ASAP7_75t_SL
*I *923:A I *D BUFx2_ASAP7_75t_SL
*I *762:SN O *D HAxp5_ASAP7_75t_SL
*CAP
1 *645:B1 0
2 *923:A 1.76438e-05
3 *762:SN 1.85741e-05
4 *339:33 9.65338e-06
5 *339:25 2.98965e-05
6 *339:8 5.6461e-05
7 *923:A *380:8 2.66797e-07
8 *762:B *923:A 1.50458e-05
9 *762:B *339:8 5.85387e-06
10 *34:8 *339:25 5.0551e-07
11 *70:18 *923:A 5.79724e-07
12 *71:8 *923:A 1.16821e-05
13 *71:8 *339:25 3.86483e-06
14 *71:16 *339:25 3.18474e-05
15 *146:180 *339:25 1.26641e-06
16 *208:25 *339:25 3.57113e-05
17 *208:25 *339:33 1.58042e-05
18 *217:14 *339:25 0
19 *280:8 *923:A 0
20 *302:8 *339:33 6.48916e-06
21 *302:25 *339:33 1.40419e-08
*RES
1 *762:SN *339:8 42.4224 
2 *339:8 *923:A 48.2808 
3 *339:8 *339:25 36.2059 
4 *339:25 *339:33 42.171 
5 *339:33 *645:B1 17.2 
*END

*D_NET *340 0.00101577
*CONN
*I *941:A I *D BUFx3_ASAP7_75t_SL
*I *649:B1 I *D AO221x1_ASAP7_75t_SL
*I *588:Y O *D XOR2x2_ASAP7_75t_SL
*CAP
1 *941:A 0
2 *649:B1 3.1336e-06
3 *588:Y 2.05417e-05
4 *340:41 7.53643e-05
5 *340:39 8.20261e-05
6 *340:33 5.5166e-05
7 *340:18 0.000118261
8 *340:16 6.66233e-05
9 *340:14 6.99754e-05
10 *340:10 9.05171e-05
11 *649:B1 *437:85 7.95161e-07
12 *649:B1 *456:16 4.96525e-06
13 *340:10 *430:10 1.09677e-05
14 *340:10 *441:41 2.98155e-05
15 *340:14 *397:141 1.43739e-05
16 *340:18 *653:B 9.83062e-07
17 *340:18 *654:B 9.18333e-06
18 *340:18 *437:85 2.83075e-06
19 *340:18 *456:16 2.37642e-05
20 *340:18 *456:34 0
21 *340:18 *477:100 2.89406e-05
22 *340:18 *477:108 0
23 *654:A *340:18 1.55813e-06
24 *1018:A *340:41 2.8275e-06
25 *28:33 *340:18 3.17441e-06
26 *31:14 *340:14 4.44257e-05
27 *37:26 *340:18 1.34466e-06
28 *38:8 *340:18 0
29 *42:14 *340:14 0.000130761
30 *214:40 *340:18 2.71126e-05
31 *218:23 *340:39 5.63702e-07
32 *219:18 *340:41 1.62312e-05
33 *219:22 *340:33 6.72571e-05
34 *219:22 *340:41 1.22837e-05
35 *220:8 *340:33 0
36 *290:12 *340:14 0
*RES
1 *588:Y *340:10 49.2566 
2 *340:10 *340:14 48.1506 
3 *340:14 *340:16 17.2 
4 *340:16 *340:18 53.0315 
5 *340:18 *649:B1 37.1591 
6 *340:18 *340:33 38.0582 
7 *340:33 *340:39 38.3422 
8 *340:39 *340:41 43.3208 
9 *340:41 *941:A 17.2 
*END

*D_NET *341 0.000665435
*CONN
*I *925:A I *D BUFx2_ASAP7_75t_SL
*I *651:B I *D NAND2x2_ASAP7_75t_SL
*I *595:Y O *D XNOR2x2_ASAP7_75t_SL
*CAP
1 *925:A 3.57884e-05
2 *651:B 9.77404e-06
3 *595:Y 7.08516e-05
4 *341:29 3.74539e-05
5 *341:23 7.39706e-05
6 *341:10 0.000137239
7 *341:8 5.51597e-05
8 *341:6 7.08516e-05
9 *651:B *484:10 0
10 *925:A *678:A2 3.68565e-06
11 *341:6 *345:6 3.6583e-05
12 *341:10 *344:14 3.6269e-06
13 *341:10 *345:10 6.62106e-06
14 *341:10 *456:64 1.19517e-05
15 *341:10 *456:70 7.20965e-06
16 *341:10 *456:88 3.27594e-05
17 *341:10 *484:41 2.36473e-05
18 *341:10 *484:58 2.53764e-05
19 *14:8 *341:10 1.34402e-05
20 *15:29 *341:10 0
21 *25:12 *651:B 2.70427e-06
22 *28:18 *341:23 6.74052e-06
23 *94:8 *651:B 0
24 *94:8 *341:10 0
25 *149:226 *341:29 0
26 *150:18 *341:23 0
27 *210:104 *341:10 0
28 *214:34 *341:23 0
29 *221:10 *651:B 0
30 *242:23 *651:B 0
31 *242:23 *341:10 0
*RES
1 *595:Y *341:6 49.8243 
2 *341:6 *341:8 17.2 
3 *341:8 *341:10 55.4719 
4 *341:10 *651:B 42.5659 
5 *341:10 *341:23 41.6575 
6 *341:23 *341:29 35.2447 
7 *341:29 *925:A 40.1975 
*END

*D_NET *342 0.000780689
*CONN
*I *926:A I *D BUFx2_ASAP7_75t_SL
*I *597:Y O *D XNOR2x2_ASAP7_75t_SL
*CAP
1 *926:A 9.41043e-06
2 *597:Y 7.45557e-06
3 *342:18 2.45551e-05
4 *342:12 7.98058e-05
5 *342:10 6.46612e-05
6 *342:8 7.45557e-06
7 *342:18 *363:18 1.34257e-05
8 *25:20 *342:8 1.09067e-06
9 *42:10 *342:8 9.48496e-06
10 *149:214 *342:12 1.72936e-05
11 *233:8 *342:18 4.83862e-06
12 *233:12 *342:12 0.000309053
13 *306:13 *926:A 2.6401e-05
14 *336:110 *342:12 0.000130067
15 *336:116 *342:8 1.12901e-05
16 *336:129 *342:12 6.44006e-05
*RES
1 *597:Y *342:8 42.2843 
2 *342:8 *342:10 17.2 
3 *342:10 *342:12 91.4551 
4 *342:12 *342:18 45.6633 
5 *342:18 *926:A 25.2224 
*END

*D_NET *343 0.000523535
*CONN
*I *669:A I *D NAND2x2_ASAP7_75t_SL
*I *927:A I *D BUFx2_ASAP7_75t_SL
*I *609:Y O *D AO211x2_ASAP7_75t_SL
*CAP
1 *669:A 0
2 *927:A 0
3 *609:Y 0
4 *343:21 6.08818e-05
5 *343:19 7.95159e-05
6 *343:8 0.000130501
7 *343:6 0.000130501
8 *343:4 1.86342e-05
9 *343:21 *605:A1 0
10 *343:21 *615:A1 1.12894e-06
11 *343:21 *428:93 0
12 *343:21 *431:72 2.38942e-05
13 *343:21 *432:8 1.75665e-05
14 *343:21 *432:20 0
15 *343:21 *432:99 3.10587e-06
16 *343:21 *442:8 3.05118e-08
17 *603:A *343:8 1.70708e-06
18 *605:A2 *343:21 0
19 *35:47 *343:21 5.52807e-07
20 *35:57 *343:21 0
21 *141:18 *343:21 3.74221e-05
22 *188:14 *343:21 0
23 *188:24 *343:21 0
24 *189:10 *343:21 5.06565e-06
25 *189:16 *343:19 0
26 *189:29 *343:8 1.29968e-05
27 *189:29 *343:21 0
28 *192:40 *343:8 0
29 *195:8 *343:8 3.05118e-08
*RES
1 *609:Y *343:4 17.2 
2 *343:4 *343:6 17.2 
3 *343:6 *343:8 105.875 
4 *343:8 *927:A 34.4 
5 *343:4 *343:19 25.2224 
6 *343:19 *343:21 52.3744 
7 *343:21 *669:A 34.4 
*END

*D_NET *344 0.000189398
*CONN
*I *675:A1 I *D AO21x2_ASAP7_75t_SL
*I *946:A I *D BUFx3_ASAP7_75t_SL
*I *614:Y O *D XOR2x2_ASAP7_75t_SL
*CAP
1 *675:A1 0
2 *946:A 0
3 *614:Y 3.43557e-05
4 *344:20 1.66761e-05
5 *344:14 2.58963e-05
6 *344:6 4.35758e-05
7 *344:6 *403:6 7.31327e-06
8 *344:6 *484:58 2.12481e-06
9 *344:6 *488:46 1.23408e-05
10 *344:14 *675:A2 6.7842e-07
11 *344:14 *345:10 8.33296e-06
12 *344:14 *484:58 2.52755e-07
13 *344:20 *345:10 2.31101e-05
14 *30:12 *344:6 1.11142e-05
15 *341:10 *344:14 3.6269e-06
*RES
1 *614:Y *344:6 43.4064 
2 *344:6 *344:14 39.89 
3 *344:14 *344:20 47.3528 
4 *344:20 *946:A 17.2 
5 *344:6 *675:A1 17.2 
*END

*D_NET *345 0.000447788
*CONN
*I *929:A I *D BUFx2_ASAP7_75t_SL
*I *680:A2 I *D AO21x2_ASAP7_75t_SL
*I *620:Y O *D XNOR2x2_ASAP7_75t_SL
*CAP
1 *929:A 0
2 *680:A2 1.42864e-06
3 *620:Y 1.7583e-05
4 *345:21 0.000141412
5 *345:10 1.63448e-05
6 *345:6 0.000173911
7 *345:10 *484:58 1.52566e-05
8 *771:D *345:6 5.0551e-07
9 *771:D *345:21 2.03608e-06
10 *15:8 *345:21 7.72307e-07
11 *78:12 *680:A2 3.89037e-06
12 *241:14 *345:10 0
13 *341:6 *345:6 3.6583e-05
14 *341:10 *345:10 6.62106e-06
15 *344:14 *345:10 8.33296e-06
16 *344:20 *345:10 2.31101e-05
*RES
1 *620:Y *345:6 31.6403 
2 *345:6 *345:10 34.6581 
3 *345:10 *680:A2 35.4697 
4 *345:6 *345:21 79.6889 
5 *345:21 *929:A 17.2 
*END

*D_NET *346 0.000313319
*CONN
*I *930:A I *D BUFx2_ASAP7_75t_SL
*I *683:B1 I *D AO221x2_ASAP7_75t_SL
*I *746:SN O *D FAx1_ASAP7_75t_SL
*CAP
1 *930:A 0
2 *683:B1 2.97154e-06
3 *746:SN 0
4 *346:31 4.3888e-05
5 *346:29 5.05262e-05
6 *346:16 3.12731e-05
7 *346:8 5.06977e-05
8 *346:4 2.90343e-05
9 *683:B1 *683:B2 1.73158e-06
10 *346:16 *683:A2 1.52651e-06
11 *346:16 *683:B2 1.56713e-06
12 *346:31 *379:8 1.36943e-05
13 *346:31 *415:10 0
14 *346:31 *457:26 3.32579e-06
15 *346:31 *490:10 3.47607e-06
16 *629:A *346:31 0
17 *683:C *683:B1 1.36155e-06
18 *683:C *346:16 1.40419e-08
19 *746:B *346:8 0
20 *746:B *346:31 0
21 *746:CI *346:8 1.68784e-06
22 *22:22 *346:8 2.83874e-07
23 *22:28 *346:31 0
24 *24:8 *346:8 3.74903e-06
25 *24:14 *346:8 5.52807e-07
26 *65:12 *346:16 5.0551e-07
27 *68:8 *346:16 8.06799e-07
28 *79:10 *346:8 1.03681e-05
29 *129:10 *346:31 4.26884e-05
30 *247:10 *346:16 8.06436e-06
31 *303:41 *346:16 9.52454e-06
*RES
1 *746:SN *346:4 17.2 
2 *346:4 *346:8 34.6581 
3 *346:8 *346:16 49.5168 
4 *346:16 *683:B1 37.0741 
5 *346:4 *346:29 19.8741 
6 *346:29 *346:31 38.2953 
7 *346:31 *930:A 34.4 
*END

*D_NET *347 0.00018528
*CONN
*I *687:B1 I *D AO221x2_ASAP7_75t_SL
*I *931:A I *D BUFx2_ASAP7_75t_SL
*I *551:Y O *D XNOR2x2_ASAP7_75t_SL
*CAP
1 *687:B1 1.42219e-05
2 *931:A 0
3 *551:Y 0
4 *347:18 3.93194e-05
5 *347:14 5.71388e-05
6 *347:6 3.20412e-05
7 *687:B1 *416:38 0
8 *687:B1 *478:92 1.15945e-06
9 *347:14 *412:10 0
10 *347:14 *416:38 0
11 *347:14 *478:92 1.64764e-06
12 *347:14 *483:158 0
13 *347:18 *457:18 3.25708e-06
14 *347:18 *483:158 5.89455e-06
15 *64:18 *687:B1 9.65342e-06
16 *120:10 *347:18 0
17 *294:18 *687:B1 1.04475e-06
18 *294:26 *687:B1 1.99018e-05
*RES
1 *551:Y *347:6 34.4 
2 *347:6 *347:14 46.4212 
3 *347:14 *347:18 48.1741 
4 *347:18 *931:A 17.2 
5 *347:6 *687:B1 46.9844 
*END

*D_NET *348 0.000478028
*CONN
*I *932:A I *D BUFx2_ASAP7_75t_SL
*I *691:B1 I *D AO221x2_ASAP7_75t_SL
*I *555:Y O *D XOR2x2_ASAP7_75t_SL
*CAP
1 *932:A 0
2 *691:B1 1.90821e-06
3 *555:Y 0
4 *348:25 6.75363e-05
5 *348:23 7.38122e-05
6 *348:10 1.15838e-05
7 *348:6 0.000131868
8 *348:4 0.000128468
9 *348:6 *555:A 7.46759e-06
10 *348:6 *417:25 1.35684e-06
11 *348:6 *460:12 0
12 *348:10 *478:37 3.05118e-08
13 *348:10 *483:98 8.54745e-06
14 *348:23 *478:37 6.10236e-07
15 *348:23 *483:98 2.17066e-05
16 *348:25 *389:10 2.45101e-06
17 *691:B2 *348:6 5.0551e-07
18 *691:C *348:6 2.90209e-08
19 *210:38 *348:6 3.65131e-06
20 *213:121 *348:23 6.79293e-06
21 *252:6 *348:6 4.05812e-06
22 *253:10 *691:B1 5.51397e-07
23 *253:10 *348:6 0
24 *254:10 *348:6 5.09299e-06
*RES
1 *555:Y *348:4 17.2 
2 *348:4 *348:6 60.4352 
3 *348:6 *348:10 20.0158 
4 *348:10 *691:B1 36.0045 
5 *348:10 *348:23 25.0843 
6 *348:23 *348:25 37.9726 
7 *348:25 *932:A 17.2 
*END

*D_NET *349 0.000624262
*CONN
*I *695:B1 I *D AO221x2_ASAP7_75t_SL
*I *933:A I *D BUFx2_ASAP7_75t_SL
*I *557:Y O *D XOR2x2_ASAP7_75t_SL
*CAP
1 *695:B1 0
2 *933:A 4.84014e-05
3 *557:Y 1.32337e-05
4 *349:43 3.95065e-06
5 *349:28 7.67562e-05
6 *349:20 6.34383e-05
7 *349:18 4.0463e-05
8 *349:12 0.000109105
9 *349:10 9.97748e-05
10 *349:8 1.32337e-05
11 *933:A *390:10 2.93253e-06
12 *349:8 *504:B 6.6421e-06
13 *349:8 *437:16 1.40329e-05
14 *349:43 *483:98 8.52654e-07
15 *504:A *349:8 0
16 *695:C *349:43 1.2768e-05
17 *963:A *349:12 5.0551e-07
18 *146:48 *349:12 7.92271e-06
19 *149:46 *349:43 1.25483e-05
20 *210:28 *349:20 6.86389e-05
21 *213:98 *349:18 1.94229e-07
22 *213:102 *349:20 3.96915e-06
23 *213:112 *349:20 2.13254e-06
24 *213:112 *349:28 2.64078e-06
25 *213:121 *349:43 3.86483e-06
26 *255:14 *349:18 1.62604e-05
*RES
1 *557:Y *349:8 46.2265 
2 *349:8 *349:10 17.2 
3 *349:10 *349:12 45.4601 
4 *349:12 *349:18 41.4396 
5 *349:18 *349:20 14.0685 
6 *349:20 *349:28 44.768 
7 *349:28 *933:A 44.4761 
8 *349:20 *349:43 39.5517 
9 *349:43 *695:B1 17.2 
*END

*D_NET *350 0.000580551
*CONN
*I *700:B1 I *D AO221x2_ASAP7_75t_SL
*I *934:A I *D BUFx2_ASAP7_75t_SL
*I *562:Y O *D XOR2x2_ASAP7_75t_SL
*CAP
1 *700:B1 0
2 *934:A 0
3 *562:Y 1.21131e-05
4 *350:35 4.72991e-06
5 *350:22 6.21528e-05
6 *350:20 8.29446e-05
7 *350:12 0.000131448
8 *350:10 0.000105926
9 *350:8 1.21131e-05
10 *350:12 *360:14 2.71008e-05
11 *350:12 *360:34 0
12 *350:12 *374:18 1.04724e-06
13 *350:12 *437:39 5.50907e-05
14 *350:12 *437:62 5.68415e-06
15 *350:12 *468:18 2.22714e-05
16 *350:12 *493:14 4.08924e-06
17 *350:20 *360:14 3.05126e-06
18 *350:20 *374:18 3.1168e-07
19 *350:20 *437:62 8.23422e-06
20 *350:20 *457:169 0
21 *350:20 *471:74 6.33206e-07
22 *350:20 *471:85 8.9453e-07
23 *350:22 *391:6 1.33655e-06
24 *350:35 *437:62 3.05118e-08
25 *350:35 *483:88 5.0041e-06
26 *700:C *350:35 2.28976e-06
27 *86:10 *350:8 3.95096e-06
28 *159:33 *350:8 8.6253e-06
29 *160:10 *350:8 1.89724e-05
30 *262:10 *350:22 5.0551e-07
*RES
1 *562:Y *350:8 49.5116 
2 *350:8 *350:10 17.2 
3 *350:10 *350:12 49.7807 
4 *350:12 *350:20 44.048 
5 *350:20 *350:22 34.7636 
6 *350:22 *934:A 17.2 
7 *350:12 *350:35 37.7878 
8 *350:35 *700:B1 17.2 
*END

*D_NET *351 0.000640256
*CONN
*I *704:B1 I *D AO221x2_ASAP7_75t_SL
*I *935:A I *D BUFx2_ASAP7_75t_SL
*I *564:Y O *D XNOR2x2_ASAP7_75t_SL
*CAP
1 *704:B1 4.74578e-06
2 *935:A 1.00477e-05
3 *564:Y 5.51034e-05
4 *351:33 5.745e-05
5 *351:31 5.27042e-05
6 *351:20 3.67274e-05
7 *351:14 0.000130713
8 *351:12 0.000122764
9 *351:6 7.38343e-05
10 *704:B1 *704:B2 1.95129e-06
11 *704:B1 *457:163 1.59615e-06
12 *935:A *392:6 1.27782e-06
13 *351:6 *564:A 1.27782e-06
14 *351:12 *452:10 7.84037e-07
15 *351:14 *373:6 2.09241e-05
16 *351:14 *445:8 9.83747e-06
17 *351:20 *373:6 7.34229e-06
18 *351:33 *372:12 0
19 *351:33 *374:12 5.52807e-07
20 *351:33 *451:18 0
21 *351:33 *471:85 2.32002e-05
22 *351:33 *471:104 8.06436e-07
23 *703:A2 *351:33 0
24 *987:A *351:14 2.12481e-06
25 *53:14 *351:12 0
26 *56:27 *351:6 8.87763e-06
27 *263:10 *704:B1 4.41457e-06
28 *299:25 *351:6 1.1199e-05
29 *299:25 *351:12 0
30 *334:9 *351:20 0
*RES
1 *564:Y *351:6 42.3368 
2 *351:6 *351:12 46.7897 
3 *351:12 *351:14 71.1317 
4 *351:14 *351:20 37.5553 
5 *351:20 *935:A 40.2831 
6 *351:14 *351:31 17.2 
7 *351:31 *351:33 43.9269 
8 *351:33 *704:B1 38.1438 
*END

*D_NET *352 0.000702643
*CONN
*I *707:B1 I *D AO221x2_ASAP7_75t_SL
*I *936:A I *D BUFx2_ASAP7_75t_SL
*I *568:Y O *D XNOR2x2_ASAP7_75t_SL
*CAP
1 *707:B1 1.47568e-06
2 *936:A 0
3 *568:Y 3.17886e-05
4 *352:33 7.52719e-05
5 *352:31 7.37963e-05
6 *352:24 7.77922e-05
7 *352:22 0.000102864
8 *352:14 0.000136252
9 *352:12 0.000119701
10 *352:8 4.031e-05
11 *707:B1 *452:24 2.90209e-08
12 *352:8 *404:40 1.24805e-05
13 *352:24 *393:6 1.7943e-06
14 *352:33 *741:B1 5.04502e-06
15 *352:33 *373:10 0
16 *352:33 *464:8 0
17 *352:33 *480:118 3.61852e-06
18 *352:33 *483:80 7.21841e-06
19 *707:C *707:B1 3.46317e-06
20 *101:10 *352:33 3.79494e-06
21 *161:14 *352:12 1.62854e-06
22 *213:96 *352:33 2.6102e-06
23 *213:98 *352:33 5.79724e-07
24 *264:22 *352:33 0
25 *298:14 *352:33 1.12894e-06
*RES
1 *568:Y *352:8 48.8403 
2 *352:8 *352:12 23.3948 
3 *352:12 *352:14 54.0173 
4 *352:14 *352:22 49.3504 
5 *352:22 *352:24 49.7387 
6 *352:24 *936:A 17.2 
7 *352:14 *352:31 17.2 
8 *352:31 *352:33 57.4429 
9 *352:33 *707:B1 35.4697 
*END

*D_NET *353 0.000674388
*CONN
*I *712:B1 I *D AO221x2_ASAP7_75t_SL
*I *942:A I *D BUFx3_ASAP7_75t_SL
*I *577:Y O *D OR3x1_ASAP7_75t_SL
*CAP
1 *712:B1 0
2 *942:A 3.38542e-06
3 *577:Y 0
4 *353:35 7.41596e-06
5 *353:27 4.34435e-05
6 *353:23 6.18565e-05
7 *353:8 0.00018455
8 *353:6 0.000181165
9 *353:4 2.58289e-05
10 *353:8 *571:A 9.29071e-06
11 *353:8 *573:A 1.64591e-05
12 *353:8 *574:A 5.94518e-06
13 *353:8 *404:34 0
14 *353:8 *408:20 0
15 *353:8 *413:8 1.89747e-06
16 *353:8 *444:18 5.07946e-05
17 *353:23 *573:A 4.36908e-06
18 *353:23 *408:20 2.37557e-06
19 *353:23 *414:10 3.09718e-06
20 *353:35 *457:141 1.36155e-06
21 *567:B *353:8 0
22 *712:B2 *353:35 8.17108e-06
23 *159:33 *353:35 5.65551e-06
24 *163:8 *353:8 0
25 *164:12 *353:8 8.66426e-06
26 *165:10 *353:23 0
27 *166:14 *353:8 5.79724e-07
28 *168:10 *353:8 0
29 *170:10 *353:8 1.96231e-05
30 *213:65 *353:27 2.78257e-05
31 *213:69 *353:35 6.33206e-07
*RES
1 *577:Y *353:4 17.2 
2 *353:4 *353:6 17.2 
3 *353:6 *353:8 149.239 
4 *353:8 *942:A 36.0045 
5 *353:4 *353:23 34.4598 
6 *353:23 *353:27 36.9885 
7 *353:27 *353:35 41.1013 
8 *353:35 *712:B1 17.2 
*END

*D_NET *354 0.000752295
*CONN
*I *717:B1 I *D AO221x2_ASAP7_75t_SL
*I *948:A I *D BUFx3_ASAP7_75t_SL
*I *584:Y O *D XNOR2x2_ASAP7_75t_SL
*CAP
1 *717:B1 1.58677e-05
2 *948:A 6.28442e-06
3 *584:Y 0
4 *354:29 3.63556e-05
5 *354:23 0.000113582
6 *354:21 9.30945e-05
7 *354:10 8.97337e-05
8 *354:8 8.72006e-05
9 *354:4 3.75138e-06
10 *717:B1 *361:10 0
11 *354:10 *361:10 0
12 *354:23 *592:A 6.31894e-06
13 *354:23 *968:A 5.49212e-07
14 *354:23 *969:A 1.07215e-05
15 *354:23 *361:10 0
16 *354:23 *419:38 1.67629e-05
17 *354:23 *425:44 0
18 *354:23 *426:10 5.55315e-06
19 *354:23 *428:58 3.7559e-06
20 *354:23 *433:18 1.29312e-05
21 *717:C *717:B1 3.89037e-06
22 *949:A *354:10 5.19498e-06
23 *42:47 *354:23 2.71272e-05
24 *47:10 *717:B1 0
25 *113:33 *354:23 1.5053e-05
26 *121:12 *354:23 4.31787e-06
27 *121:25 *354:23 0
28 *124:8 *354:23 6.10236e-06
29 *125:14 *354:23 8.45637e-06
30 *172:10 *354:23 1.79958e-06
31 *173:8 *354:23 5.37866e-07
32 *173:20 *354:10 1.09842e-06
33 *174:8 *354:23 0
34 *176:14 *354:10 2.96923e-05
35 *176:14 *354:23 3.32524e-06
36 *177:12 *354:8 2.03526e-06
37 *177:12 *354:10 1.53048e-05
38 *213:20 *717:B1 3.18889e-06
39 *213:147 *717:B1 9.79501e-06
40 *335:13 *354:10 9.79818e-05
41 *335:21 *354:10 0
42 *335:21 *354:23 0
43 *335:25 *354:29 1.49302e-05
*RES
1 *584:Y *354:4 17.2 
2 *354:4 *354:8 18.8045 
3 *354:8 *354:10 94.6119 
4 *354:10 *948:A 38.1438 
5 *354:4 *354:21 17.2 
6 *354:21 *354:23 80.5327 
7 *354:23 *354:29 47.7706 
8 *354:29 *717:B1 46.6763 
*END

*D_NET *355 0.000400083
*CONN
*P resp_rdy I
*I *921:A I *D BUFx2_ASAP7_75t_SL
*CAP
1 resp_rdy 1.05207e-05
2 *921:A 0
3 *355:25 2.85231e-05
4 *355:19 3.38844e-05
5 *355:13 8.67467e-05
6 *355:11 9.19062e-05
7 *355:11 resp_val 6.97583e-07
8 *355:13 *376:8 3.58449e-05
9 *355:13 *396:8 0
10 *355:25 *377:8 1.34329e-05
11 *355:25 *396:8 0
12 *106:8 *355:19 6.7842e-07
13 *106:10 *355:25 2.26329e-05
14 *324:11 *355:11 2.46769e-05
15 *337:9 *355:11 2.71041e-05
16 *337:13 *355:13 1.23889e-05
17 *338:13 *355:13 0
18 *338:13 *355:25 1.10453e-05
*RES
1 resp_rdy *355:11 39.8839 
2 *355:11 *355:13 72.93 
3 *355:13 *355:19 37.0741 
4 *355:19 *355:25 46.736 
5 *355:25 *921:A 17.2 
*END

*D_NET *356 0.00012338
*CONN
*I *550:B1 I *D AO221x1_ASAP7_75t_SL
*I *939:A I *D BUFx2_ASAP7_75t_SL
*I *542:Y O *D NOR2x1_ASAP7_75t_SL
*CAP
1 *550:B1 1.69119e-06
2 *939:A 1.28793e-05
3 *542:Y 0
4 *356:27 2.45522e-05
5 *356:6 3.57403e-05
6 *356:27 *550:C 1.35684e-06
7 *356:27 *378:8 8.06436e-06
8 *106:10 *939:A 2.67352e-05
9 *106:10 *356:27 1.16821e-05
10 *146:145 *939:A 0
11 *146:145 *356:27 0
12 *148:10 *356:27 0
13 *324:13 *939:A 0
14 *336:35 *356:27 6.7842e-07
*RES
1 *542:Y *356:6 34.4 
2 *356:6 *939:A 45.0151 
3 *356:6 *356:27 47.6042 
4 *356:27 *550:B1 35.4697 
*END

*D_NET *359 0.000292293
*CONN
*I *706:A2 I *D AO21x1_ASAP7_75t_SL
*I *902:Y O *D BUFx2_ASAP7_75t_SL
*CAP
1 *706:A2 0
2 *902:Y 4.14044e-06
3 *359:28 1.61509e-05
4 *359:20 3.87021e-05
5 *359:12 4.85695e-05
6 *359:8 3.01588e-05
7 *359:12 *703:A1 3.90258e-06
8 *359:12 *360:10 1.58634e-05
9 *359:20 *360:14 5.98443e-05
10 *359:20 *457:157 1.12776e-05
11 *359:20 *457:169 1.88168e-06
12 *359:20 *471:104 4.23885e-07
13 *359:28 *704:A2 1.52651e-06
14 *359:28 *451:26 6.7842e-07
15 *359:28 *457:202 1.29877e-05
16 *359:28 *480:99 1.42334e-05
17 *359:28 *480:110 2.31575e-05
18 *359:28 *483:88 7.82377e-07
19 *903:A *359:12 7.75723e-06
20 *261:22 *359:28 2.54626e-07
*RES
1 *902:Y *359:8 37.2158 
2 *359:8 *359:12 38.0582 
3 *359:12 *359:20 46.5282 
4 *359:20 *359:28 48.2966 
5 *359:28 *706:A2 17.2 
*END

*D_NET *360 0.000616787
*CONN
*I *712:A2 I *D AO221x2_ASAP7_75t_SL
*I *903:Y O *D BUFx2_ASAP7_75t_SL
*CAP
1 *712:A2 1.32378e-06
2 *903:Y 2.71354e-05
3 *360:34 3.1229e-05
4 *360:26 6.25693e-05
5 *360:20 3.72814e-05
6 *360:14 7.62591e-05
7 *360:12 7.16417e-05
8 *360:10 2.71354e-05
9 *360:10 *457:163 0
10 *360:10 *457:169 3.05118e-07
11 *360:14 *437:62 1.21945e-05
12 *360:14 *457:149 3.5572e-05
13 *360:14 *457:157 1.16058e-05
14 *360:14 *468:18 4.76997e-06
15 *360:20 *459:30 5.45719e-06
16 *360:20 *459:41 6.33206e-07
17 *360:26 *419:17 3.647e-06
18 *360:26 *457:141 9.28603e-05
19 *360:34 *712:A1 1.12894e-06
20 *360:34 *457:118 0
21 *712:C *712:A2 3.68287e-06
22 *160:10 *360:26 3.30589e-06
23 *262:10 *360:10 1.18898e-06
24 *350:12 *360:14 2.71008e-05
25 *350:12 *360:34 0
26 *350:20 *360:14 3.05126e-06
27 *359:12 *360:10 1.58634e-05
28 *359:20 *360:14 5.98443e-05
*RES
1 *903:Y *360:10 49.1785 
2 *360:10 *360:12 17.2 
3 *360:12 *360:14 38.7424 
4 *360:14 *360:20 38.6237 
5 *360:20 *360:26 47.8356 
6 *360:26 *360:34 44.1341 
7 *360:34 *712:A2 35.4697 
*END

*D_NET *361 0.000754147
*CONN
*I *717:A2 I *D AO221x2_ASAP7_75t_SL
*I *904:Y O *D BUFx2_ASAP7_75t_SL
*CAP
1 *717:A2 4.54764e-06
2 *904:Y 1.41223e-05
3 *361:10 0.000257174
4 *361:8 0.000266749
5 *717:A2 *717:A1 2.03526e-06
6 *361:10 *589:B 6.38283e-07
7 *361:10 *375:14 1.63193e-05
8 *361:10 *425:18 1.16248e-05
9 *361:10 *425:29 1.53071e-05
10 *361:10 *425:44 4.26552e-05
11 *361:10 *433:30 1.49079e-05
12 *583:A1 *361:10 1.59919e-05
13 *717:B1 *361:10 0
14 *47:18 *361:10 0
15 *113:33 *361:10 0
16 *118:17 *361:10 4.59141e-05
17 *121:12 *361:10 2.22736e-06
18 *124:8 *361:10 1.49407e-08
19 *159:69 *361:10 1.10079e-05
20 *173:20 *361:10 2.77657e-06
21 *174:8 *361:10 2.02148e-05
22 *175:12 *361:10 0
23 *176:14 *361:10 0
24 *183:26 *361:10 4.71653e-06
25 *185:8 *361:10 9.56586e-07
26 *186:8 *361:10 0
27 *213:20 *717:A2 4.2449e-06
28 *335:13 *361:10 0
29 *354:10 *361:10 0
30 *354:23 *361:10 0
*RES
1 *904:Y *361:8 42.4224 
2 *361:8 *361:10 211.75 
3 *361:10 *717:A2 37.609 
*END

*D_NET *362 0.000304662
*CONN
*I *648:A2 I *D AO21x1_ASAP7_75t_SL
*I *905:Y O *D BUFx2_ASAP7_75t_SL
*CAP
1 *648:A2 0
2 *905:Y 0
3 *362:14 3.89692e-06
4 *362:6 0.000107287
5 *362:4 0.00010339
6 *648:B *362:6 5.0551e-07
7 *648:B *362:14 1.52651e-06
8 *721:A *362:6 3.98264e-05
9 *219:10 *362:6 7.35354e-06
10 *219:10 *362:14 2.13322e-06
11 *277:6 *362:6 3.58414e-05
12 *336:97 *362:14 1.32788e-06
13 *336:106 *362:14 1.5728e-06
*RES
1 *905:Y *362:4 17.2 
2 *362:4 *362:6 51.878 
3 *362:6 *362:14 38.2855 
4 *362:14 *648:A2 17.2 
*END

*D_NET *363 0.000637583
*CONN
*I *652:B I *D NOR2x1_ASAP7_75t_SL
*I *906:Y O *D BUFx2_ASAP7_75t_SL
*CAP
1 *652:B 0
2 *906:Y 4.54572e-06
3 *363:26 5.2907e-06
4 *363:20 0.000146226
5 *363:18 0.000145816
6 *363:12 3.49269e-05
7 *363:8 3.45915e-05
8 *363:12 *383:6 1.04475e-06
9 *363:26 *477:108 3.3563e-06
10 *363:26 *481:74 6.94376e-06
11 *149:206 *363:20 2.06412e-05
12 *233:12 *363:20 2.66992e-05
13 *288:16 *363:20 5.21689e-05
14 *306:11 *363:8 1.33834e-05
15 *306:13 *363:12 8.85305e-05
16 *336:135 *363:20 3.99925e-05
17 *342:18 *363:18 1.34257e-05
*RES
1 *906:Y *363:8 38.9053 
2 *363:8 *363:12 45.5457 
3 *363:12 *363:18 38.9053 
4 *363:18 *363:20 71.1317 
5 *363:20 *363:26 40.0317 
6 *363:26 *652:B 17.2 
*END

*D_NET *364 0.000104139
*CONN
*I *662:A2 I *D AO21x1_ASAP7_75t_SL
*I *907:Y O *D BUFx2_ASAP7_75t_SL
*CAP
1 *662:A2 0
2 *907:Y 0
3 *364:12 2.05011e-05
4 *364:6 2.05011e-05
5 *662:A1 *364:12 5.51397e-07
6 *662:B *364:12 1.36155e-06
7 *149:116 *364:12 1.12894e-06
8 *215:8 *364:12 4.92778e-05
9 *231:8 *364:12 1.08167e-05
*RES
1 *907:Y *364:6 34.4 
2 *364:6 *364:12 37.8104 
3 *364:12 *662:A2 17.2 
*END

*D_NET *365 7.44269e-05
*CONN
*I *665:A I *D INVx1_ASAP7_75t_SL
*I *908:Y O *D BUFx2_ASAP7_75t_SL
*CAP
1 *665:A 2.61463e-05
2 *908:Y 2.61463e-05
3 *214:12 *665:A 2.21344e-05
*RES
1 *908:Y *665:A 49.9099 
*END

*D_NET *366 0.000270614
*CONN
*I *736:A2 I *D OA222x2_ASAP7_75t_SL
*I *909:Y O *D BUFx2_ASAP7_75t_SL
*CAP
1 *736:A2 3.54412e-06
2 *909:Y 0
3 *366:16 2.75456e-05
4 *366:8 0.000116302
5 *366:6 9.2301e-05
6 *366:8 *388:10 0
7 *366:8 *457:8 0
8 *366:8 *471:168 0
9 *366:8 *493:60 1.47065e-05
10 *366:16 *471:168 3.1625e-06
11 *366:16 *493:60 0
12 *4:51 *366:16 1.30519e-05
*RES
1 *909:Y *366:6 34.4 
2 *366:6 *366:8 76.5906 
3 *366:8 *366:16 46.9277 
4 *366:16 *736:A2 36.0045 
*END

*D_NET *367 0.000185446
*CONN
*I *673:A2 I *D AO21x1_ASAP7_75t_SL
*I *910:Y O *D BUFx2_ASAP7_75t_SL
*CAP
1 *673:A2 1.37375e-05
2 *910:Y 5.40346e-05
3 *367:12 2.20674e-05
4 *367:6 6.23645e-05
5 *149:239 *673:A2 9.67251e-06
6 *149:245 *367:12 0
7 *211:6 *673:A2 1.78333e-06
8 *240:6 *673:A2 1.60115e-05
9 *327:13 *367:6 4.70139e-06
10 *336:150 *673:A2 1.07377e-06
*RES
1 *910:Y *367:6 43.4064 
2 *367:6 *367:12 38.9053 
3 *367:12 *673:A2 30.0358 
*END

*D_NET *368 0.000153255
*CONN
*I *678:A2 I *D AO21x1_ASAP7_75t_SL
*I *911:Y O *D BUFx2_ASAP7_75t_SL
*CAP
1 *678:A2 1.85678e-05
2 *911:Y 3.94855e-05
3 *368:12 3.36424e-05
4 *368:6 5.45601e-05
5 *925:A *678:A2 3.68565e-06
6 *149:239 *368:12 0
7 *150:6 *368:6 0
8 *244:10 *678:A2 1.54461e-06
9 *328:21 *368:6 1.76928e-06
*RES
1 *911:Y *368:6 35.9189 
2 *368:6 *368:12 44.537 
3 *368:12 *678:A2 28.9662 
*END

*D_NET *369 9.5211e-05
*CONN
*I *737:A2 I *D OA222x2_ASAP7_75t_SL
*I *912:Y O *D BUFx2_ASAP7_75t_SL
*CAP
1 *737:A2 0
2 *912:Y 6.54619e-06
3 *369:12 4.10593e-05
4 *369:8 4.76055e-05
*RES
1 *912:Y *369:8 38.9053 
2 *369:8 *369:12 40.7323 
3 *369:12 *737:A2 17.2 
*END

*D_NET *370 0.000135869
*CONN
*I *738:A2 I *D OA222x2_ASAP7_75t_SL
*I *913:Y O *D BUFx2_ASAP7_75t_SL
*CAP
1 *738:A2 0
2 *913:Y 3.75196e-06
3 *370:12 4.78855e-05
4 *370:8 5.16374e-05
5 *370:8 *390:10 2.03687e-06
6 *370:12 *738:A1 7.14604e-06
7 *107:6 *370:12 2.34111e-05
*RES
1 *913:Y *370:8 37.2158 
2 *370:8 *370:12 48.7547 
3 *370:12 *738:A2 17.2 
*END

*D_NET *371 0.000141465
*CONN
*I *739:A2 I *D OA222x2_ASAP7_75t_SL
*I *914:Y O *D BUFx2_ASAP7_75t_SL
*CAP
1 *739:A2 1.23221e-05
2 *914:Y 4.48476e-06
3 *371:14 4.45753e-05
4 *371:8 3.6738e-05
5 *739:A2 *739:A1 6.19506e-06
6 *739:A2 *457:173 0
7 *739:A2 *471:61 3.33563e-05
8 *371:8 *457:173 3.79307e-06
*RES
1 *914:Y *371:8 37.779 
2 *371:8 *371:14 45.6313 
3 *371:14 *739:A2 47.2678 
*END

*D_NET *372 0.000257223
*CONN
*I *740:A2 I *D OA222x2_ASAP7_75t_SL
*I *915:Y O *D BUFx2_ASAP7_75t_SL
*CAP
1 *740:A2 2.05999e-05
2 *915:Y 4.93223e-05
3 *372:12 3.79431e-05
4 *372:6 6.66655e-05
5 *740:A2 *740:A1 9.08513e-06
6 *740:A2 *374:8 9.48983e-06
7 *703:A2 *372:12 1.70866e-06
8 *318:13 *372:6 6.24083e-05
9 *334:9 *372:12 0
10 *351:33 *372:12 0
*RES
1 *915:Y *372:6 40.1975 
2 *372:6 *372:12 46.7897 
3 *372:12 *740:A2 31.1054 
*END

*D_NET *373 0.000338787
*CONN
*I *741:A2 I *D OA222x2_ASAP7_75t_SL
*I *916:Y O *D BUFx2_ASAP7_75t_SL
*CAP
1 *741:A2 3.24664e-06
2 *916:Y 0
3 *373:10 4.70527e-05
4 *373:6 0.000143373
5 *373:4 9.95669e-05
6 *741:A2 *741:A1 1.73158e-06
7 *741:A2 *480:118 1.07377e-06
8 *373:10 *459:97 0
9 *373:10 *480:110 4.75333e-06
10 *84:10 *373:10 0
11 *100:8 *373:10 2.83874e-07
12 *261:14 *373:10 1.49407e-08
13 *298:14 *373:10 1.35961e-06
14 *298:22 *373:10 8.06436e-06
15 *351:14 *373:6 2.09241e-05
16 *351:20 *373:6 7.34229e-06
17 *352:33 *373:10 0
*RES
1 *916:Y *373:4 17.2 
2 *373:4 *373:6 48.6691 
3 *373:6 *373:10 49.3005 
4 *373:10 *741:A2 36.5393 
*END

*D_NET *374 0.000449057
*CONN
*I *743:A2 I *D OA222x2_ASAP7_75t_SL
*I *917:Y O *D BUFx2_ASAP7_75t_SL
*CAP
1 *743:A2 8.7279e-06
2 *917:Y 2.99396e-05
3 *374:18 4.53149e-05
4 *374:12 6.88724e-05
5 *374:8 6.2225e-05
6 *743:A2 *743:A1 2.05732e-05
7 *743:A2 *462:26 2.11853e-06
8 *743:A2 *483:66 7.35354e-06
9 *374:12 *702:B 2.86985e-05
10 *374:12 *702:C 5.72091e-06
11 *374:12 *740:B1 1.08461e-06
12 *374:12 *437:62 1.04205e-05
13 *374:12 *451:18 0
14 *374:12 *451:26 0
15 *374:12 *457:157 2.20028e-06
16 *374:12 *471:74 1.34467e-07
17 *374:12 *471:85 5.28699e-06
18 *374:12 *471:104 3.05118e-08
19 *374:12 *483:88 1.50147e-06
20 *374:18 *437:39 5.45067e-05
21 *374:18 *476:85 6.26682e-05
22 *740:A2 *374:8 9.48983e-06
23 *146:72 *374:18 3.86483e-06
24 *210:54 *374:18 0
25 *260:10 *374:12 1.63973e-05
26 *261:22 *374:12 1.49407e-08
27 *350:12 *374:18 1.04724e-06
28 *350:20 *374:18 3.1168e-07
29 *351:33 *374:12 5.52807e-07
*RES
1 *917:Y *374:8 47.7706 
2 *374:8 *374:12 44.5135 
3 *374:12 *374:18 44.364 
4 *374:18 *743:A2 41.8876 
*END

*D_NET *375 8.91366e-05
*CONN
*I *745:A2 I *D OA222x2_ASAP7_75t_SL
*I *918:Y O *D BUFx2_ASAP7_75t_SL
*CAP
1 *745:A2 0
2 *918:Y 3.51132e-06
3 *375:14 2.20823e-05
4 *375:8 2.55936e-05
5 *375:14 *457:213 1.70708e-06
6 *375:14 *483:28 8.13414e-06
7 *375:14 *493:33 0
8 *717:C *375:14 0
9 *745:A1 *375:14 7.97373e-06
10 *4:116 *375:14 1.36155e-06
11 *213:20 *375:14 2.98814e-08
12 *274:10 *375:14 2.98814e-07
13 *335:25 *375:8 2.12481e-06
14 *361:10 *375:14 1.63193e-05
*RES
1 *918:Y *375:8 36.0045 
2 *375:8 *375:14 33.4184 
3 *375:14 *745:A2 17.2 
*END

*D_NET *376 5.86762e-05
*CONN
*I *500:A I *D INVx1_ASAP7_75t_SL
*I *919:Y O *D BUFx2_ASAP7_75t_SL
*CAP
1 *500:A 0
2 *919:Y 9.38372e-06
3 *376:8 9.38372e-06
4 *338:13 *376:8 4.06388e-06
5 *355:13 *376:8 3.58449e-05
*RES
1 *919:Y *376:8 46.2265 
2 *376:8 *500:A 34.4 
*END

*D_NET *377 0.000398328
*CONN
*I *550:C I *D AO221x1_ASAP7_75t_SL
*I *540:A I *D NOR2x1_ASAP7_75t_SL
*I *548:A I *D INVx1_ASAP7_75t_SL
*I *920:Y O *D BUFx2_ASAP7_75t_SL
*CAP
1 *550:C 2.88401e-06
2 *540:A 1.14503e-05
3 *548:A 0
4 *920:Y 0
5 *377:28 3.44452e-05
6 *377:22 4.76879e-05
7 *377:16 4.24247e-05
8 *377:8 3.32355e-05
9 *377:6 1.26199e-05
10 *540:A *763:CLK 1.36943e-05
11 *377:8 *378:8 9.30425e-06
12 *377:28 *378:21 2.05883e-06
13 *547:A2 *377:28 1.19435e-05
14 *1:10 *377:16 1.12894e-06
15 *3:10 *540:A 2.66797e-07
16 *21:14 *550:C 2.61531e-06
17 *21:14 *377:8 1.72763e-05
18 *106:10 *550:C 3.6736e-06
19 *106:10 *377:8 6.50861e-05
20 *106:10 *377:16 6.72662e-07
21 *106:18 *540:A 3.32579e-06
22 *106:18 *550:C 6.7842e-07
23 *148:10 *377:28 0
24 *151:8 *377:28 2.66992e-06
25 *336:19 *377:28 0
26 *336:27 *377:22 2.10126e-05
27 *336:27 *377:28 2.36328e-05
28 *336:35 *377:16 1.97503e-05
29 *336:46 *540:A 0
30 *336:46 *377:16 0
31 *355:25 *377:8 1.34329e-05
32 *356:27 *550:C 1.35684e-06
*RES
1 *920:Y *377:6 34.4 
2 *377:6 *377:8 21.6819 
3 *377:8 *377:16 45.5099 
4 *377:16 *377:22 42.4224 
5 *377:22 *377:28 39.808 
6 *377:28 *548:A 17.2 
7 *377:16 *540:A 45.0151 
8 *377:8 *550:C 36.8776 
*END

*D_NET *378 0.000187984
*CONN
*I *547:A1 I *D AOI21x1_ASAP7_75t_SL
*I *550:B2 I *D AO221x1_ASAP7_75t_SL
*I *921:Y O *D BUFx2_ASAP7_75t_SL
*CAP
1 *547:A1 0
2 *550:B2 0
3 *921:Y 0
4 *378:21 1.44185e-05
5 *378:8 2.98384e-05
6 *378:6 1.54199e-05
7 *547:A2 *378:21 8.71771e-06
8 *547:B *378:21 1.182e-05
9 *2:8 *378:21 0
10 *21:14 *378:8 2.68658e-05
11 *21:14 *378:21 3.0215e-05
12 *106:18 *378:21 4.40256e-06
13 *148:10 *378:8 0
14 *148:10 *378:21 0
15 *336:27 *378:21 2.68586e-05
16 *356:27 *378:8 8.06436e-06
17 *377:8 *378:8 9.30425e-06
18 *377:28 *378:21 2.05883e-06
*RES
1 *921:Y *378:6 34.4 
2 *378:6 *378:8 16.3318 
3 *378:8 *550:B2 34.4 
4 *378:8 *378:21 36.2626 
5 *378:21 *547:A1 17.2 
*END

*D_NET *379 0.000357921
*CONN
*P req_rdy O
*I *922:Y O *D BUFx2_ASAP7_75t_SL
*CAP
1 req_rdy 1.51425e-05
2 *922:Y 0
3 *379:8 0.000104078
4 *379:6 8.89353e-05
5 *379:8 *387:8 3.16625e-05
6 *129:10 *379:8 7.60261e-05
7 *312:9 req_rdy 2.67819e-05
8 *312:15 *379:8 1.60097e-06
9 *315:5 req_rdy 0
10 *346:31 *379:8 1.36943e-05
*RES
1 *922:Y *379:6 34.4 
2 *379:6 *379:8 94.8935 
3 *379:8 req_rdy 39.7757 
*END

*D_NET *380 0.00035031
*CONN
*P resp_msg[0] O
*I *923:Y O *D BUFx2_ASAP7_75t_SL
*CAP
1 resp_msg[0] 2.18366e-05
2 *923:Y 4.12326e-06
3 *380:10 0.000170898
4 *380:8 0.000153185
5 *923:A *380:8 2.66797e-07
6 *280:8 *380:10 0
7 *304:9 resp_msg[0] 0
8 *304:13 *380:10 0
*RES
1 *923:Y *380:8 36.0045 
2 *380:8 *380:10 120.236 
3 *380:10 resp_msg[0] 40.2085 
*END

*D_NET *381 0.00027413
*CONN
*P resp_msg[10] O
*I *924:Y O *D BUFx2_ASAP7_75t_SL
*CAP
1 resp_msg[10] 2.49285e-05
2 *924:Y 0
3 *381:12 2.99255e-05
4 *381:6 8.57973e-05
5 *381:4 8.08003e-05
6 *305:9 resp_msg[10] 5.26779e-05
*RES
1 *924:Y *381:4 17.2 
2 *381:4 *381:6 39.0422 
3 *381:6 *381:12 36.9342 
4 *381:12 resp_msg[10] 19.1007 
*END

*D_NET *382 0.00022919
*CONN
*P resp_msg[11] O
*I *925:Y O *D BUFx2_ASAP7_75t_SL
*CAP
1 resp_msg[11] 3.78893e-05
2 *925:Y 0
3 *382:12 4.09196e-05
4 *382:6 7.57945e-05
5 *382:4 7.27641e-05
6 resp_msg[11] resp_msg[12] 0
7 *214:8 *382:12 0
8 *323:9 resp_msg[11] 0
9 *325:7 resp_msg[11] 0
10 *325:11 *382:12 1.82219e-06
*RES
1 *925:Y *382:4 17.2 
2 *382:4 *382:6 34.7636 
3 *382:6 *382:12 36.3711 
4 *382:12 resp_msg[11] 19.1007 
*END

*D_NET *383 0.000290948
*CONN
*P resp_msg[12] O
*I *926:Y O *D BUFx2_ASAP7_75t_SL
*CAP
1 resp_msg[12] 1.51474e-05
2 *926:Y 0
3 *383:12 3.01798e-05
4 *383:6 6.7994e-05
5 *383:4 5.29617e-05
6 resp_msg[11] resp_msg[12] 0
7 *306:7 resp_msg[12] 5.21548e-05
8 *306:13 *383:6 2.06079e-05
9 *323:9 resp_msg[12] 5.08573e-05
10 *363:12 *383:6 1.04475e-06
*RES
1 *926:Y *383:4 17.2 
2 *383:4 *383:6 35.8333 
3 *383:6 *383:12 45.5695 
4 *383:12 resp_msg[12] 19.1007 
*END

*D_NET *384 0.000124579
*CONN
*P resp_msg[13] O
*I *927:Y O *D BUFx2_ASAP7_75t_SL
*CAP
1 resp_msg[13] 3.21252e-05
2 *927:Y 0
3 *384:12 6.22895e-05
4 *384:6 3.01643e-05
*RES
1 *927:Y *384:6 34.4 
2 *384:6 *384:12 39.932 
3 *384:12 resp_msg[13] 29.4259 
*END

*D_NET *385 0.000313151
*CONN
*P resp_msg[14] O
*I *928:Y O *D BUFx2_ASAP7_75t_SL
*CAP
1 resp_msg[14] 1.56264e-05
2 *928:Y 0
3 *385:10 3.59417e-05
4 *385:6 0.000128723
5 *385:4 0.000108408
6 resp_msg[14] resp_msg[15] 2.35027e-05
7 *385:10 resp_msg[15] 9.49809e-07
*RES
1 *928:Y *385:4 17.2 
2 *385:4 *385:6 59.3656 
3 *385:6 *385:10 34.0011 
4 *385:10 resp_msg[14] 27.2103 
*END

*D_NET *386 0.00013771
*CONN
*P resp_msg[15] O
*I *929:Y O *D BUFx2_ASAP7_75t_SL
*CAP
1 resp_msg[15] 1.35621e-05
2 *929:Y 4.30667e-05
3 *386:6 5.66288e-05
4 resp_msg[14] resp_msg[15] 2.35027e-05
5 *385:10 resp_msg[15] 9.49809e-07
*RES
1 *929:Y *386:6 47.685 
2 *386:6 resp_msg[15] 43.9564 
*END

*D_NET *387 0.000290563
*CONN
*P resp_msg[1] O
*I *930:Y O *D BUFx2_ASAP7_75t_SL
*CAP
1 resp_msg[1] 1.68106e-05
2 *930:Y 0
3 *387:8 0.000115898
4 *387:6 9.90874e-05
5 *312:9 resp_msg[1] 2.71041e-05
6 *379:8 *387:8 3.16625e-05
*RES
1 *930:Y *387:6 34.4 
2 *387:6 *387:8 86.446 
3 *387:8 resp_msg[1] 40.3168 
*END

*D_NET *388 0.00057659
*CONN
*P resp_msg[2] O
*I *931:Y O *D BUFx2_ASAP7_75t_SL
*CAP
1 resp_msg[2] 1.90615e-05
2 *931:Y 4.61638e-06
3 *388:10 0.000109548
4 *388:8 9.51031e-05
5 *120:10 *388:10 0.000189305
6 *313:11 resp_msg[2] 1.17194e-05
7 *313:13 *388:10 0.000116661
8 *326:11 resp_msg[2] 3.05748e-05
9 *326:13 *388:10 0
10 *366:8 *388:10 0
*RES
1 *931:Y *388:8 36.0045 
2 *388:8 *388:10 104.843 
3 *388:10 resp_msg[2] 42.6516 
*END

*D_NET *389 0.000134251
*CONN
*P resp_msg[3] O
*I *932:Y O *D BUFx2_ASAP7_75t_SL
*CAP
1 resp_msg[3] 4.183e-05
2 *932:Y 1.79121e-05
3 *389:10 5.97421e-05
4 *314:9 resp_msg[3] 0
5 *329:11 resp_msg[3] 1.2316e-05
6 *348:25 *389:10 2.45101e-06
*RES
1 *932:Y *389:10 41.1278 
2 *389:10 resp_msg[3] 40.5212 
*END

*D_NET *390 0.000158999
*CONN
*P resp_msg[4] O
*I *933:Y O *D BUFx2_ASAP7_75t_SL
*CAP
1 resp_msg[4] 3.19193e-05
2 *933:Y 1.34957e-05
3 *390:10 4.5415e-05
4 *933:A *390:10 2.93253e-06
5 *314:9 resp_msg[4] 0
6 *316:9 resp_msg[4] 6.31997e-05
7 *370:8 *390:10 2.03687e-06
*RES
1 *933:Y *390:10 41.4856 
2 *390:10 resp_msg[4] 40.5212 
*END

*D_NET *391 0.000155271
*CONN
*P resp_msg[5] O
*I *934:Y O *D BUFx2_ASAP7_75t_SL
*CAP
1 resp_msg[5] 1.31683e-05
2 *934:Y 4.09823e-05
3 *391:6 5.41506e-05
4 *317:9 resp_msg[5] 2.28166e-05
5 *319:9 resp_msg[5] 2.28166e-05
6 *320:17 *391:6 0
7 *350:22 *391:6 1.33655e-06
*RES
1 *934:Y *391:6 42.3368 
2 *391:6 resp_msg[5] 47.0107 
*END

*D_NET *392 0.000276209
*CONN
*P resp_msg[6] O
*I *935:Y O *D BUFx2_ASAP7_75t_SL
*CAP
1 resp_msg[6] 1.13249e-05
2 *935:Y 0
3 *392:12 2.73103e-05
4 *392:6 0.000114732
5 *392:4 9.87468e-05
6 *935:A *392:6 1.27782e-06
7 *333:9 resp_msg[6] 2.28166e-05
*RES
1 *935:Y *392:4 17.2 
2 *392:4 *392:6 47.5994 
3 *392:6 *392:12 47.4467 
4 *392:12 resp_msg[6] 8.38697 
*END

*D_NET *393 0.000225423
*CONN
*P resp_msg[7] O
*I *936:Y O *D BUFx2_ASAP7_75t_SL
*CAP
1 resp_msg[7] 1.14545e-05
2 *936:Y 0
3 *393:10 3.16666e-05
4 *393:6 0.00010036
5 *393:4 8.01477e-05
6 *352:24 *393:6 1.7943e-06
*RES
1 *936:Y *393:4 17.2 
2 *393:4 *393:6 42.2512 
3 *393:6 *393:10 35.5029 
4 *393:10 resp_msg[7] 22.9897 
*END

*D_NET *394 0.00010615
*CONN
*P resp_msg[8] O
*I *937:Y O *D BUFx2_ASAP7_75t_SL
*CAP
1 resp_msg[8] 1.77061e-05
2 *937:Y 0
3 *394:12 5.3075e-05
4 *394:6 3.53689e-05
*RES
1 *937:Y *394:6 34.4 
2 *394:6 *394:12 45.6498 
3 *394:12 resp_msg[8] 21.2207 
*END

*D_NET *395 0.000160127
*CONN
*P resp_msg[9] O
*I *938:Y O *D BUFx2_ASAP7_75t_SL
*CAP
1 resp_msg[9] 1.46115e-05
2 *938:Y 0
3 *395:8 5.86789e-05
4 *395:6 4.40674e-05
5 *321:11 resp_msg[9] 3.1114e-05
6 *335:11 resp_msg[9] 1.16554e-05
7 *335:13 *395:8 0
*RES
1 *938:Y *395:6 34.4 
2 *395:6 *395:8 35.761 
3 *395:8 resp_msg[9] 39.9899 
*END

*D_NET *396 0.000317622
*CONN
*P resp_val O
*I *939:Y O *D BUFx2_ASAP7_75t_SL
*CAP
1 resp_val 1.04693e-05
2 *939:Y 0
3 *396:8 0.000124331
4 *396:6 0.000113862
5 *106:10 *396:8 0
6 *307:9 resp_val 2.61375e-05
7 *307:13 *396:8 1.44012e-05
8 *324:11 resp_val 2.77234e-05
9 *324:13 *396:8 0
10 *355:11 resp_val 6.97583e-07
11 *355:13 *396:8 0
12 *355:25 *396:8 0
*RES
1 *939:Y *396:6 34.4 
2 *396:6 *396:8 94.8935 
3 *396:8 resp_val 39.7757 
*END

*D_NET *397 0.00160831
*CONN
*I *732:B1 I *D OA222x2_ASAP7_75t_SL
*I *733:B1 I *D OA222x2_ASAP7_75t_SL
*I *731:B1 I *D OA222x2_ASAP7_75t_SL
*I *728:B1 I *D OA222x2_ASAP7_75t_SL
*I *726:B1 I *D OA222x2_ASAP7_75t_SL
*I *725:B1 I *D OA222x2_ASAP7_75t_SL
*I *729:B1 I *D OA222x2_ASAP7_75t_SL
*I *940:Y O *D BUFx3_ASAP7_75t_SL
*CAP
1 *732:B1 0
2 *733:B1 0
3 *731:B1 3.68157e-06
4 *728:B1 0
5 *726:B1 9.87007e-06
6 *725:B1 1.4018e-06
7 *729:B1 0
8 *940:Y 1.27527e-05
9 *397:164 1.13154e-05
10 *397:149 1.36095e-05
11 *397:141 2.56743e-05
12 *397:133 4.34433e-05
13 *397:127 3.87243e-05
14 *397:110 1.281e-05
15 *397:102 5.59413e-05
16 *397:95 5.15419e-06
17 *397:87 2.3082e-05
18 *397:79 4.75462e-05
19 *397:55 2.81041e-05
20 *397:42 1.04208e-05
21 *397:34 4.13418e-05
22 *397:28 7.40366e-05
23 *397:26 4.74051e-05
24 *397:24 5.07401e-05
25 *397:22 5.12205e-05
26 *397:16 8.89334e-05
27 *397:10 2.23138e-05
28 *726:B1 *726:A1 7.35354e-06
29 *397:10 *431:14 3.91501e-06
30 *397:22 *431:14 5.27185e-06
31 *397:26 *477:71 1.66587e-05
32 *397:26 *477:92 9.51841e-07
33 *397:28 *436:12 3.24214e-06
34 *397:28 *477:58 6.6516e-05
35 *397:28 *477:71 3.35641e-06
36 *397:34 *458:20 2.13074e-05
37 *397:34 *458:169 0
38 *397:34 *477:58 8.53887e-06
39 *397:42 *729:B2 9.03401e-06
40 *397:42 *477:39 1.52651e-06
41 *397:55 *725:A1 1.07377e-06
42 *397:55 *725:C2 5.04414e-06
43 *397:55 *437:95 6.15135e-06
44 *397:79 *727:A 1.84616e-05
45 *397:79 *456:12 2.50424e-06
46 *397:79 *472:8 3.3921e-06
47 *397:79 *477:92 9.47071e-07
48 *397:87 *481:55 1.65617e-05
49 *397:95 *456:106 1.40419e-08
50 *397:102 *469:10 1.0269e-05
51 *397:102 *469:12 9.15342e-06
52 *397:127 *770:CLK 0
53 *397:127 *456:38 0
54 *397:133 *456:38 1.36108e-05
55 *397:149 *732:A1 4.26751e-07
56 *397:149 *477:133 6.40127e-07
57 *397:149 *481:84 6.92634e-06
58 *397:164 *732:A1 0
59 *397:164 *732:C1 8.42553e-06
60 *397:164 *481:84 1.95129e-06
61 *397:164 *481:97 9.71833e-06
62 *725:A2 *397:55 7.58265e-07
63 *725:B2 *397:55 1.35684e-06
64 *726:A2 *726:B1 1.2768e-05
65 *726:B2 *726:B1 3.89037e-06
66 *728:A2 *397:87 0
67 *728:A2 *397:95 2.47892e-06
68 *731:B2 *397:127 7.15974e-07
69 *732:A2 *397:164 2.03526e-06
70 *733:B2 *397:149 7.35354e-06
71 *733:B2 *397:164 2.66394e-05
72 *752:B *397:22 5.96787e-07
73 *786:D *397:133 5.25794e-06
74 *16:10 *397:127 9.52454e-06
75 *16:10 *397:133 1.25811e-06
76 *25:41 *397:141 2.20028e-06
77 *31:6 *397:133 9.75735e-06
78 *31:22 *397:102 1.2903e-05
79 *31:22 *397:110 8.07162e-06
80 *31:22 *397:127 2.55432e-05
81 *35:10 *397:22 1.46086e-05
82 *35:10 *397:102 0.000109225
83 *35:10 *397:127 1.56599e-05
84 *36:16 *397:22 1.41369e-05
85 *36:16 *397:102 4.0423e-05
86 *37:18 *397:87 1.88168e-06
87 *37:22 *397:79 2.62922e-05
88 *40:18 *726:B1 3.13426e-06
89 *40:29 *397:26 0
90 *40:29 *397:79 0
91 *41:6 *397:16 3.41442e-05
92 *41:6 *397:22 5.00848e-06
93 *146:161 *397:28 3.62938e-05
94 *146:161 *397:34 8.80021e-06
95 *147:116 *397:10 4.45472e-06
96 *147:122 *397:16 2.54971e-05
97 *149:129 *397:42 2.01457e-05
98 *149:137 *397:10 1.83109e-06
99 *150:18 *397:141 1.00435e-05
100 *210:88 *397:87 2.8845e-05
101 *211:18 *397:164 1.88168e-06
102 *214:44 *731:B1 7.80516e-06
103 *214:44 *397:110 9.75645e-06
104 *226:14 *397:42 1.66639e-06
105 *231:18 *397:42 0
106 *281:14 *397:95 2.47892e-06
107 *282:8 *397:110 0
108 *287:40 *397:22 1.43515e-05
109 *290:12 *397:141 8.70997e-06
110 *291:24 *397:141 0
111 *302:33 *725:B1 5.62196e-06
112 *336:74 *397:34 2.56655e-05
113 *340:14 *397:141 1.43739e-05
*RES
1 *940:Y *397:10 42.1426 
2 *397:10 *397:16 43.492 
3 *397:16 *397:22 43.1267 
4 *397:22 *397:24 17.2 
5 *397:24 *397:26 14.0792 
6 *397:26 *397:28 23.653 
7 *397:28 *397:34 36.1261 
8 *397:34 *397:42 45.5128 
9 *397:42 *729:B1 17.2 
10 *397:28 *397:55 48.5605 
11 *397:55 *725:B1 36.0045 
12 *397:26 *726:B1 42.4224 
13 *397:24 *397:79 40.874 
14 *397:79 *397:87 45.2913 
15 *397:87 *397:95 38.0039 
16 *397:95 *728:B1 17.2 
17 *397:16 *397:102 38.2953 
18 *397:102 *397:110 39.89 
19 *397:110 *731:B1 36.5393 
20 *397:102 *397:127 48.2241 
21 *397:127 *397:133 35.5258 
22 *397:133 *397:141 46.716 
23 *397:141 *397:149 37.384 
24 *397:149 *733:B1 17.2 
25 *397:149 *397:164 47.0977 
26 *397:164 *732:B1 17.2 
*END

*D_NET *398 6.02373e-05
*CONN
*I *924:A I *D BUFx2_ASAP7_75t_SL
*I *941:Y O *D BUFx3_ASAP7_75t_SL
*CAP
1 *924:A 0
2 *941:Y 3.01187e-05
3 *398:10 3.01187e-05
*RES
1 *941:Y *398:10 49.5168 
2 *398:10 *924:A 34.4 
*END

*D_NET *399 8.77229e-05
*CONN
*I *937:A I *D BUFx2_ASAP7_75t_SL
*I *942:Y O *D BUFx3_ASAP7_75t_SL
*CAP
1 *937:A 0
2 *942:Y 6.45951e-06
3 *399:12 3.74019e-05
4 *399:8 4.38614e-05
*RES
1 *942:Y *399:8 37.0741 
2 *399:8 *399:12 47.0478 
3 *399:12 *937:A 17.2 
*END

*D_NET *400 0.000129516
*CONN
*I *614:B I *D XOR2x2_ASAP7_75t_SL
*I *977:A I *D BUFx3_ASAP7_75t_SL
*I *1028:Y O *D BUFx3_ASAP7_75t_SL
*CAP
1 *614:B 0
2 *977:A 0
3 *1028:Y 6.43367e-06
4 *400:23 1.93633e-05
5 *400:14 1.83736e-05
6 *400:6 4.41706e-05
7 *400:14 *434:8 5.52807e-07
8 *400:14 *434:12 1.5804e-05
9 *400:23 *403:40 1.99791e-05
10 *400:23 *434:8 4.83862e-06
11 *400:23 *488:46 0
12 *595:B *400:23 0
13 *206:10 *400:14 0
14 *207:10 *400:23 0
*RES
1 *1028:Y *400:6 19.8741 
2 *400:6 *400:14 44.7884 
3 *400:14 *977:A 17.2 
4 *400:6 *400:23 36.9108 
5 *400:23 *614:B 34.4 
*END

*D_NET *401 0.000101247
*CONN
*I *597:B I *D XNOR2x2_ASAP7_75t_SL
*I *944:Y O *D BUFx3_ASAP7_75t_SL
*CAP
1 *597:B 2.96315e-06
2 *944:Y 3.21698e-05
3 *401:8 3.51329e-05
4 *401:8 *597:A 7.72307e-07
5 *36:22 *401:8 1.66828e-05
6 *39:10 *597:B 6.76305e-06
7 *234:8 *597:B 6.76305e-06
*RES
1 *944:Y *401:8 48.8403 
2 *401:8 *597:B 39.4685 
*END

*D_NET *402 0.000422566
*CONN
*I *664:A I *D OR2x6_ASAP7_75t_SL
*I *538:A1 I *D AO21x1_ASAP7_75t_SL
*I *544:C I *D AND3x1_ASAP7_75t_SL
*I *945:Y O *D BUFx3_ASAP7_75t_SL
*CAP
1 *664:A 0
2 *538:A1 0
3 *544:C 0
4 *945:Y 0
5 *402:22 1.15026e-05
6 *402:14 4.27494e-05
7 *402:8 7.57733e-05
8 *402:6 4.45266e-05
9 *402:8 *476:148 4.53891e-05
10 *402:8 *486:8 1.28682e-05
11 *402:14 *476:148 7.76258e-05
12 *544:B *402:14 1.25483e-05
13 *544:B *402:22 1.79628e-05
14 *661:B *402:8 0
15 *41:10 *402:8 2.53979e-05
16 *133:10 *402:8 0
17 *141:44 *402:8 8.62988e-06
18 *141:46 *402:8 3.58899e-06
19 *141:50 *402:8 3.06221e-06
20 *142:22 *402:14 5.19475e-06
21 *147:33 *402:14 0
22 *187:14 *402:8 1.34402e-05
23 *209:23 *402:8 9.61323e-06
24 *209:44 *402:8 1.26929e-05
25 *209:57 *402:8 0
*RES
1 *945:Y *402:6 34.4 
2 *402:6 *402:8 46.7428 
3 *402:8 *402:14 47.9191 
4 *402:14 *402:22 42.5641 
5 *402:22 *544:C 17.2 
6 *402:14 *538:A1 17.2 
7 *402:8 *664:A 34.4 
*END

*D_NET *403 0.000378835
*CONN
*I *1028:A I *D BUFx3_ASAP7_75t_SL
*I *532:A2 I *D AO21x1_ASAP7_75t_SL
*I *525:A1 I *D OA21x2_ASAP7_75t_SL
*I *943:Y O *D BUFx3_ASAP7_75t_SL
*CAP
1 *1028:A 0
2 *532:A2 0
3 *525:A1 8.23859e-06
4 *943:Y 4.16326e-05
5 *403:40 1.92264e-05
6 *403:22 2.99065e-05
7 *403:16 2.50994e-05
8 *403:14 2.72625e-05
9 *403:6 8.469e-05
10 *403:16 *488:30 8.65792e-06
11 *525:A2 *525:A1 1.29755e-05
12 *595:B *403:40 0
13 *26:23 *403:14 0
14 *29:20 *403:22 9.67251e-06
15 *29:26 *403:22 1.03991e-05
16 *29:68 *403:22 4.89331e-06
17 *30:12 *403:6 2.68404e-05
18 *30:12 *403:40 0
19 *31:31 *403:22 2.03503e-05
20 *33:8 *403:22 2.28976e-06
21 *138:10 *403:14 3.79923e-06
22 *138:10 *403:16 3.73144e-06
23 *202:14 *403:6 6.7842e-07
24 *202:14 *403:14 1.1199e-05
25 *344:6 *403:6 7.31327e-06
26 *400:23 *403:40 1.99791e-05
*RES
1 *943:Y *403:6 39.1278 
2 *403:6 *403:14 48.054 
3 *403:14 *403:16 4.2786 
4 *403:16 *403:22 35.7241 
5 *403:22 *525:A1 38.1438 
6 *403:16 *532:A2 17.2 
7 *403:6 *403:40 35.7845 
8 *403:40 *1028:A 34.4 
*END

*D_NET *404 0.000343801
*CONN
*I *568:A I *D XNOR2x2_ASAP7_75t_SL
*I *574:C I *D OR3x1_ASAP7_75t_SL
*I *571:C I *D AND4x1_ASAP7_75t_SL
*I *947:Y O *D BUFx3_ASAP7_75t_SL
*CAP
1 *568:A 0
2 *574:C 2.56617e-06
3 *571:C 3.37755e-06
4 *947:Y 2.38115e-05
5 *404:40 3.2388e-05
6 *404:34 4.56173e-05
7 *404:21 3.12604e-05
8 *404:10 4.2654e-05
9 *404:10 *408:20 4.83862e-06
10 *404:21 *408:20 8.46363e-06
11 *404:21 *423:8 6.0034e-06
12 *404:21 *444:48 1.91241e-06
13 *404:34 *423:8 9.50048e-06
14 *404:34 *444:33 0
15 *404:40 *444:22 7.79295e-06
16 *404:40 *444:33 2.12062e-05
17 *568:B *404:40 1.25606e-05
18 *947:A *404:10 6.53938e-06
19 *159:33 *404:40 8.06799e-07
20 *161:14 *404:40 8.71771e-06
21 *162:14 *574:C 1.40419e-08
22 *166:8 *404:10 0
23 *168:10 *404:10 5.09995e-06
24 *168:10 *404:21 4.93838e-05
25 *168:10 *404:34 6.77553e-06
26 *169:8 *404:21 3.05118e-08
27 *352:8 *404:40 1.24805e-05
28 *353:8 *404:34 0
*RES
1 *947:Y *404:10 46.2512 
2 *404:10 *571:C 36.0045 
3 *404:10 *404:21 17.4581 
4 *404:21 *574:C 35.4697 
5 *404:21 *404:34 28.4633 
6 *404:34 *404:40 45.1526 
7 *404:40 *568:A 34.4 
*END

*D_NET *405 9.98179e-05
*CONN
*I *938:A I *D BUFx2_ASAP7_75t_SL
*I *948:Y O *D BUFx3_ASAP7_75t_SL
*CAP
1 *938:A 0
2 *948:Y 0
3 *405:10 1.72934e-05
4 *405:6 1.72934e-05
5 *335:13 *405:10 6.5231e-05
*RES
1 *948:Y *405:6 34.4 
2 *405:6 *405:10 38.6003 
3 *405:10 *938:A 17.2 
*END

*D_NET *406 3.86063e-05
*CONN
*I *609:A1 I *D AO211x2_ASAP7_75t_SL
*I *949:Y O *D BUFx3_ASAP7_75t_SL
*CAP
1 *609:A1 1.21573e-05
2 *949:Y 4.97741e-06
3 *406:8 1.71347e-05
4 *406:8 *411:21 3.32579e-06
5 *406:8 *432:60 0
6 *194:10 *609:A1 1.01102e-06
*RES
1 *949:Y *406:8 38.9053 
2 *406:8 *609:A1 41.3527 
*END

*D_NET *407 0.000114257
*CONN
*I *564:B I *D XNOR2x2_ASAP7_75t_SL
*I *950:Y O *D BUFx3_ASAP7_75t_SL
*CAP
1 *564:B 0
2 *950:Y 6.59023e-06
3 *407:12 1.77311e-05
4 *407:8 2.43213e-05
5 *407:8 *445:55 2.30206e-06
6 *407:12 *419:30 1.49407e-08
7 *407:12 *445:36 1.64764e-06
8 *407:12 *445:55 8.58704e-06
9 *950:A *407:12 1.89962e-06
10 *51:10 *407:12 1.71813e-05
11 *53:25 *407:12 2.38942e-05
12 *159:33 *407:12 9.21329e-07
13 *160:10 *407:12 8.53334e-06
14 *161:14 *407:12 6.33206e-07
*RES
1 *950:Y *407:8 37.0741 
2 *407:8 *407:12 35.7845 
3 *407:12 *564:B 17.2 
*END

*D_NET *408 0.000434168
*CONN
*I *596:A1 I *D AO21x1_ASAP7_75t_SL
*I *571:D I *D AND4x1_ASAP7_75t_SL
*I *951:Y O *D BUFx3_ASAP7_75t_SL
*CAP
1 *596:A1 2.29207e-05
2 *571:D 2.15365e-06
3 *951:Y 0
4 *408:33 5.91359e-05
5 *408:20 4.34792e-05
6 *408:16 5.28797e-05
7 *408:12 2.40699e-05
8 *408:4 4.8731e-05
9 *408:12 *964:A 2.03526e-06
10 *408:12 *492:8 8.33296e-06
11 *408:16 *964:A 1.96943e-05
12 *408:20 *414:10 3.05118e-08
13 *408:20 *444:48 2.25787e-06
14 *408:33 *433:16 9.00229e-06
15 *956:A *408:20 3.03346e-06
16 *44:10 *408:33 8.33296e-06
17 *47:10 *408:20 0
18 *48:8 *408:12 5.52807e-07
19 *48:8 *408:20 9.67723e-06
20 *53:40 *408:20 8.03005e-06
21 *113:27 *408:12 6.33206e-07
22 *113:33 *408:12 7.98105e-06
23 *113:33 *408:33 2.80106e-05
24 *113:39 *408:33 1.56717e-05
25 *117:24 *408:20 9.93857e-06
26 *117:30 *408:20 0
27 *122:16 *596:A1 2.0779e-05
28 *166:8 *571:D 1.35684e-06
29 *168:10 *408:20 8.64069e-06
30 *335:21 *408:33 1.12894e-06
31 *353:8 *408:20 0
32 *353:23 *408:20 2.37557e-06
33 *404:10 *408:20 4.83862e-06
34 *404:21 *408:20 8.46363e-06
*RES
1 *951:Y *408:4 17.2 
2 *408:4 *408:12 44.2252 
3 *408:12 *408:16 23.0831 
4 *408:16 *408:20 49.3005 
5 *408:20 *571:D 18.2696 
6 *408:4 *408:33 49.4312 
7 *408:33 *596:A1 46.1661 
*END

*D_NET *409 0.000525142
*CONN
*I *710:A2 I *D OA21x2_ASAP7_75t_SL
*I *715:A2 I *D OA21x2_ASAP7_75t_SL
*I *685:A2 I *D OA21x2_ASAP7_75t_SL
*I *952:Y O *D BUFx6f_ASAP7_75t_SL
*CAP
1 *710:A2 1.09164e-05
2 *715:A2 3.44799e-06
3 *685:A2 9.03547e-06
4 *952:Y 6.67118e-05
5 *409:29 1.99668e-05
6 *409:16 3.28069e-05
7 *409:12 2.78539e-05
8 *409:6 7.63967e-05
9 *685:A2 *467:27 5.19552e-07
10 *685:A2 *467:51 5.19498e-06
11 *685:A2 *493:10 1.182e-05
12 *710:A2 *493:10 4.16806e-05
13 *715:A2 *781:CLK 7.80516e-06
14 *409:12 *454:12 0
15 *409:16 *461:64 1.03507e-05
16 *409:29 *493:10 2.81248e-05
17 *715:B *715:A2 6.7842e-07
18 *6:6 *409:6 0
19 *87:10 *409:12 3.79093e-06
20 *87:10 *409:16 4.02391e-06
21 *213:34 *685:A2 2.28488e-05
22 *213:34 *710:A2 4.32093e-05
23 *213:34 *409:29 2.92223e-05
24 *279:24 *409:16 5.72878e-05
25 *301:6 *409:6 1.14488e-05
*RES
1 *952:Y *409:6 47.685 
2 *409:6 *409:12 40.0317 
3 *409:12 *409:16 32.7099 
4 *409:16 *685:A2 44.4236 
5 *409:16 *409:29 10.137 
6 *409:29 *715:A2 36.5393 
7 *409:29 *710:A2 49.6055 
*END

*D_NET *410 0.000210951
*CONN
*I *536:A I *D AND4x1_ASAP7_75t_SL
*I *666:A2 I *D OA211x2_ASAP7_75t_SL
*I *661:C I *D OA211x2_ASAP7_75t_SL
*I *953:Y O *D BUFx3_ASAP7_75t_SL
*CAP
1 *536:A 0
2 *666:A2 0
3 *661:C 4.86636e-06
4 *953:Y 4.40772e-06
5 *410:35 1.44837e-05
6 *410:27 2.83054e-05
7 *410:19 2.78826e-05
8 *410:10 1.89273e-05
9 *410:8 4.40772e-06
10 *410:27 *431:14 3.3921e-06
11 *35:10 *410:27 4.62374e-07
12 *35:10 *410:35 3.14372e-05
13 *134:10 *410:27 9.38768e-06
14 *134:10 *410:35 2.49275e-05
15 *137:20 *410:27 5.75943e-07
16 *142:8 *410:19 1.7636e-06
17 *147:116 *410:8 1.03986e-06
18 *147:116 *410:27 4.2739e-06
19 *149:137 *410:8 2.02029e-05
20 *149:137 *410:35 0
21 *230:12 *410:8 1.02072e-05
*RES
1 *953:Y *410:8 41.158 
2 *410:8 *410:10 17.2 
3 *410:10 *661:C 19.3393 
4 *410:10 *410:19 6.95272 
5 *410:19 *410:27 42.7058 
6 *410:27 *410:35 47.2678 
7 *410:35 *666:A2 17.2 
8 *410:19 *536:A 17.2 
*END

*D_NET *411 0.000146601
*CONN
*I *600:B I *D AND3x1_ASAP7_75t_SL
*I *604:B I *D OR2x2_ASAP7_75t_SL
*I *954:Y O *D BUFx3_ASAP7_75t_SL
*CAP
1 *600:B 0
2 *604:B 0
3 *954:Y 0
4 *411:21 2.84475e-05
5 *411:8 5.15403e-05
6 *411:6 2.30928e-05
7 *411:8 *432:46 1.70866e-06
8 *411:21 *606:A1 7.35354e-06
9 *411:21 *432:46 1.64764e-06
10 *411:21 *432:60 0
11 *176:25 *411:8 9.93746e-06
12 *176:25 *411:21 1.41724e-06
13 *183:12 *411:8 0
14 *183:20 *411:8 5.37569e-06
15 *186:18 *411:8 0
16 *335:21 *411:8 5.00394e-06
17 *335:21 *411:21 7.75e-06
18 *406:8 *411:21 3.32579e-06
*RES
1 *954:Y *411:6 34.4 
2 *411:6 *411:8 20.274 
3 *411:8 *604:B 34.4 
4 *411:8 *411:21 40.2295 
5 *411:21 *600:B 17.2 
*END

*D_NET *412 2.73319e-05
*CONN
*I *551:B I *D XNOR2x2_ASAP7_75t_SL
*I *955:Y O *D BUFx3_ASAP7_75t_SL
*CAP
1 *551:B 0
2 *955:Y 1.33913e-05
3 *412:10 1.33913e-05
4 *412:10 *438:10 5.49212e-07
5 *347:14 *412:10 0
*RES
1 *955:Y *412:10 41.6361 
2 *412:10 *551:B 34.4 
*END

*D_NET *413 0.000149179
*CONN
*I *571:B I *D AND4x1_ASAP7_75t_SL
*I *564:A I *D XNOR2x2_ASAP7_75t_SL
*I *956:Y O *D BUFx3_ASAP7_75t_SL
*CAP
1 *571:B 0
2 *564:A 2.88559e-05
3 *956:Y 6.16532e-06
4 *413:12 2.98208e-05
5 *413:8 7.13022e-06
6 *564:A *446:6 7.80516e-06
7 *564:A *446:16 5.41446e-06
8 *413:8 *571:A 2.20128e-06
9 *166:8 *564:A 2.64148e-05
10 *166:8 *413:12 3.68287e-06
11 *168:10 *413:8 2.37635e-05
12 *170:18 *564:A 4.74894e-06
13 *351:6 *564:A 1.27782e-06
14 *353:8 *413:8 1.89747e-06
*RES
1 *956:Y *413:8 42.2843 
2 *413:8 *413:12 18.2696 
3 *413:12 *564:A 36.4537 
4 *413:12 *571:B 17.2 
*END

*D_NET *414 0.000375271
*CONN
*I *572:A I *D OR3x1_ASAP7_75t_SL
*I *575:A1 I *D OA211x2_ASAP7_75t_SL
*I *569:A I *D AND3x1_ASAP7_75t_SL
*I *957:Y O *D BUFx3_ASAP7_75t_SL
*CAP
1 *572:A 1.40523e-05
2 *575:A1 1.51358e-06
3 *569:A 1.62831e-06
4 *957:Y 1.99894e-05
5 *414:29 2.4903e-05
6 *414:18 2.17861e-05
7 *414:16 2.84324e-05
8 *414:10 3.76012e-05
9 *414:16 *446:55 0
10 *414:18 *446:27 1.12901e-05
11 *414:29 *444:10 7.94305e-06
12 *414:29 *446:16 2.63836e-06
13 *414:29 *446:27 2.84714e-05
14 *519:B *569:A 5.85387e-06
15 *575:B *572:A 1.04475e-06
16 *575:C *572:A 2.9878e-05
17 *576:A *569:A 5.85387e-06
18 *957:A *414:10 6.86929e-06
19 *159:33 *572:A 0
20 *159:33 *414:18 0
21 *159:33 *414:29 0
22 *165:10 *572:A 4.8043e-06
23 *165:10 *414:18 3.6427e-05
24 *165:10 *414:29 4.82276e-05
25 *167:8 *572:A 3.18293e-05
26 *171:8 *414:18 1.10561e-06
27 *353:23 *414:10 3.09718e-06
28 *408:20 *414:10 3.05118e-08
*RES
1 *957:Y *414:10 44.5245 
2 *414:10 *414:16 41.326 
3 *414:16 *414:18 13.0467 
4 *414:18 *569:A 36.0045 
5 *414:18 *414:29 16.3318 
6 *414:29 *575:A1 35.4697 
7 *414:29 *572:A 48.3905 
*END

*D_NET *415 0.000315786
*CONN
*I *553:A2 I *D OA21x2_ASAP7_75t_SL
*I *558:A2 I *D OA211x2_ASAP7_75t_SL
*I *958:Y O *D BUFx3_ASAP7_75t_SL
*CAP
1 *553:A2 0
2 *558:A2 0
3 *958:Y 2.27744e-05
4 *415:28 1.32832e-05
5 *415:20 4.75606e-05
6 *415:16 6.17127e-05
7 *415:10 5.02097e-05
8 *415:16 *483:162 0
9 *415:20 *734:A1 0
10 *415:20 *773:CLK 1.41101e-06
11 *415:20 *468:35 0
12 *415:20 *471:14 0
13 *415:20 *471:155 2.24214e-06
14 *415:20 *478:8 1.86001e-05
15 *415:28 *417:8 1.64764e-06
16 *415:28 *468:10 0
17 *553:A1 *415:28 9.30483e-06
18 *558:A1 *415:28 6.15972e-06
19 *22:28 *415:10 2.32626e-06
20 *69:10 *415:20 2.01457e-05
21 *69:10 *415:28 1.89962e-06
22 *95:10 *415:20 9.67723e-06
23 *293:6 *415:10 1.41719e-05
24 *293:14 *415:10 0
25 *293:27 *415:20 1.12894e-06
26 *293:35 *415:20 3.153e-05
27 *346:31 *415:10 0
*RES
1 *958:Y *415:10 46.4761 
2 *415:10 *415:16 42.6246 
3 *415:16 *415:20 49.0189 
4 *415:20 *415:28 44.9018 
5 *415:28 *558:A2 17.2 
6 *415:20 *553:A2 17.2 
*END

*D_NET *416 0.000240726
*CONN
*I *551:A I *D XNOR2x2_ASAP7_75t_SL
*I *560:A2 I *D AO21x1_ASAP7_75t_SL
*I *554:A1 I *D OA21x2_ASAP7_75t_SL
*I *959:Y O *D BUFx3_ASAP7_75t_SL
*CAP
1 *551:A 0
2 *560:A2 0
3 *554:A1 0
4 *959:Y 0
5 *416:38 1.60153e-05
6 *416:27 1.83103e-05
7 *416:14 2.66381e-05
8 *416:6 7.38526e-05
9 *416:4 4.49195e-05
10 *416:6 *478:86 0
11 *416:14 *476:77 3.6269e-06
12 *416:14 *478:86 0
13 *502:A *416:6 3.65131e-06
14 *502:A *416:14 2.80323e-06
15 *554:A2 *416:14 1.07377e-06
16 *687:B1 *416:38 0
17 *959:A *416:6 6.6195e-06
18 *1010:A *416:38 5.37866e-07
19 *22:8 *416:38 1.09067e-06
20 *64:18 *416:38 6.42451e-07
21 *65:12 *416:27 4.43244e-06
22 *65:23 *416:27 8.18584e-06
23 *65:36 *416:27 6.35292e-07
24 *65:53 *416:27 0
25 *66:10 *416:38 9.67723e-06
26 *108:10 *416:6 1.51653e-06
27 *108:10 *416:27 0
28 *154:10 *416:14 1.25483e-05
29 *156:12 *416:14 3.92018e-06
30 *157:10 *416:27 2.90209e-08
31 *347:14 *416:38 0
*RES
1 *959:Y *416:4 17.2 
2 *416:4 *416:6 14.4403 
3 *416:6 *416:14 48.4472 
4 *416:14 *554:A1 17.2 
5 *416:6 *416:27 46.733 
6 *416:27 *560:A2 17.2 
7 *416:4 *416:38 46.2265 
8 *416:38 *551:A 17.2 
*END

*D_NET *417 0.00033058
*CONN
*I *559:B I *D OR2x2_ASAP7_75t_SL
*I *556:A1 I *D OA21x2_ASAP7_75t_SL
*I *504:C I *D OR3x1_ASAP7_75t_SL
*I *555:A I *D XOR2x2_ASAP7_75t_SL
*I *960:Y O *D BUFx3_ASAP7_75t_SL
*CAP
1 *559:B 6.7802e-06
2 *556:A1 1.06207e-06
3 *504:C 9.00482e-06
4 *555:A 5.75673e-06
5 *960:Y 1.35381e-05
6 *417:41 2.0111e-05
7 *417:35 2.43691e-05
8 *417:27 3.93215e-05
9 *417:25 3.63869e-05
10 *417:10 2.18032e-05
11 *417:8 1.35381e-05
12 *504:C *531:D 5.33594e-07
13 *417:8 *468:10 0
14 *417:8 *478:8 0
15 *417:25 *437:16 0
16 *417:25 *479:110 1.39984e-06
17 *417:35 *559:A 8.06799e-07
18 *417:35 *437:16 3.84173e-05
19 *417:41 *437:16 1.3882e-05
20 *558:A1 *417:8 0
21 *561:B *417:35 1.09842e-06
22 *62:14 *417:8 2.21732e-05
23 *62:14 *417:25 2.68933e-07
24 *65:36 *559:B 1.07377e-06
25 *65:36 *417:27 1.62517e-06
26 *110:6 *504:C 2.20493e-06
27 *111:23 *417:35 1.12894e-06
28 *111:23 *417:41 9.47947e-06
29 *155:10 *417:41 1.15587e-05
30 *155:16 *556:A1 3.89037e-06
31 *155:16 *417:35 5.85387e-06
32 *156:12 *417:35 1.30409e-05
33 *348:6 *555:A 7.46759e-06
34 *348:6 *417:25 1.35684e-06
35 *415:28 *417:8 1.64764e-06
*RES
1 *960:Y *417:8 45.6633 
2 *417:8 *417:10 17.2 
3 *417:10 *555:A 22.5483 
4 *417:10 *417:25 44.2252 
5 *417:25 *417:27 8.02238 
6 *417:27 *417:35 48.9573 
7 *417:35 *417:41 46.7897 
8 *417:41 *504:C 22.0134 
9 *417:35 *556:A1 18.2696 
10 *417:27 *559:B 19.8741 
*END

*D_NET *418 0.000358043
*CONN
*I *559:A I *D OR2x2_ASAP7_75t_SL
*I *505:A1 I *D OA21x2_ASAP7_75t_SL
*I *504:B I *D OR3x1_ASAP7_75t_SL
*I *557:A I *D XOR2x2_ASAP7_75t_SL
*I *961:Y O *D BUFx3_ASAP7_75t_SL
*CAP
1 *559:A 1.0961e-05
2 *505:A1 8.49545e-06
3 *504:B 1.13417e-05
4 *557:A 3.49662e-06
5 *961:Y 2.96796e-05
6 *418:61 2.85157e-05
7 *418:44 1.85228e-05
8 *418:36 3.62847e-05
9 *418:10 2.21797e-05
10 *418:6 4.57236e-05
11 *504:B *531:D 1.36155e-06
12 *505:A1 *468:10 0
13 *559:A *494:58 1.24703e-05
14 *418:36 *437:16 3.79923e-06
15 *418:44 *437:16 6.31056e-06
16 *418:44 *480:28 2.25106e-05
17 *556:B *557:A 9.30483e-06
18 *557:B *418:10 0
19 *561:B *559:A 4.83862e-06
20 *561:B *418:61 1.35684e-06
21 *59:6 *505:A1 1.23408e-05
22 *62:14 *505:A1 2.20128e-06
23 *62:14 *418:44 1.95129e-06
24 *62:27 *505:A1 3.16603e-06
25 *62:27 *418:10 4.43244e-06
26 *62:27 *418:36 2.68933e-07
27 *62:27 *418:44 7.95558e-06
28 *111:8 *418:61 2.40241e-05
29 *111:23 *559:A 4.83862e-06
30 *155:16 *418:6 8.146e-06
31 *155:16 *418:36 3.56648e-06
32 *156:12 *559:A 5.49212e-07
33 *349:8 *504:B 6.6421e-06
34 *417:35 *559:A 8.06799e-07
*RES
1 *961:Y *418:6 31.6403 
2 *418:6 *418:10 22.2685 
3 *418:10 *557:A 37.0741 
4 *418:10 *504:B 42.2276 
5 *418:6 *418:36 23.2531 
6 *418:36 *418:44 46.4212 
7 *418:44 *505:A1 42.0859 
8 *418:36 *418:61 42.4224 
9 *418:61 *559:A 44.537 
*END

*D_NET *419 0.000851161
*CONN
*I *579:A I *D OR2x2_ASAP7_75t_SL
*I *565:B I *D OR2x2_ASAP7_75t_SL
*I *562:A I *D XOR2x2_ASAP7_75t_SL
*I *962:Y O *D BUFx3_ASAP7_75t_SL
*CAP
1 *579:A 3.79904e-06
2 *565:B 1.37677e-05
3 *562:A 0
4 *962:Y 9.25151e-06
5 *419:38 1.81647e-05
6 *419:32 0.000102035
7 *419:30 9.21576e-05
8 *419:17 8.19567e-05
9 *419:8 7.2952e-05
10 *565:B *445:25 3.13426e-06
11 *565:B *445:32 3.13426e-06
12 *419:8 *476:81 2.18514e-05
13 *419:17 *445:25 0
14 *419:17 *445:36 0.000103902
15 *419:17 *476:81 1.51704e-05
16 *419:30 *445:25 0
17 *419:30 *445:36 1.182e-05
18 *419:32 *445:74 1.71911e-06
19 *419:38 *425:44 1.49407e-08
20 *579:B *419:38 3.74802e-05
21 *582:A *419:38 5.49212e-07
22 *56:19 *419:17 2.80195e-05
23 *56:27 *419:17 0
24 *160:10 *419:8 5.66988e-06
25 *160:10 *419:17 4.57242e-05
26 *160:37 *419:32 0.000146957
27 *172:10 *419:38 2.20028e-06
28 *186:12 *579:A 9.30483e-06
29 *286:6 *419:32 0
30 *354:23 *419:38 1.67629e-05
31 *360:26 *419:17 3.647e-06
32 *407:12 *419:30 1.49407e-08
*RES
1 *962:Y *419:8 42.2843 
2 *419:8 *562:A 34.4 
3 *419:8 *419:17 72.0853 
4 *419:17 *565:B 41.3527 
5 *419:17 *419:30 21.9869 
6 *419:30 *419:32 34.8465 
7 *419:32 *419:38 49.8871 
8 *419:38 *579:A 19.8741 
*END

*D_NET *420 5.18487e-05
*CONN
*I *962:A I *D BUFx3_ASAP7_75t_SL
*I *506:A1 I *D OA21x2_ASAP7_75t_SL
*I *963:Y O *D BUFx3_ASAP7_75t_SL
*CAP
1 *962:A 6.2034e-06
2 *506:A1 5.77387e-06
3 *963:Y 1.18169e-05
4 *420:8 2.37942e-05
5 *506:A1 *437:16 4.84697e-07
6 *962:A *437:16 1.51281e-06
7 *962:A *494:14 2.26278e-06
*RES
1 *963:Y *420:8 39.2134 
2 *420:8 *506:A1 38.7636 
3 *420:8 *962:A 38.9053 
*END

*D_NET *421 0.000144278
*CONN
*I *1025:A I *D BUFx3_ASAP7_75t_SL
*I *946:Y O *D BUFx3_ASAP7_75t_SL
*CAP
1 *1025:A 0
2 *946:Y 5.26026e-05
3 *421:12 1.95367e-05
4 *421:6 7.21392e-05
*RES
1 *946:Y *421:6 39.1278 
2 *421:6 *421:12 47.3528 
3 *421:12 *1025:A 17.2 
*END

*D_NET *422 0.000141071
*CONN
*I *996:A I *D BUFx3_ASAP7_75t_SL
*I *964:Y O *D BUFx3_ASAP7_75t_SL
*CAP
1 *996:A 0
2 *964:Y 6.09867e-06
3 *422:12 2.28231e-05
4 *422:8 2.89217e-05
5 *422:12 *453:6 1.62312e-05
6 *754:A *422:8 4.83862e-06
7 *754:A *422:12 9.31704e-06
8 *754:B *422:12 3.85237e-05
9 *1036:A *422:12 5.51397e-07
10 *46:6 *422:12 9.30483e-06
11 *47:6 *422:12 1.01102e-06
12 *48:8 *422:8 2.83874e-07
13 *269:8 *422:8 3.16603e-06
*RES
1 *964:Y *422:8 38.9053 
2 *422:8 *422:12 35.9189 
3 *422:12 *996:A 17.2 
*END

*D_NET *423 0.000234978
*CONN
*I *578:C I *D OR3x1_ASAP7_75t_SL
*I *512:A I *D INVx1_ASAP7_75t_SL
*I *581:B I *D OR3x1_ASAP7_75t_SL
*I *572:C I *D OR3x1_ASAP7_75t_SL
*I *966:Y O *D BUFx3_ASAP7_75t_SL
*CAP
1 *578:C 1.28912e-05
2 *512:A 0
3 *581:B 0
4 *572:C 0
5 *966:Y 1.25993e-05
6 *423:32 2.03129e-05
7 *423:24 4.39864e-05
8 *423:17 2.13181e-05
9 *423:10 1.05358e-05
10 *423:8 1.25993e-05
11 *578:C *578:A 1.02586e-05
12 *578:C *578:B 2.82973e-06
13 *423:8 *444:33 2.06408e-06
14 *423:17 *424:32 7.38275e-06
15 *423:24 *578:B 5.67676e-06
16 *423:32 *578:A 1.75657e-06
17 *423:32 *424:26 0
18 *423:32 *445:74 0
19 *575:C *423:17 5.41446e-06
20 *947:A *423:32 3.93097e-06
21 *162:22 *423:8 3.33004e-06
22 *162:28 *423:8 0
23 *162:28 *423:32 0
24 *167:8 *423:17 9.52454e-06
25 *169:8 *423:8 1.27747e-05
26 *175:8 *578:C 5.62196e-06
27 *175:8 *423:24 1.46661e-05
28 *404:21 *423:8 6.0034e-06
29 *404:34 *423:8 9.50048e-06
*RES
1 *966:Y *423:8 47.3528 
2 *423:8 *423:10 17.2 
3 *423:10 *572:C 17.2 
4 *423:10 *423:17 8.5572 
5 *423:17 *581:B 17.2 
6 *423:17 *423:24 7.48755 
7 *423:24 *423:32 46.0281 
8 *423:32 *512:A 17.2 
9 *423:24 *578:C 25.2224 
*END

*D_NET *424 0.000543373
*CONN
*I *518:A I *D OR2x2_ASAP7_75t_SL
*I *510:A I *D INVx1_ASAP7_75t_SL
*I *580:A1 I *D OA21x2_ASAP7_75t_SL
*I *589:B I *D OR4x2_ASAP7_75t_SL
*I *578:A I *D OR3x1_ASAP7_75t_SL
*I *581:A I *D OR3x1_ASAP7_75t_SL
*I *574:A I *D OR3x1_ASAP7_75t_SL
*I *571:A I *D AND4x1_ASAP7_75t_SL
*I *967:Y O *D BUFx6f_ASAP7_75t_SL
*CAP
1 *518:A 1.16568e-05
2 *510:A 0
3 *580:A1 8.17507e-06
4 *589:B 5.62502e-06
5 *578:A 9.78282e-06
6 *581:A 0
7 *574:A 1.65778e-05
8 *571:A 8.67109e-06
9 *967:Y 0
10 *424:65 1.54078e-05
11 *424:63 3.55019e-05
12 *424:32 3.93185e-05
13 *424:28 1.40695e-05
14 *424:26 7.82857e-05
15 *424:20 5.64308e-05
16 *424:14 1.03253e-05
17 *424:10 2.8362e-05
18 *424:4 3.51655e-05
19 *578:A *578:B 4.56834e-06
20 *589:B *589:C 1.36155e-06
21 *424:26 *444:48 2.98814e-08
22 *424:26 *445:74 2.05045e-06
23 *424:63 *589:D 1.27152e-05
24 *424:63 *445:74 6.55151e-06
25 *519:A2 *424:26 7.08932e-07
26 *519:B *424:26 1.07377e-06
27 *520:A1 *518:A 7.15893e-06
28 *575:C *424:32 2.72676e-05
29 *578:C *578:A 1.02586e-05
30 *957:A *424:14 6.15528e-07
31 *47:10 *424:10 8.45637e-06
32 *47:14 *518:A 6.13663e-06
33 *47:14 *424:10 4.10256e-06
34 *47:18 *424:10 0
35 *47:18 *424:26 0
36 *53:63 *424:26 5.58366e-06
37 *53:63 *424:32 1.81825e-05
38 *116:21 *424:10 8.2174e-07
39 *117:30 *424:10 1.64348e-06
40 *162:14 *574:A 5.19552e-07
41 *168:10 *571:A 2.25787e-06
42 *168:10 *574:A 9.21329e-07
43 *169:8 *424:63 0
44 *175:12 *578:A 9.67723e-06
45 *175:12 *589:B 1.01392e-05
46 *353:8 *571:A 9.29071e-06
47 *353:8 *574:A 5.94518e-06
48 *361:10 *589:B 6.38283e-07
49 *413:8 *571:A 2.20128e-06
50 *423:17 *424:32 7.38275e-06
51 *423:32 *578:A 1.75657e-06
52 *423:32 *424:26 0
*RES
1 *967:Y *424:4 17.2 
2 *424:4 *424:10 33.3901 
3 *424:10 *424:14 18.8045 
4 *424:14 *424:20 37.779 
5 *424:20 *424:26 42.7939 
6 *424:26 *424:28 17.2 
7 *424:28 *424:32 30.5706 
8 *424:32 *571:A 42.2843 
9 *424:32 *574:A 44.4236 
10 *424:28 *581:A 17.2 
11 *424:26 *424:63 35.1893 
12 *424:63 *424:65 17.2 
13 *424:65 *578:A 42.7058 
14 *424:65 *589:B 39.4118 
15 *424:20 *580:A1 20.409 
16 *424:14 *510:A 17.2 
17 *424:4 *518:A 25.2224 
*END

*D_NET *425 0.000345008
*CONN
*I *585:A I *D OR2x4_ASAP7_75t_SL
*I *584:A I *D XNOR2x2_ASAP7_75t_SL
*I *592:B I *D OR3x1_ASAP7_75t_SL
*I *589:C I *D OR4x2_ASAP7_75t_SL
*I *968:Y O *D BUFx3_ASAP7_75t_SL
*CAP
1 *585:A 0
2 *584:A 0
3 *592:B 2.14977e-06
4 *589:C 2.02687e-05
5 *968:Y 3.89314e-06
6 *425:44 1.6507e-05
7 *425:29 2.1362e-05
8 *425:18 3.58814e-05
9 *425:12 2.13947e-05
10 *425:8 1.23803e-05
11 *589:C *428:58 1.10229e-06
12 *592:B *592:A 7.79295e-06
13 *425:8 *428:50 1.64854e-05
14 *425:12 *428:50 8.36908e-06
15 *425:18 *428:50 2.12481e-06
16 *425:18 *428:58 3.09382e-05
17 *582:A *425:44 1.47844e-05
18 *585:B *425:18 5.09299e-06
19 *589:B *589:C 1.36155e-06
20 *593:C *592:B 7.79295e-06
21 *174:8 *425:18 1.12034e-05
22 *174:8 *425:29 1.63973e-05
23 *174:8 *425:44 8.06436e-06
24 *176:14 *425:44 5.37866e-07
25 *177:12 *425:44 6.7842e-07
26 *178:6 *425:12 1.95129e-06
27 *335:21 *425:8 6.8919e-06
28 *354:23 *425:44 0
29 *361:10 *425:18 1.16248e-05
30 *361:10 *425:29 1.53071e-05
31 *361:10 *425:44 4.26552e-05
32 *419:38 *425:44 1.49407e-08
*RES
1 *968:Y *425:8 40.0317 
2 *425:8 *425:12 23.0831 
3 *425:12 *425:18 31.3038 
4 *425:18 *589:C 41.3527 
5 *425:18 *425:29 5.63166 
6 *425:29 *592:B 36.5393 
7 *425:29 *425:44 34.01 
8 *425:44 *584:A 17.2 
9 *425:12 *585:A 17.2 
*END

*D_NET *426 9.72869e-05
*CONN
*I *968:A I *D BUFx3_ASAP7_75t_SL
*I *515:B I *D NOR2x1_ASAP7_75t_SL
*I *969:Y O *D BUFx3_ASAP7_75t_SL
*CAP
1 *968:A 5.33397e-06
2 *515:B 0
3 *969:Y 3.66689e-06
4 *426:10 2.10449e-05
5 *426:8 1.93778e-05
6 *42:47 *968:A 8.52021e-06
7 *121:25 *968:A 7.2538e-06
8 *122:6 *426:8 2.54045e-06
9 *124:25 *426:10 1.53071e-05
10 *125:14 *426:10 3.16603e-06
11 *335:21 *968:A 2.19685e-06
12 *335:21 *426:10 2.77657e-06
13 *354:23 *968:A 5.49212e-07
14 *354:23 *426:10 5.55315e-06
*RES
1 *969:Y *426:8 36.0045 
2 *426:8 *426:10 14.0792 
3 *426:10 *515:B 34.4 
4 *426:10 *968:A 42.2843 
*END

*D_NET *427 0.000442862
*CONN
*I *533:B I *D AO21x1_ASAP7_75t_SL
*I *524:A2 I *D OA21x2_ASAP7_75t_SL
*I *975:A I *D BUFx3_ASAP7_75t_SL
*I *965:Y O *D BUFx3_ASAP7_75t_SL
*CAP
1 *533:B 0
2 *524:A2 0
3 *975:A 2.67083e-05
4 *965:Y 6.1003e-06
5 *427:50 1.11719e-05
6 *427:42 2.96332e-05
7 *427:22 4.93031e-05
8 *427:14 9.31533e-05
9 *427:8 5.81975e-05
10 *427:8 *618:A1 5.19552e-07
11 *427:14 *430:36 0
12 *427:14 *430:42 3.67836e-06
13 *427:14 *484:22 0
14 *427:22 *430:36 0
15 *427:22 *431:60 2.41931e-06
16 *427:22 *441:49 1.35892e-06
17 *427:22 *484:22 0
18 *427:50 *487:8 2.90209e-08
19 *595:B *427:14 0
20 *610:C *427:42 6.76763e-07
21 *26:23 *427:14 3.24742e-05
22 *26:31 *427:14 0
23 *29:26 *427:14 0
24 *31:31 *427:50 2.25802e-05
25 *33:14 *427:14 6.94205e-06
26 *35:33 *427:42 2.0915e-06
27 *35:41 *975:A 1.59615e-06
28 *35:47 *975:A 5.8332e-06
29 *35:53 *975:A 2.79851e-06
30 *130:10 *427:42 5.37569e-06
31 *132:6 *427:42 1.32196e-05
32 *139:8 *427:50 2.20493e-06
33 *139:10 *427:42 2.11907e-06
34 *139:10 *427:50 1.61287e-05
35 *140:10 *427:14 5.03027e-06
36 *141:16 *427:22 9.16039e-06
37 *186:38 *427:8 7.63254e-07
38 *199:10 *427:22 2.25196e-06
39 *290:31 *427:42 2.66508e-05
40 *290:31 *427:50 2.69203e-06
*RES
1 *965:Y *427:8 37.0741 
2 *427:8 *427:14 48.319 
3 *427:14 *427:22 44.1187 
4 *427:22 *975:A 32.1751 
5 *427:22 *524:A2 17.2 
6 *427:14 *427:42 49.6887 
7 *427:42 *427:50 45.4933 
8 *427:50 *533:B 17.2 
*END

*D_NET *428 0.000619582
*CONN
*I *611:B I *D OR2x2_ASAP7_75t_SL
*I *588:A I *D XOR2x2_ASAP7_75t_SL
*I *592:A I *D OR3x1_ASAP7_75t_SL
*I *589:A I *D OR4x2_ASAP7_75t_SL
*I *591:A1 I *D OA21x2_ASAP7_75t_SL
*I *522:B1 I *D AOI221x1_ASAP7_75t_SL
*I *971:Y O *D BUFx3_ASAP7_75t_SL
*CAP
1 *611:B 0
2 *588:A 0
3 *592:A 2.1235e-05
4 *589:A 0
5 *591:A1 0
6 *522:B1 1.34423e-05
7 *971:Y 0
8 *428:93 3.40535e-05
9 *428:80 5.24778e-05
10 *428:58 2.46872e-05
11 *428:52 4.59222e-05
12 *428:50 3.65856e-05
13 *428:37 3.87375e-05
14 *428:33 4.08066e-05
15 *428:16 7.33884e-05
16 *428:12 3.29657e-05
17 *428:4 3.00985e-05
18 *428:50 *591:B 0
19 *428:80 *440:10 0
20 *428:93 *440:10 0
21 *428:93 *440:18 8.51183e-06
22 *589:C *428:58 1.10229e-06
23 *592:B *592:A 7.79295e-06
24 *593:C *592:A 6.44983e-06
25 *612:B *428:93 1.27782e-06
26 *35:47 *428:93 1.83949e-05
27 *35:57 *428:93 3.95845e-06
28 *42:26 *428:12 1.76928e-06
29 *42:26 *428:80 2.02204e-06
30 *42:37 *428:12 5.67735e-06
31 *42:37 *428:80 0
32 *42:37 *428:93 0
33 *44:23 *522:B1 0
34 *44:23 *428:37 1.67815e-06
35 *44:23 *428:50 5.49212e-07
36 *121:25 *592:A 2.25787e-06
37 *121:25 *428:58 9.72458e-07
38 *123:31 *522:B1 1.09067e-06
39 *123:31 *428:16 6.6195e-06
40 *127:10 *428:16 2.35847e-05
41 *141:18 *428:93 0
42 *179:10 *428:33 0
43 *179:16 *428:16 1.78333e-06
44 *180:10 *428:80 2.68933e-07
45 *180:10 *428:93 5.37866e-07
46 *183:8 *428:33 0
47 *183:12 *428:50 0
48 *183:26 *592:A 5.19552e-07
49 *335:21 *428:37 2.74606e-06
50 *335:21 *428:50 7.62403e-06
51 *343:21 *428:93 0
52 *354:23 *592:A 6.31894e-06
53 *354:23 *428:58 3.7559e-06
54 *425:8 *428:50 1.64854e-05
55 *425:12 *428:50 8.36908e-06
56 *425:18 *428:50 2.12481e-06
57 *425:18 *428:58 3.09382e-05
*RES
1 *971:Y *428:4 17.2 
2 *428:4 *428:12 42.6491 
3 *428:12 *428:16 33.7796 
4 *428:16 *522:B1 42.7625 
5 *428:16 *428:33 36.3156 
6 *428:33 *428:37 20.0158 
7 *428:37 *591:A1 34.4 
8 *428:37 *428:50 44.9332 
9 *428:50 *428:52 17.2 
10 *428:52 *428:58 33.4431 
11 *428:58 *589:A 17.2 
12 *428:52 *592:A 49.1237 
13 *428:4 *428:80 29.8977 
14 *428:80 *588:A 34.4 
15 *428:80 *428:93 42.3441 
16 *428:93 *611:B 17.2 
*END

*D_NET *429 6.26262e-05
*CONN
*I *522:A1 I *D AOI221x1_ASAP7_75t_SL
*I *972:Y O *D BUFx3_ASAP7_75t_SL
*CAP
1 *522:A1 0
2 *972:Y 1.32543e-05
3 *429:8 1.32543e-05
4 *122:10 *429:8 9.5132e-06
5 *122:16 *429:8 2.66045e-05
6 *123:18 *429:8 0
*RES
1 *972:Y *429:8 46.2265 
2 *429:8 *522:A1 34.4 
*END

*D_NET *430 0.000529244
*CONN
*I *598:A1 I *D AO21x1_ASAP7_75t_SL
*I *595:A I *D XNOR2x2_ASAP7_75t_SL
*I *611:A I *D OR2x2_ASAP7_75t_SL
*I *610:A2 I *D OA211x2_ASAP7_75t_SL
*I *973:Y O *D BUFx3_ASAP7_75t_SL
*CAP
1 *598:A1 1.8276e-05
2 *595:A 0
3 *611:A 1.33204e-05
4 *610:A2 4.26485e-06
5 *973:Y 2.02098e-05
6 *430:42 1.21066e-06
7 *430:36 5.2567e-05
8 *430:32 7.77129e-05
9 *430:21 3.70002e-05
10 *430:10 3.67579e-05
11 *430:8 3.71037e-05
12 *598:A1 *598:A2 5.62196e-06
13 *598:A1 *431:60 2.68255e-06
14 *598:A1 *431:72 5.22376e-07
15 *598:A1 *441:64 5.85387e-06
16 *598:A1 *441:72 1.89962e-06
17 *610:A2 *610:A1 9.52454e-06
18 *430:10 *431:60 6.28949e-05
19 *430:10 *441:41 2.8376e-06
20 *430:21 *431:60 5.07659e-05
21 *430:21 *441:64 3.6979e-06
22 *430:32 *431:60 2.83116e-05
23 *430:32 *441:64 4.45472e-06
24 *595:B *430:42 0
25 *612:B *611:A 2.14755e-06
26 *613:B2 *611:A 2.20493e-06
27 *26:23 *430:36 9.22732e-06
28 *26:31 *430:36 2.48419e-06
29 *29:53 *430:36 1.02633e-06
30 *132:14 *430:8 6.44983e-06
31 *141:16 *430:36 0
32 *186:28 *430:36 0
33 *188:14 *598:A1 6.33206e-07
34 *237:8 *430:10 7.24542e-06
35 *237:8 *430:21 5.6882e-06
36 *340:10 *430:10 1.09677e-05
37 *427:14 *430:36 0
38 *427:14 *430:42 3.67836e-06
39 *427:22 *430:36 0
*RES
1 *973:Y *430:8 42.4224 
2 *430:8 *430:10 21.4003 
3 *430:10 *610:A2 37.0741 
4 *430:10 *430:21 17.4581 
5 *430:21 *611:A 41.3527 
6 *430:21 *430:32 9.66768 
7 *430:32 *430:36 36.463 
8 *430:36 *430:42 35.6202 
9 *430:42 *595:A 17.2 
10 *430:32 *598:A1 43.6249 
*END

*D_NET *431 0.000910614
*CONN
*I *660:A I *D NOR3x1_ASAP7_75t_SL
*I *598:B I *D AO21x1_ASAP7_75t_SL
*I *601:A1 I *D OA21x2_ASAP7_75t_SL
*I *597:A I *D XNOR2x2_ASAP7_75t_SL
*I *658:A I *D AND2x2_ASAP7_75t_SL
*I *974:Y O *D BUFx3_ASAP7_75t_SL
*CAP
1 *660:A 0
2 *598:B 0
3 *601:A1 3.15963e-06
4 *597:A 3.07334e-05
5 *658:A 3.99533e-06
6 *974:Y 2.74619e-05
7 *431:72 1.87703e-05
8 *431:64 1.75349e-05
9 *431:60 6.10334e-05
10 *431:58 5.91091e-05
11 *431:56 1.78383e-05
12 *431:48 2.07709e-05
13 *431:33 3.80812e-05
14 *431:25 3.1446e-05
15 *431:14 4.84156e-05
16 *431:10 5.07165e-05
17 *431:33 *470:20 0
18 *431:60 *484:30 9.49809e-07
19 *431:72 *598:A2 1.52651e-06
20 *431:72 *432:8 2.33787e-05
21 *431:72 *441:64 2.12481e-06
22 *598:A1 *431:60 2.68255e-06
23 *598:A1 *431:72 5.22376e-07
24 *602:B *601:A1 2.03526e-06
25 *668:A2 *431:56 5.0551e-07
26 *944:A *431:33 1.64387e-05
27 *944:A *431:48 1.52651e-06
28 *32:29 *431:60 2.22736e-06
29 *36:16 *431:10 9.26382e-06
30 *36:22 *597:A 1.07377e-06
31 *39:18 *431:60 1.12894e-06
32 *41:6 *658:A 1.00854e-05
33 *41:6 *431:14 7.09814e-05
34 *132:10 *431:60 8.87893e-06
35 *141:18 *431:60 0
36 *149:137 *431:25 5.99583e-06
37 *149:137 *431:33 8.46363e-06
38 *149:137 *431:56 1.10561e-06
39 *149:149 *431:60 1.38901e-05
40 *199:10 *431:60 1.58579e-05
41 *199:23 *431:60 2.68365e-06
42 *210:77 *431:10 9.77583e-07
43 *228:12 *431:56 3.84449e-06
44 *228:12 *431:60 3.53295e-05
45 *229:8 *431:33 1.44639e-06
46 *229:8 *431:48 5.85387e-06
47 *232:75 *431:25 1.3685e-05
48 *232:75 *431:48 7.84037e-07
49 *232:75 *431:56 1.98844e-05
50 *235:14 *431:56 2.20493e-06
51 *236:10 *431:60 0
52 *276:27 *431:25 1.25735e-05
53 *343:21 *431:72 2.38942e-05
54 *397:10 *431:14 3.91501e-06
55 *397:22 *431:14 5.27185e-06
56 *401:8 *597:A 7.72307e-07
57 *410:27 *431:14 3.3921e-06
58 *427:22 *431:60 2.41931e-06
59 *430:10 *431:60 6.28949e-05
60 *430:21 *431:60 5.07659e-05
61 *430:32 *431:60 2.83116e-05
*RES
1 *974:Y *431:10 46.9844 
2 *431:10 *431:14 35.9189 
3 *431:14 *658:A 19.8741 
4 *431:14 *431:25 34.6581 
5 *431:25 *431:33 42.0293 
6 *431:33 *597:A 49.9099 
7 *431:25 *431:48 20.494 
8 *431:48 *431:56 48.3374 
9 *431:56 *431:58 17.2 
10 *431:58 *431:60 64.7641 
11 *431:60 *431:64 18.2696 
12 *431:64 *431:72 48.7022 
13 *431:72 *601:A1 18.8045 
14 *431:64 *598:B 17.2 
15 *431:48 *660:A 17.2 
*END

*D_NET *432 0.000707978
*CONN
*I *617:A1 I *D OA21x2_ASAP7_75t_SL
*I *615:B I *D AO21x1_ASAP7_75t_SL
*I *605:A1 I *D OAI22x1_ASAP7_75t_SL
*I *606:A1 I *D AO21x1_ASAP7_75t_SL
*I *600:A I *D AND3x1_ASAP7_75t_SL
*I *607:A I *D NOR2x1_ASAP7_75t_SL
*I *604:A I *D OR2x2_ASAP7_75t_SL
*I *975:Y O *D BUFx3_ASAP7_75t_SL
*CAP
1 *617:A1 5.57453e-06
2 *615:B 2.31161e-06
3 *605:A1 1.8881e-05
4 *606:A1 1.50033e-05
5 *600:A 0
6 *607:A 0
7 *604:A 0
8 *975:Y 0
9 *432:101 7.88614e-06
10 *432:99 2.59903e-05
11 *432:60 3.18564e-05
12 *432:46 7.0164e-06
13 *432:38 8.72085e-06
14 *432:36 3.0633e-05
15 *432:28 2.00969e-05
16 *432:20 3.11044e-05
17 *432:14 5.21368e-05
18 *432:8 5.31567e-05
19 *432:6 1.69936e-05
20 *605:A1 *442:8 0
21 *432:8 *441:64 4.81544e-05
22 *432:8 *441:72 7.43452e-06
23 *432:14 *442:36 1.96943e-05
24 *432:99 *442:36 0
25 *600:C *606:A1 1.73158e-05
26 *602:B *432:14 4.09005e-05
27 *602:B *432:20 1.88316e-05
28 *602:B *432:28 1.62312e-05
29 *605:A2 *605:A1 1.33223e-05
30 *608:C *432:36 1.06092e-05
31 *608:C *432:38 1.55843e-05
32 *608:C *432:46 6.92634e-06
33 *35:57 *432:20 6.33206e-07
34 *141:18 *432:8 8.85043e-06
35 *186:18 *432:36 2.20128e-06
36 *186:24 *605:A1 2.98961e-07
37 *186:24 *432:28 1.66584e-05
38 *188:14 *615:B 6.7842e-07
39 *188:14 *432:99 8.56987e-06
40 *188:24 *432:99 6.95709e-06
41 *189:37 *606:A1 0
42 *189:37 *432:60 0
43 *190:8 *432:60 0
44 *191:12 *432:8 5.49212e-07
45 *192:10 *432:28 4.74248e-06
46 *192:10 *432:36 4.59165e-06
47 *196:10 *432:60 0
48 *198:8 *432:36 1.2768e-05
49 *198:8 *432:38 1.75355e-05
50 *198:8 *432:46 7.35354e-06
51 *198:14 *432:36 1.46465e-05
52 *198:20 *605:A1 0
53 *203:6 *617:A1 3.81627e-06
54 *343:21 *605:A1 0
55 *343:21 *432:8 1.75665e-05
56 *343:21 *432:20 0
57 *343:21 *432:99 3.10587e-06
58 *406:8 *432:60 0
59 *411:8 *432:46 1.70866e-06
60 *411:21 *606:A1 7.35354e-06
61 *411:21 *432:46 1.64764e-06
62 *411:21 *432:60 0
63 *431:72 *432:8 2.33787e-05
*RES
1 *975:Y *432:6 34.4 
2 *432:6 *432:8 24.7793 
3 *432:8 *432:14 46.701 
4 *432:14 *432:20 34.5128 
5 *432:20 *432:28 43.1556 
6 *432:28 *432:36 47.1544 
7 *432:36 *432:38 5.34825 
8 *432:38 *432:46 42.171 
9 *432:46 *604:A 17.2 
10 *432:38 *607:A 17.2 
11 *432:36 *432:60 31.2792 
12 *432:60 *600:A 34.4 
13 *432:60 *606:A1 45.773 
14 *432:14 *605:A1 48.1674 
15 *432:8 *432:99 49.7435 
16 *432:99 *432:101 17.2 
17 *432:101 *615:B 18.8045 
18 *432:101 *617:A1 21.4786 
*END

*D_NET *433 0.000299227
*CONN
*I *969:A I *D BUFx3_ASAP7_75t_SL
*I *520:A2 I *D OA21x2_ASAP7_75t_SL
*I *518:B I *D OR2x2_ASAP7_75t_SL
*I *970:Y O *D BUFx3_ASAP7_75t_SL
*CAP
1 *969:A 1.33456e-05
2 *520:A2 0
3 *518:B 1.20145e-05
4 *970:Y 3.2052e-05
5 *433:30 3.06616e-05
6 *433:22 2.02411e-05
7 *433:18 2.59225e-05
8 *433:16 2.76113e-05
9 *433:8 4.86803e-05
10 *433:8 *479:19 2.14755e-06
11 *520:A1 *518:B 7.50891e-06
12 *520:A1 *433:30 7.46759e-06
13 *970:A *433:8 5.0551e-07
14 *114:14 *969:A 9.30483e-06
15 *335:21 *969:A 2.18135e-06
16 *335:21 *433:16 9.8079e-06
17 *335:21 *433:18 2.21123e-06
18 *354:23 *969:A 1.07215e-05
19 *354:23 *433:18 1.29312e-05
20 *361:10 *433:30 1.49079e-05
21 *408:33 *433:16 9.00229e-06
*RES
1 *970:Y *433:8 47.7706 
2 *433:8 *433:16 43.6621 
3 *433:16 *433:18 10.137 
4 *433:18 *433:22 18.2696 
5 *433:22 *433:30 48.0257 
6 *433:30 *518:B 22.0134 
7 *433:22 *520:A2 17.2 
8 *433:18 *969:A 46.0848 
*END

*D_NET *434 0.000222554
*CONN
*I *616:B I *D AOI21x1_ASAP7_75t_SL
*I *618:A1 I *D OAI21x1_ASAP7_75t_SL
*I *977:Y O *D BUFx3_ASAP7_75t_SL
*CAP
1 *616:B 0
2 *618:A1 1.23222e-05
3 *977:Y 6.37655e-06
4 *434:27 1.36752e-05
5 *434:12 4.10909e-05
6 *434:8 2.147e-05
7 *618:B *618:A1 2.61188e-06
8 *619:A2 *434:27 1.66706e-05
9 *33:14 *618:A1 5.51397e-07
10 *186:38 *618:A1 2.12481e-06
11 *186:38 *434:12 4.49469e-06
12 *186:38 *434:27 3.86483e-06
13 *186:57 *434:27 2.64113e-05
14 *206:10 *618:A1 2.66329e-05
15 *206:10 *434:12 5.62196e-06
16 *206:10 *434:27 1.692e-05
17 *400:14 *434:8 5.52807e-07
18 *400:14 *434:12 1.5804e-05
19 *400:23 *434:8 4.83862e-06
20 *427:8 *618:A1 5.19552e-07
*RES
1 *977:Y *434:8 38.9053 
2 *434:8 *434:12 29.501 
3 *434:12 *618:A1 28.4313 
4 *434:12 *434:27 48.1674 
5 *434:27 *616:B 17.2 
*END

*D_NET *435 0.000145872
*CONN
*I *725:C2 I *D OA222x2_ASAP7_75t_SL
*I *645:A1 I *D AO221x1_ASAP7_75t_SL
*I *976:Y O *D BUFx3_ASAP7_75t_SL
*CAP
1 *725:C2 1.57143e-05
2 *645:A1 2.86816e-06
3 *976:Y 2.96589e-05
4 *435:8 4.82414e-05
5 *645:A1 *437:95 5.52807e-07
6 *645:A1 *455:35 3.76935e-06
7 *725:C2 *725:C1 8.87187e-06
8 *725:C2 *437:95 2.68933e-07
9 *725:C2 *455:35 7.42614e-06
10 *435:8 *976:A 1.5804e-05
11 *216:6 *435:8 7.37131e-06
12 *302:33 *725:C2 2.80839e-07
13 *397:55 *725:C2 5.04414e-06
*RES
1 *976:Y *435:8 48.8403 
2 *435:8 *645:A1 37.2158 
3 *435:8 *725:C2 46.0281 
*END

*D_NET *436 9.89792e-05
*CONN
*I *529:D I *D AND4x1_ASAP7_75t_SL
*I *980:Y O *D BUFx3_ASAP7_75t_SL
*CAP
1 *529:D 0
2 *980:Y 0
3 *436:12 2.51843e-05
4 *436:6 2.51843e-05
5 *34:12 *436:12 9.46595e-06
6 *34:18 *436:12 1.0817e-05
7 *40:18 *436:12 5.00557e-06
8 *40:29 *436:12 8.71771e-06
9 *135:6 *436:12 1.36155e-06
10 *146:161 *436:12 6.84701e-06
11 *225:8 *436:12 3.15363e-06
12 *397:28 *436:12 3.24214e-06
*RES
1 *980:Y *436:6 34.4 
2 *436:6 *436:12 41.9226 
3 *436:12 *529:D 17.2 
*END

*D_NET *437 0.00198925
*CONN
*I *654:B I *D OR3x1_ASAP7_75t_SL
*I *649:B2 I *D AO221x1_ASAP7_75t_SL
*I *645:B2 I *D AO221x1_ASAP7_75t_SL
*I *704:B2 I *D AO221x2_ASAP7_75t_SL
*I *700:B2 I *D AO221x2_ASAP7_75t_SL
*I *683:B2 I *D AO221x2_ASAP7_75t_SL
*I *978:Y O *D AND3x4_ASAP7_75t_SL
*CAP
1 *654:B 2.23489e-05
2 *649:B2 0
3 *645:B2 2.31655e-06
4 *704:B2 3.28677e-06
5 *700:B2 1.43568e-06
6 *683:B2 1.36371e-06
7 *978:Y 0
8 *437:95 2.74373e-05
9 *437:89 4.51406e-05
10 *437:85 2.9277e-05
11 *437:83 3.1606e-05
12 *437:81 0.000183009
13 *437:79 0.000191358
14 *437:62 2.23156e-05
15 *437:43 2.60871e-05
16 *437:39 7.78941e-05
17 *437:37 0.000111085
18 *437:24 1.3025e-05
19 *437:16 7.43432e-05
20 *437:14 0.000101495
21 *437:12 0.000124166
22 *437:10 0.000125457
23 *437:4 9.64152e-06
24 *654:B *481:55 0
25 *437:10 *493:35 3.08218e-06
26 *437:12 *455:29 3.03633e-06
27 *437:16 *478:8 1.64764e-06
28 *437:16 *494:58 0
29 *437:24 *476:77 1.908e-06
30 *437:37 *494:14 0
31 *437:37 *494:20 1.7271e-06
32 *437:39 *476:85 6.43539e-06
33 *437:39 *483:50 5.83093e-06
34 *437:39 *493:14 2.13226e-05
35 *437:43 *459:64 1.47504e-05
36 *437:43 *483:88 1.10561e-06
37 *437:62 *459:64 9.7064e-06
38 *437:62 *471:85 3.9526e-06
39 *437:62 *483:88 5.37866e-07
40 *437:79 *439:22 5.27185e-06
41 *437:81 *455:29 6.18152e-05
42 *437:85 *455:33 7.84772e-07
43 *437:85 *455:35 2.29324e-06
44 *437:85 *456:16 1.45517e-06
45 *437:85 *481:55 0
46 *437:89 *725:C1 2.64998e-05
47 *437:89 *455:35 1.17976e-05
48 *437:89 *456:16 2.14084e-06
49 *437:89 *477:58 0
50 *437:89 *481:44 2.81466e-05
51 *437:95 *725:C1 0
52 *437:95 *477:58 0
53 *504:A *437:16 0
54 *506:A1 *437:16 4.84697e-07
55 *506:B *437:37 0
56 *645:A1 *437:95 5.52807e-07
57 *649:B1 *437:85 7.95161e-07
58 *654:A *654:B 2.8275e-06
59 *654:C *654:B 3.12984e-06
60 *683:B1 *683:B2 1.73158e-06
61 *683:C *683:B2 7.35354e-06
62 *700:C *700:B2 3.68287e-06
63 *704:B1 *704:B2 1.95129e-06
64 *725:C2 *437:95 2.68933e-07
65 *962:A *437:16 1.51281e-06
66 *43:21 *437:10 3.88042e-07
67 *43:21 *437:79 4.62887e-06
68 *56:19 *437:37 0
69 *62:14 *437:16 0
70 *65:44 *437:16 4.70383e-06
71 *68:27 *437:16 1.82423e-05
72 *68:27 *437:24 0
73 *89:14 *437:89 6.01974e-06
74 *89:14 *437:95 0
75 *102:8 *437:37 0
76 *111:23 *437:16 1.64348e-06
77 *137:12 *437:12 0
78 *153:8 *437:16 2.01456e-05
79 *153:8 *437:24 7.11252e-08
80 *154:18 *437:16 1.88168e-06
81 *154:18 *437:24 0
82 *156:12 *437:16 8.09634e-06
83 *208:25 *437:95 2.71199e-05
84 *210:12 *437:12 9.19231e-05
85 *210:12 *437:81 1.5078e-05
86 *210:73 *437:81 8.74819e-06
87 *210:88 *437:81 5.51759e-06
88 *220:14 *437:89 4.43388e-05
89 *247:10 *437:24 4.84588e-06
90 *263:10 *704:B2 7.80516e-06
91 *285:10 *437:79 1.49407e-08
92 *302:25 *645:B2 2.12481e-06
93 *302:25 *437:95 9.94583e-06
94 *340:18 *654:B 9.18333e-06
95 *340:18 *437:85 2.83075e-06
96 *346:16 *683:B2 1.56713e-06
97 *349:8 *437:16 1.40329e-05
98 *350:12 *437:39 5.50907e-05
99 *350:12 *437:62 5.68415e-06
100 *350:20 *437:62 8.23422e-06
101 *350:35 *437:62 3.05118e-08
102 *360:14 *437:62 1.21945e-05
103 *374:12 *437:62 1.04205e-05
104 *374:18 *437:39 5.45067e-05
105 *397:55 *437:95 6.15135e-06
106 *417:25 *437:16 0
107 *417:35 *437:16 3.84173e-05
108 *417:41 *437:16 1.3882e-05
109 *418:36 *437:16 3.79923e-06
110 *418:44 *437:16 6.31056e-06
*RES
1 *978:Y *437:4 17.2 
2 *437:4 *437:10 35.4325 
3 *437:10 *437:12 43.9369 
4 *437:12 *437:14 17.2 
5 *437:14 *437:16 56.1289 
6 *437:16 *437:24 39.7767 
7 *437:24 *683:B2 36.5393 
8 *437:14 *437:37 40.2898 
9 *437:37 *437:39 39.3917 
10 *437:39 *437:43 22.3624 
11 *437:43 *700:B2 35.4697 
12 *437:43 *437:62 47.3485 
13 *437:62 *704:B2 36.5393 
14 *437:4 *437:79 39.7394 
15 *437:79 *437:81 60.8191 
16 *437:81 *437:83 17.2 
17 *437:83 *437:85 6.85185 
18 *437:85 *437:89 45.3583 
19 *437:89 *437:95 36.0926 
20 *437:95 *645:B2 36.0045 
21 *437:85 *649:B2 34.4 
22 *437:83 *654:B 49.7914 
*END

*D_NET *438 5.7966e-05
*CONN
*I *955:A I *D BUFx3_ASAP7_75t_SL
*I *979:Y O *D BUFx3_ASAP7_75t_SL
*CAP
1 *955:A 0
2 *979:Y 2.37472e-05
3 *438:10 2.37472e-05
4 *22:14 *438:10 9.9223e-06
5 *412:10 *438:10 5.49212e-07
*RES
1 *979:Y *438:10 47.9974 
2 *438:10 *955:A 34.4 
*END

*D_NET *439 0.000413566
*CONN
*I *989:A1 I *D AOI21x1_ASAP7_75t_SL
*I *981:Y O *D BUFx3_ASAP7_75t_SL
*CAP
1 *989:A1 0
2 *981:Y 1.86127e-05
3 *439:28 8.17022e-06
4 *439:22 4.58455e-05
5 *439:18 6.44618e-05
6 *439:10 4.53992e-05
7 *439:10 *485:8 2.83075e-06
8 *439:18 *485:8 0
9 *439:18 *485:16 1.22091e-05
10 *439:18 *485:20 5.98994e-07
11 *439:22 *1038:A 6.15962e-06
12 *439:22 *455:27 1.4311e-05
13 *439:22 *485:20 0.000117853
14 *439:28 *455:10 1.55485e-05
15 *439:28 *483:28 8.48652e-06
16 *439:28 *483:158 0
17 *439:28 *485:26 1.93006e-05
18 *978:C *439:22 2.55346e-06
19 *978:A *439:18 5.96787e-07
20 *4:104 *439:10 1.49407e-08
21 *133:24 *439:18 1.53941e-06
22 *141:52 *439:10 2.30654e-05
23 *301:25 *439:18 7.36391e-07
24 *437:79 *439:22 5.27185e-06
*RES
1 *981:Y *439:10 43.6621 
2 *439:10 *439:18 48.5038 
3 *439:18 *439:22 47.685 
4 *439:22 *439:28 44.537 
5 *439:28 *989:A1 17.2 
*END

*D_NET *440 0.000435173
*CONN
*I *610:A1 I *D OA211x2_ASAP7_75t_SL
*I *591:B I *D OA21x2_ASAP7_75t_SL
*I *983:Y O *D BUFx3_ASAP7_75t_SL
*CAP
1 *610:A1 1.78482e-05
2 *591:B 5.72161e-06
3 *983:Y 0
4 *440:22 6.55845e-05
5 *440:18 8.14012e-05
6 *440:10 6.86873e-05
7 *440:6 2.93008e-05
8 *610:A1 *610:B 7.63254e-07
9 *610:A1 *484:30 1.64509e-05
10 *440:10 *441:14 1.49407e-08
11 *610:A2 *610:A1 9.52454e-06
12 *984:A *440:10 0
13 *39:35 *440:10 0
14 *42:20 *440:10 1.20066e-05
15 *42:37 *440:18 0
16 *42:39 *440:22 1.36688e-05
17 *132:6 *610:A1 2.12481e-06
18 *132:22 *440:10 0
19 *141:18 *440:10 9.20585e-05
20 *160:41 *591:B 0
21 *183:12 *591:B 9.93857e-06
22 *199:8 *610:A1 1.56713e-06
23 *428:50 *591:B 0
24 *428:80 *440:10 0
25 *428:93 *440:10 0
26 *428:93 *440:18 8.51183e-06
*RES
1 *983:Y *440:6 34.4 
2 *440:6 *440:10 48.1741 
3 *440:10 *440:18 49.1804 
4 *440:18 *440:22 44.4761 
5 *440:22 *591:B 40.0317 
6 *440:10 *610:A1 29.501 
*END

*D_NET *441 0.000588148
*CONN
*I *598:A2 I *D AO21x1_ASAP7_75t_SL
*I *601:A2 I *D OA21x2_ASAP7_75t_SL
*I *610:B I *D OA211x2_ASAP7_75t_SL
*I *522:A2 I *D AOI221x1_ASAP7_75t_SL
*I *984:Y O *D BUFx3_ASAP7_75t_SL
*CAP
1 *598:A2 8.25794e-07
2 *601:A2 0
3 *610:B 1.49423e-06
4 *522:A2 4.62415e-06
5 *984:Y 0
6 *441:72 9.11907e-06
7 *441:64 3.66761e-05
8 *441:49 2.0396e-05
9 *441:41 6.72772e-05
10 *441:26 4.85606e-05
11 *441:20 5.03278e-05
12 *441:14 3.40324e-05
13 *441:4 4.92853e-05
14 *441:49 *484:22 1.03649e-05
15 *598:A1 *598:A2 5.62196e-06
16 *598:A1 *441:64 5.85387e-06
17 *598:A1 *441:72 1.89962e-06
18 *602:B *441:72 5.85387e-06
19 *610:A1 *610:B 7.63254e-07
20 *39:35 *441:14 7.31047e-06
21 *39:51 *441:26 1.53536e-05
22 *42:20 *441:20 0
23 *44:23 *441:26 4.5698e-06
24 *122:10 *441:26 4.21123e-06
25 *128:8 *441:20 0
26 *132:6 *610:B 7.58265e-07
27 *132:22 *441:14 1.00534e-05
28 *132:22 *441:20 5.0468e-07
29 *132:22 *441:41 1.52651e-06
30 *132:28 *441:20 0
31 *141:16 *441:49 0
32 *141:18 *441:41 2.98577e-05
33 *141:18 *441:64 1.09224e-05
34 *188:14 *441:72 1.49407e-08
35 *191:12 *441:72 9.26546e-06
36 *199:8 *610:B 7.35354e-06
37 *237:8 *441:41 2.73184e-05
38 *237:8 *441:64 4.73194e-06
39 *340:10 *441:41 2.98155e-05
40 *427:22 *441:49 1.35892e-06
41 *430:10 *441:41 2.8376e-06
42 *430:21 *441:64 3.6979e-06
43 *430:32 *441:64 4.45472e-06
44 *431:72 *598:A2 1.52651e-06
45 *431:72 *441:64 2.12481e-06
46 *432:8 *441:64 4.81544e-05
47 *432:8 *441:72 7.43452e-06
48 *440:10 *441:14 1.49407e-08
*RES
1 *984:Y *441:4 17.2 
2 *441:4 *441:14 46.8155 
3 *441:14 *441:20 37.9667 
4 *441:20 *441:26 34.812 
5 *441:26 *522:A2 36.0045 
6 *441:4 *441:41 43.6776 
7 *441:41 *441:49 40.6844 
8 *441:49 *610:B 36.5393 
9 *441:41 *441:64 44.6162 
10 *441:64 *441:72 42.7625 
11 *441:72 *601:A2 17.2 
12 *441:64 *598:A2 18.8045 
*END

*D_NET *442 0.000167886
*CONN
*I *601:B I *D OA21x2_ASAP7_75t_SL
*I *615:A1 I *D AO21x1_ASAP7_75t_SL
*I *599:A I *D NAND2x1_ASAP7_75t_SL
*I *985:Y O *D BUFx3_ASAP7_75t_SL
*CAP
1 *601:B 0
2 *615:A1 1.34126e-05
3 *599:A 6.73706e-06
4 *985:Y 0
5 *442:36 2.66653e-05
6 *442:8 2.60127e-05
7 *442:4 3.25283e-05
8 *602:B *442:36 4.41457e-06
9 *605:A1 *442:8 0
10 *605:A2 *615:A1 0
11 *188:14 *442:36 8.28849e-06
12 *188:24 *615:A1 1.23286e-05
13 *189:10 *615:A1 1.60115e-05
14 *191:12 *442:36 6.33206e-07
15 *343:21 *615:A1 1.12894e-06
16 *343:21 *442:8 3.05118e-08
17 *432:14 *442:36 1.96943e-05
18 *432:99 *442:36 0
*RES
1 *985:Y *442:4 17.2 
2 *442:4 *442:8 20.579 
3 *442:8 *599:A 37.609 
4 *442:8 *615:A1 45.8297 
5 *442:4 *442:36 48.4472 
6 *442:36 *601:B 17.2 
*END

*D_NET *443 0.000207641
*CONN
*I *534:C I *D AND4x1_ASAP7_75t_SL
*I *616:A1 I *D AOI21x1_ASAP7_75t_SL
*I *617:B I *D OA21x2_ASAP7_75t_SL
*I *613:A1 I *D AO221x1_ASAP7_75t_SL
*I *986:Y O *D BUFx3_ASAP7_75t_SL
*CAP
1 *534:C 8.91281e-06
2 *616:A1 4.37614e-06
3 *617:B 7.22664e-06
4 *613:A1 0
5 *986:Y 9.09532e-06
6 *443:31 2.4698e-05
7 *443:27 2.47336e-05
8 *443:14 2.20272e-05
9 *443:8 3.36656e-05
10 *443:6 1.80081e-05
11 *534:A *534:C 1.08167e-05
12 *613:A2 *443:14 9.15905e-06
13 *618:A2 *443:27 3.56648e-06
14 *26:31 *443:14 6.91714e-06
15 *26:44 *443:14 5.52807e-07
16 *29:34 *534:C 0
17 *29:34 *443:14 2.12201e-06
18 *29:53 *443:27 0
19 *139:29 *443:14 6.33206e-07
20 *191:27 *443:27 0
21 *191:27 *443:31 0
22 *201:14 *443:14 0
23 *202:10 *443:14 6.7842e-07
24 *203:6 *616:A1 5.17782e-06
25 *203:6 *617:B 8.31096e-06
26 *204:8 *443:31 0
27 *205:8 *443:31 6.96299e-06
*RES
1 *986:Y *443:6 20.9438 
2 *443:6 *443:8 17.2 
3 *443:8 *443:14 36.4857 
4 *443:14 *613:A1 17.2 
5 *443:8 *443:27 41.5795 
6 *443:27 *443:31 27.337 
7 *443:31 *617:B 23.0831 
8 *443:31 *616:A1 20.9438 
9 *443:6 *534:C 21.4786 
*END

*D_NET *444 0.000518174
*CONN
*I *519:A1 I *D OA21x2_ASAP7_75t_SL
*I *589:D I *D OR4x2_ASAP7_75t_SL
*I *966:A I *D BUFx3_ASAP7_75t_SL
*I *982:Y O *D BUFx3_ASAP7_75t_SL
*CAP
1 *519:A1 3.88057e-06
2 *589:D 1.22443e-05
3 *966:A 0
4 *982:Y 1.01634e-05
5 *444:48 4.89484e-05
6 *444:33 3.82979e-05
7 *444:22 2.96221e-05
8 *444:18 1.95931e-05
9 *444:14 7.59754e-05
10 *444:10 2.50463e-05
11 *444:10 *446:16 9.23722e-06
12 *444:14 *445:74 1.02633e-06
13 *444:48 *445:74 6.07479e-06
14 *519:A2 *519:A1 7.63254e-07
15 *519:A2 *444:48 8.17138e-06
16 *519:B *519:A1 2.90209e-08
17 *567:B *444:18 0
18 *956:A *444:48 1.06372e-06
19 *53:63 *444:48 4.02915e-05
20 *117:24 *444:48 6.33206e-07
21 *162:8 *444:10 0
22 *162:10 *444:18 0
23 *162:22 *589:D 2.31575e-05
24 *162:22 *444:33 7.77956e-06
25 *162:28 *444:33 0
26 *162:43 *589:D 3.67067e-06
27 *162:43 *444:33 0
28 *164:12 *444:18 2.88686e-05
29 *181:10 *444:33 1.692e-05
30 *353:8 *444:18 5.07946e-05
31 *404:21 *444:48 1.91241e-06
32 *404:34 *444:33 0
33 *404:40 *444:22 7.79295e-06
34 *404:40 *444:33 2.12062e-05
35 *408:20 *444:48 2.25787e-06
36 *414:29 *444:10 7.94305e-06
37 *423:8 *444:33 2.06408e-06
38 *424:26 *444:48 2.98814e-08
39 *424:63 *589:D 1.27152e-05
*RES
1 *982:Y *444:10 40.8657 
2 *444:10 *444:14 21.5288 
3 *444:14 *444:18 34.752 
4 *444:18 *444:22 19.3393 
5 *444:22 *966:A 17.2 
6 *444:22 *444:33 37.9768 
7 *444:33 *589:D 46.1661 
8 *444:14 *444:48 44.3923 
9 *444:48 *519:A1 36.0045 
*END

*D_NET *445 0.000758295
*CONN
*I *578:B I *D OR3x1_ASAP7_75t_SL
*I *570:A1 I *D OA21x2_ASAP7_75t_SL
*I *511:A I *D INVx1_ASAP7_75t_SL
*I *565:A I *D OR2x2_ASAP7_75t_SL
*I *566:A1 I *D OA21x2_ASAP7_75t_SL
*I *987:Y O *D BUFx3_ASAP7_75t_SL
*CAP
1 *578:B 2.28086e-05
2 *570:A1 0
3 *511:A 2.11296e-05
4 *565:A 0
5 *566:A1 2.4378e-06
6 *987:Y 2.13105e-05
7 *445:74 7.00542e-05
8 *445:68 5.23657e-05
9 *445:55 2.09567e-05
10 *445:36 3.87085e-05
11 *445:34 1.75789e-05
12 *445:32 2.36045e-05
13 *445:25 2.60343e-05
14 *445:10 2.61893e-05
15 *445:8 2.67957e-05
16 *565:B *445:25 3.13426e-06
17 *565:B *445:32 3.13426e-06
18 *578:A *578:B 4.56834e-06
19 *578:C *578:B 2.82973e-06
20 *950:A *445:36 3.48708e-06
21 *950:A *445:55 2.12481e-06
22 *53:14 *566:A1 5.85387e-06
23 *53:14 *445:8 2.03526e-06
24 *53:14 *445:10 8.06436e-06
25 *56:27 *445:10 6.33206e-07
26 *159:33 *445:55 3.47607e-06
27 *160:10 *445:36 0.000103002
28 *160:18 *445:55 2.5648e-05
29 *160:18 *445:68 6.78991e-06
30 *160:22 *445:68 2.03526e-06
31 *160:37 *445:74 3.07747e-05
32 *161:8 *445:32 6.7842e-07
33 *161:8 *445:55 2.12481e-06
34 *162:14 *445:55 5.19552e-07
35 *162:14 *445:68 2.52755e-07
36 *162:28 *445:74 1.52856e-05
37 *164:12 *445:68 0
38 *165:10 *445:68 6.72662e-07
39 *351:14 *445:8 9.83747e-06
40 *407:8 *445:55 2.30206e-06
41 *407:12 *445:36 1.64764e-06
42 *407:12 *445:55 8.58704e-06
43 *419:17 *445:25 0
44 *419:17 *445:36 0.000103902
45 *419:30 *445:25 0
46 *419:30 *445:36 1.182e-05
47 *419:32 *445:74 1.71911e-06
48 *423:24 *578:B 5.67676e-06
49 *423:32 *445:74 0
50 *424:26 *445:74 2.05045e-06
51 *424:63 *445:74 6.55151e-06
52 *444:14 *445:74 1.02633e-06
53 *444:48 *445:74 6.07479e-06
*RES
1 *987:Y *445:8 48.8403 
2 *445:8 *445:10 3.94216 
3 *445:10 *566:A1 36.0045 
4 *445:10 *445:25 29.3629 
5 *445:25 *565:A 17.2 
6 *445:25 *445:32 5.34825 
7 *445:32 *445:34 17.2 
8 *445:34 *445:36 37.7321 
9 *445:36 *511:A 43.492 
10 *445:32 *445:55 49.5168 
11 *445:55 *570:A1 17.2 
12 *445:55 *445:68 38.5104 
13 *445:68 *445:74 40.1698 
14 *445:74 *578:B 47.2358 
*END

*D_NET *446 0.000378478
*CONN
*I *580:A2 I *D OA21x2_ASAP7_75t_SL
*I *573:A I *D INVx1_ASAP7_75t_SL
*I *569:C I *D AND3x1_ASAP7_75t_SL
*I *575:A2 I *D OA211x2_ASAP7_75t_SL
*I *988:Y O *D BUFx3_ASAP7_75t_SL
*CAP
1 *580:A2 0
2 *573:A 1.23754e-05
3 *569:C 0
4 *575:A2 0
5 *988:Y 6.44736e-06
6 *446:63 3.03245e-06
7 *446:55 6.33383e-05
8 *446:38 7.50373e-05
9 *446:29 7.97159e-06
10 *446:27 1.53294e-05
11 *446:16 1.11003e-05
12 *446:6 2.72616e-05
13 *564:A *446:6 7.80516e-06
14 *564:A *446:16 5.41446e-06
15 *580:B *446:63 1.36155e-06
16 *47:18 *446:63 1.93482e-06
17 *50:20 *446:27 1.97537e-05
18 *53:29 *446:29 7.80516e-06
19 *53:40 *446:29 5.62196e-06
20 *53:40 *446:38 1.2768e-05
21 *117:16 *446:29 1.95129e-06
22 *117:16 *446:38 1.12561e-05
23 *159:33 *446:16 0
24 *159:33 *446:27 0
25 *165:10 *573:A 5.37866e-07
26 *166:14 *573:A 7.90851e-06
27 *353:8 *573:A 1.64591e-05
28 *353:23 *573:A 4.36908e-06
29 *414:16 *446:55 0
30 *414:18 *446:27 1.12901e-05
31 *414:29 *446:16 2.63836e-06
32 *414:29 *446:27 2.84714e-05
33 *444:10 *446:16 9.23722e-06
*RES
1 *988:Y *446:6 19.8741 
2 *446:6 *446:16 42.7058 
3 *446:16 *575:A2 17.2 
4 *446:6 *446:27 47.916 
5 *446:27 *446:29 3.74377 
6 *446:29 *569:C 17.2 
7 *446:29 *446:38 20.9438 
8 *446:38 *573:A 46.0281 
9 *446:38 *446:55 33.8657 
10 *446:55 *446:63 36.1267 
11 *446:63 *580:A2 17.2 
*END

*D_NET *447 0.000239667
*CONN
*I *663:A2 I *D OA33x2_ASAP7_75t_SL
*I *729:B2 I *D OA222x2_ASAP7_75t_SL
*I *990:Y O *D BUFx3_ASAP7_75t_SL
*CAP
1 *663:A2 1.1936e-05
2 *729:B2 1.03549e-05
3 *990:Y 2.9084e-05
4 *447:33 2.8646e-05
5 *447:18 4.77754e-05
6 *447:8 4.97945e-05
7 *663:A2 *458:50 3.66349e-06
8 *447:8 *458:18 5.17782e-06
9 *447:8 *458:159 8.82442e-06
10 *75:18 *663:A2 3.45062e-06
11 *142:18 *663:A2 5.07768e-06
12 *147:95 *729:B2 0
13 *147:112 *663:A2 5.49212e-07
14 *149:135 *447:18 0
15 *149:135 *447:33 3.16328e-06
16 *149:137 *729:B2 2.98814e-08
17 *149:137 *447:18 5.52807e-07
18 *226:14 *447:18 9.33528e-06
19 *231:18 *663:A2 6.46991e-06
20 *231:18 *729:B2 0
21 *336:67 *663:A2 6.74764e-06
22 *397:42 *729:B2 9.03401e-06
*RES
1 *990:Y *447:8 47.7706 
2 *447:8 *447:18 45.4083 
3 *447:18 *729:B2 42.2843 
4 *447:18 *447:33 43.492 
5 *447:33 *663:A2 44.4803 
*END

*D_NET *448 0.000213036
*CONN
*I *692:A1 I *D OA21x2_ASAP7_75t_SL
*I *737:B2 I *D OA222x2_ASAP7_75t_SL
*I *991:Y O *D BUFx3_ASAP7_75t_SL
*CAP
1 *692:A1 0
2 *737:B2 2.02882e-06
3 *991:Y 4.49858e-05
4 *448:22 3.04774e-05
5 *448:14 4.46866e-05
6 *448:6 6.12238e-05
7 *448:14 *478:37 0
8 *448:14 *480:50 1.07573e-06
9 *448:22 *737:B1 5.0551e-07
10 *448:22 *471:30 3.92018e-06
11 *448:22 *471:39 7.84037e-07
12 *448:22 *478:37 0
13 *692:A2 *448:6 3.68287e-06
14 *991:A *448:6 1.21211e-05
15 *97:8 *448:6 6.7842e-07
16 *97:8 *448:14 3.05302e-06
17 *97:14 *448:14 1.35961e-06
18 *146:52 *448:14 0
19 *252:21 *448:14 1.94745e-06
20 *252:21 *448:22 5.0551e-07
21 *254:10 *448:14 0
*RES
1 *991:Y *448:6 37.5233 
2 *448:6 *448:14 44.8734 
3 *448:14 *448:22 49.5168 
4 *448:22 *737:B2 18.8045 
5 *448:6 *692:A1 17.2 
*END

*D_NET *449 0.000188483
*CONN
*I *696:A1 I *D OA21x2_ASAP7_75t_SL
*I *738:B2 I *D OA222x2_ASAP7_75t_SL
*I *992:Y O *D BUFx3_ASAP7_75t_SL
*CAP
1 *696:A1 0
2 *738:B2 2.29241e-06
3 *992:Y 3.13412e-06
4 *449:18 4.87677e-05
5 *449:12 6.4774e-05
6 *449:8 2.14328e-05
7 *449:18 *471:39 5.67735e-06
8 *449:18 *471:50 2.89597e-06
9 *449:18 *483:96 2.62193e-06
10 *449:18 *483:98 5.67735e-06
11 *695:A2 *449:18 2.52755e-07
12 *695:C *449:18 2.61188e-06
13 *696:B *449:12 7.21308e-06
14 *696:B *449:18 3.81627e-06
15 *149:46 *449:18 0
16 *213:112 *449:18 1.35684e-06
17 *255:14 *449:8 9.76186e-06
18 *255:22 *449:18 2.88806e-06
19 *296:14 *449:8 3.30856e-06
*RES
1 *992:Y *449:8 37.779 
2 *449:8 *449:12 25.2224 
3 *449:12 *449:18 41.6072 
4 *449:18 *738:B2 35.4697 
5 *449:12 *696:A1 17.2 
*END

*D_NET *450 0.000282905
*CONN
*I *698:B I *D AND3x1_ASAP7_75t_SL
*I *739:B2 I *D OA222x2_ASAP7_75t_SL
*I *993:Y O *D BUFx3_ASAP7_75t_SL
*CAP
1 *698:B 1.29159e-05
2 *739:B2 1.49797e-05
3 *993:Y 7.97282e-06
4 *450:16 2.78956e-05
5 *450:14 3.41296e-05
6 *450:8 4.21024e-05
7 *698:B *698:C 3.32336e-06
8 *698:B *702:C 6.45127e-06
9 *698:B *471:61 0
10 *698:B *471:74 0
11 *698:B *483:88 6.83191e-06
12 *739:B2 *739:B1 2.55346e-06
13 *739:B2 *471:61 0
14 *739:B2 *483:88 9.47897e-06
15 *739:B2 *483:94 3.06518e-07
16 *450:8 *697:A 3.72177e-05
17 *450:14 *459:70 3.12218e-05
18 *793:D *450:14 2.47522e-06
19 *149:50 *450:14 9.15205e-06
20 *258:14 *450:14 7.84037e-07
21 *258:29 *450:14 9.41389e-06
22 *259:10 *698:B 8.87763e-06
23 *297:23 *450:8 1.48206e-05
*RES
1 *993:Y *450:8 45.6313 
2 *450:8 *450:14 41.6639 
3 *450:14 *450:16 17.2 
4 *450:16 *739:B2 46.5629 
5 *450:16 *698:B 46.0848 
*END

*D_NET *451 0.000269724
*CONN
*I *740:B2 I *D OA222x2_ASAP7_75t_SL
*I *702:B I *D AND3x1_ASAP7_75t_SL
*I *994:Y O *D BUFx3_ASAP7_75t_SL
*CAP
1 *740:B2 9.02976e-06
2 *702:B 1.44693e-05
3 *994:Y 1.21963e-05
4 *451:26 4.02469e-05
5 *451:18 5.26464e-05
6 *451:10 3.00354e-05
7 *702:B *483:88 6.25744e-06
8 *740:B2 *740:B1 1.35684e-06
9 *451:10 *459:62 5.97901e-06
10 *451:10 *459:64 5.19498e-06
11 *451:18 *459:64 7.20677e-06
12 *451:26 *704:A2 5.0551e-07
13 *451:26 *459:64 1.30795e-06
14 *451:26 *480:99 1.28654e-05
15 *700:C *702:B 3.48165e-06
16 *704:A1 *451:26 1.35684e-06
17 *84:10 *451:10 1.00799e-05
18 *261:22 *451:26 2.70055e-06
19 *262:10 *702:B 1.47193e-05
20 *263:10 *702:B 7.63678e-06
21 *298:22 *451:10 1.07377e-06
22 *351:33 *451:18 0
23 *359:28 *451:26 6.7842e-07
24 *374:12 *702:B 2.86985e-05
25 *374:12 *451:18 0
26 *374:12 *451:26 0
*RES
1 *994:Y *451:10 44.9585 
2 *451:10 *451:18 45.9714 
3 *451:18 *451:26 47.0411 
4 *451:26 *702:B 48.8156 
5 *451:18 *740:B2 39.2134 
*END

*D_NET *452 0.000315628
*CONN
*I *708:A1 I *D OA21x2_ASAP7_75t_SL
*I *741:B2 I *D OA222x2_ASAP7_75t_SL
*I *995:Y O *D BUFx3_ASAP7_75t_SL
*CAP
1 *708:A1 0
2 *741:B2 3.32808e-06
3 *995:Y 0
4 *452:24 5.15361e-05
5 *452:18 5.70638e-05
6 *452:12 4.73218e-05
7 *452:10 6.85779e-05
8 *452:6 3.01119e-05
9 *741:B2 *480:118 2.66797e-07
10 *452:18 *463:10 0
11 *452:18 *464:8 8.8679e-06
12 *452:24 *457:202 3.36331e-07
13 *452:24 *471:114 1.61939e-06
14 *707:B1 *452:24 2.90209e-08
15 *707:B2 *452:24 2.20493e-06
16 *707:C *452:24 1.0391e-06
17 *85:10 *452:12 1.94746e-05
18 *146:80 *452:18 1.93811e-06
19 *213:84 *452:12 8.369e-06
20 *261:14 *452:24 3.16625e-06
21 *264:14 *452:24 9.59239e-06
22 *266:10 *452:18 0
23 *299:10 *452:10 0
24 *299:25 *452:10 0
25 *351:12 *452:10 7.84037e-07
*RES
1 *995:Y *452:6 34.4 
2 *452:6 *452:10 38.6003 
3 *452:10 *452:12 27.2761 
4 *452:12 *452:18 42.2843 
5 *452:18 *452:24 39.3546 
6 *452:24 *741:B2 36.0045 
7 *452:12 *708:A1 17.2 
*END

*D_NET *453 0.000369858
*CONN
*I *713:A1 I *D OA22x2_ASAP7_75t_SL
*I *743:B2 I *D OA222x2_ASAP7_75t_SL
*I *996:Y O *D BUFx3_ASAP7_75t_SL
*CAP
1 *713:A1 8.65765e-06
2 *743:B2 0
3 *996:Y 0
4 *453:31 3.22682e-05
5 *453:22 1.61867e-05
6 *453:14 2.92335e-05
7 *453:6 9.09166e-05
8 *453:4 0.00010148
9 *453:14 *796:CLK 3.65131e-06
10 *453:14 *459:19 0
11 *453:14 *459:30 0
12 *453:22 *459:12 1.711e-05
13 *453:22 *462:26 5.19552e-07
14 *453:22 *468:10 2.31297e-05
15 *453:22 *483:58 1.35684e-06
16 *453:22 *483:66 2.88335e-06
17 *796:D *453:6 0
18 *46:6 *453:6 4.41457e-06
19 *46:10 *453:31 2.18185e-05
20 *102:8 *453:22 0
21 *113:10 *453:31 0
22 *422:12 *453:6 1.62312e-05
*RES
1 *996:Y *453:4 17.2 
2 *453:4 *453:6 33.694 
3 *453:6 *453:14 42.0293 
4 *453:14 *453:22 48.1674 
5 *453:22 *743:B2 17.2 
6 *453:4 *453:31 36.9108 
7 *453:31 *713:A1 38.6786 
*END

*D_NET *454 0.0002443
*CONN
*I *745:B2 I *D OA222x2_ASAP7_75t_SL
*I *718:A1 I *D OA22x2_ASAP7_75t_SL
*I *997:Y O *D BUFx3_ASAP7_75t_SL
*CAP
1 *745:B2 0
2 *718:A1 1.24391e-06
3 *997:Y 3.39995e-05
4 *454:25 2.15833e-05
5 *454:12 2.39998e-05
6 *454:6 7.83387e-05
7 *454:25 *455:10 0
8 *454:25 *455:27 0
9 *745:A1 *454:25 5.63702e-07
10 *997:A *454:6 1.27802e-05
11 *43:8 *454:6 0
12 *103:14 *454:6 0
13 *146:119 *454:12 2.43869e-07
14 *274:10 *454:12 1.46825e-05
15 *274:10 *454:25 5.34012e-05
16 *279:24 *718:A1 3.46317e-06
17 *409:12 *454:12 0
*RES
1 *997:Y *454:6 32.7099 
2 *454:6 *454:12 32.8836 
3 *454:12 *718:A1 35.4697 
4 *454:6 *454:25 35.7845 
5 *454:25 *745:B2 34.4 
*END

*D_NET *455 0.000840592
*CONN
*I *649:A1 I *D AO221x1_ASAP7_75t_SL
*I *645:A2 I *D AO221x1_ASAP7_75t_SL
*I *1038:A I *D BUFx6f_ASAP7_75t_SL
*I *989:Y O *D AOI21x1_ASAP7_75t_SL
*CAP
1 *649:A1 2.19021e-06
2 *645:A2 1.41092e-06
3 *1038:A 3.00722e-06
4 *989:Y 1.72267e-05
5 *455:35 5.3338e-05
6 *455:33 5.55499e-05
7 *455:29 0.00021269
8 *455:27 0.000226327
9 *455:12 1.80764e-05
10 *455:10 1.72267e-05
11 *1038:A *485:20 1.82733e-06
12 *1038:A *494:6 6.43537e-06
13 *455:10 *483:28 5.92989e-06
14 *455:10 *483:158 0
15 *455:27 *494:6 5.25727e-06
16 *455:33 *481:55 0
17 *455:35 *725:C1 4.10713e-05
18 *455:35 *782:CLK 1.70708e-06
19 *455:35 *481:44 2.94719e-05
20 *455:35 *481:55 0
21 *645:A1 *455:35 3.76935e-06
22 *725:C2 *455:35 7.42614e-06
23 *40:12 *455:35 0
24 *88:8 *455:35 0
25 *137:12 *455:29 0
26 *208:25 *455:35 0
27 *209:25 *1038:A 1.17301e-06
28 *216:6 *645:A2 3.68287e-06
29 *219:22 *649:A1 6.02341e-06
30 *220:8 *649:A1 5.51397e-07
31 *268:8 *455:27 0
32 *302:33 *455:35 3.47607e-06
33 *437:12 *455:29 3.03633e-06
34 *437:81 *455:29 6.18152e-05
35 *437:85 *455:33 7.84772e-07
36 *437:85 *455:35 2.29324e-06
37 *437:89 *455:35 1.17976e-05
38 *439:22 *1038:A 6.15962e-06
39 *439:22 *455:27 1.4311e-05
40 *439:28 *455:10 1.55485e-05
41 *454:25 *455:10 0
42 *454:25 *455:27 0
*RES
1 *989:Y *455:10 44.9018 
2 *455:10 *455:12 17.2 
3 *455:12 *1038:A 20.9438 
4 *455:12 *455:27 45.3711 
5 *455:27 *455:29 71.8574 
6 *455:29 *455:33 18.4202 
7 *455:33 *455:35 45.0533 
8 *455:35 *645:A2 35.4697 
9 *455:33 *649:A1 36.0045 
*END

*D_NET *456 0.00182071
*CONN
*I *784:CLK I *D DFFHQNx1_ASAP7_75t_SL
*I *772:CLK I *D DFFHQNx1_ASAP7_75t_SL
*I *771:CLK I *D DFFHQNx1_ASAP7_75t_SL
*I *787:CLK I *D DFFHQNx1_ASAP7_75t_SL
*I *788:CLK I *D DFFHQNx1_ASAP7_75t_SL
*I *786:CLK I *D DFFHQNx1_ASAP7_75t_SL
*I *770:CLK I *D DFFHQNx1_ASAP7_75t_SL
*I *768:CLK I *D DFFHQNx1_ASAP7_75t_SL
*I *767:CLK I *D DFFHQNx1_ASAP7_75t_SL
*I *999:Y O *D BUFx4_ASAP7_75t_SL
*CAP
1 *784:CLK 0
2 *772:CLK 0
3 *771:CLK 0
4 *787:CLK 2.76889e-06
5 *788:CLK 0
6 *786:CLK 0
7 *770:CLK 8.58991e-05
8 *768:CLK 4.56614e-05
9 *767:CLK 1.83379e-05
10 *999:Y 0
11 *456:106 0.000112837
12 *456:99 2.72684e-05
13 *456:88 3.07045e-05
14 *456:70 3.02683e-05
15 *456:64 4.33263e-05
16 *456:62 4.09937e-05
17 *456:60 5.13109e-05
18 *456:56 0.000108512
19 *456:38 0.000124232
20 *456:36 6.82656e-05
21 *456:34 3.63536e-05
22 *456:16 3.97793e-05
23 *456:12 9.62271e-05
24 *456:6 6.5478e-05
25 *456:4 0.000112837
26 *456:12 *653:A 2.22349e-06
27 *456:12 *477:92 2.26172e-06
28 *456:16 *653:B 1.74632e-05
29 *456:16 *472:14 9.33705e-06
30 *456:16 *477:92 2.98814e-08
31 *456:64 *484:10 0
32 *456:88 *484:10 0
33 *456:88 *484:20 0
34 *456:99 *488:18 1.31716e-05
35 *456:99 *488:30 0
36 *456:106 *653:B 1.61096e-06
37 *649:B1 *456:16 4.96525e-06
38 *653:C *456:106 9.03305e-07
39 *654:C *456:106 3.15975e-05
40 *674:A1 *456:60 2.01337e-05
41 *732:A2 *456:60 7.2178e-06
42 *770:D *770:CLK 0
43 *784:D *456:106 0
44 *14:8 *456:88 1.34402e-05
45 *16:10 *770:CLK 1.01102e-06
46 *16:20 *456:56 1.90588e-06
47 *25:20 *456:12 7.49326e-06
48 *25:20 *456:34 5.8503e-05
49 *25:41 *456:34 6.7649e-05
50 *25:41 *456:56 0
51 *27:8 *456:60 3.44014e-05
52 *28:33 *456:34 0
53 *28:33 *456:56 1.47033e-06
54 *28:33 *456:99 1.35839e-06
55 *29:8 *456:99 0
56 *30:12 *456:99 0
57 *31:6 *456:38 0
58 *31:6 *456:56 0
59 *37:22 *768:CLK 4.71938e-05
60 *37:22 *456:12 1.32074e-05
61 *37:26 *456:12 2.02432e-06
62 *37:26 *456:34 3.3563e-06
63 *38:8 *456:34 4.48688e-05
64 *42:10 *456:12 0
65 *42:26 *770:CLK 1.01102e-06
66 *89:14 *456:16 2.64738e-05
67 *93:8 *456:64 1.19507e-05
68 *93:8 *456:70 1.48772e-05
69 *94:8 *456:70 3.05118e-08
70 *147:139 *456:12 0
71 *149:149 *770:CLK 1.0391e-06
72 *220:14 *456:16 3.6269e-06
73 *224:8 *456:106 3.48859e-05
74 *238:14 *456:60 9.30483e-06
75 *242:23 *787:CLK 2.12481e-06
76 *275:16 *768:CLK 2.90209e-08
77 *281:14 *456:106 1.98419e-05
78 *287:6 *767:CLK 2.81586e-05
79 *287:17 *456:16 6.6421e-06
80 *287:32 *456:16 1.09533e-05
81 *291:10 *456:88 1.49407e-08
82 *291:24 *456:99 4.47696e-06
83 *340:18 *456:16 2.37642e-05
84 *340:18 *456:34 0
85 *341:10 *456:64 1.19517e-05
86 *341:10 *456:70 7.20965e-06
87 *341:10 *456:88 3.27594e-05
88 *397:79 *456:12 2.50424e-06
89 *397:95 *456:106 1.40419e-08
90 *397:127 *770:CLK 0
91 *397:127 *456:38 0
92 *397:133 *456:38 1.36108e-05
93 *437:85 *456:16 1.45517e-06
94 *437:89 *456:16 2.14084e-06
*RES
1 *999:Y *456:4 17.2 
2 *456:4 *456:6 17.2 
3 *456:6 *456:12 33.1634 
4 *456:12 *456:16 43.1056 
5 *456:16 *767:CLK 42.4224 
6 *456:12 *768:CLK 36.4537 
7 *456:6 *456:34 42.8006 
8 *456:34 *456:36 17.2 
9 *456:36 *456:38 18.7189 
10 *456:38 *770:CLK 49.8243 
11 *456:38 *786:CLK 17.2 
12 *456:36 *456:56 33.1634 
13 *456:56 *456:60 42.3368 
14 *456:60 *456:62 17.2 
15 *456:62 *456:64 10.137 
16 *456:64 *456:70 33.1067 
17 *456:70 *788:CLK 17.2 
18 *456:64 *787:CLK 36.0045 
19 *456:62 *456:88 47.0478 
20 *456:88 *771:CLK 17.2 
21 *456:56 *456:99 36.1493 
22 *456:99 *772:CLK 17.2 
23 *456:4 *456:106 43.3208 
24 *456:106 *784:CLK 17.2 
*END

*D_NET *457 0.0026278
*CONN
*I *687:A1 I *D AO221x2_ASAP7_75t_SL
*I *717:A1 I *D AO221x2_ASAP7_75t_SL
*I *706:A1 I *D AO21x1_ASAP7_75t_SL
*I *703:A1 I *D AO21x1_ASAP7_75t_SL
*I *699:A1 I *D AO21x1_ASAP7_75t_SL
*I *694:A1 I *D AO21x1_ASAP7_75t_SL
*I *712:A1 I *D AO221x2_ASAP7_75t_SL
*I *716:A I *D NOR2x1_ASAP7_75t_SL
*I *711:A I *D NOR2x1_ASAP7_75t_SL
*I *690:A1 I *D AO21x1_ASAP7_75t_SL
*I *686:A I *D NOR2x1_ASAP7_75t_SL
*I *682:A1 I *D AO21x1_ASAP7_75t_SL
*I *922:A I *D BUFx2_ASAP7_75t_SL
*I *1000:Y O *D BUFx6f_ASAP7_75t_SL
*CAP
1 *687:A1 0
2 *717:A1 3.06569e-06
3 *706:A1 0
4 *703:A1 9.42892e-07
5 *699:A1 0
6 *694:A1 0
7 *712:A1 6.70569e-06
8 *716:A 4.84917e-06
9 *711:A 0
10 *690:A1 0
11 *686:A 0
12 *682:A1 2.55391e-05
13 *922:A 5.52066e-06
14 *1000:Y 3.45849e-06
15 *457:232 4.54483e-06
16 *457:213 4.599e-05
17 *457:202 7.51476e-06
18 *457:173 4.05477e-05
19 *457:169 7.15348e-05
20 *457:163 6.64442e-05
21 *457:157 5.49435e-05
22 *457:149 6.9994e-05
23 *457:147 4.35011e-05
24 *457:141 7.20959e-05
25 *457:139 7.24984e-05
26 *457:124 1.98396e-05
27 *457:118 4.36164e-05
28 *457:112 8.20254e-05
29 *457:99 5.21977e-05
30 *457:88 4.05836e-05
31 *457:86 4.53387e-05
32 *457:84 4.53387e-05
33 *457:77 1.65145e-06
34 *457:71 0.000146662
35 *457:69 0.000158968
36 *457:56 3.21952e-05
37 *457:50 6.87793e-05
38 *457:26 3.77419e-05
39 *457:22 6.93073e-05
40 *457:18 9.77661e-05
41 *457:12 0.000133885
42 *457:8 5.62051e-05
43 *457:8 *493:60 0
44 *457:12 *483:183 8.97638e-07
45 *457:18 *483:162 2.56824e-06
46 *457:18 *483:183 3.74016e-08
47 *457:56 *467:8 5.33743e-06
48 *457:56 *467:19 8.52488e-06
49 *457:56 *478:92 3.05118e-08
50 *457:56 *483:158 1.64764e-06
51 *457:69 *467:19 7.84772e-07
52 *457:69 *480:24 9.47507e-07
53 *457:71 *479:106 1.86352e-05
54 *457:71 *480:36 2.54331e-06
55 *457:77 *471:39 2.68933e-07
56 *457:86 *797:CLK 0
57 *457:86 *461:64 0
58 *457:86 *478:99 0
59 *457:86 *480:24 0
60 *457:99 *493:10 1.45651e-06
61 *457:112 *493:10 5.47821e-07
62 *457:118 *483:50 3.39503e-05
63 *457:147 *459:41 4.26751e-07
64 *457:149 *468:18 0
65 *457:149 *483:86 8.72751e-06
66 *457:157 *471:85 1.02522e-06
67 *457:157 *471:104 3.37911e-06
68 *457:157 *483:86 2.27515e-05
69 *457:169 *471:74 0
70 *457:169 *471:85 0
71 *457:173 *471:50 0
72 *457:173 *471:61 0
73 *457:202 *471:114 3.88115e-06
74 *457:213 *483:50 2.61465e-05
75 *457:213 *493:33 2.47595e-05
76 *457:232 *483:158 3.55495e-06
77 *507:B *457:86 0
78 *682:A2 *682:A1 3.50589e-05
79 *682:A2 *457:22 5.19552e-07
80 *687:B2 *457:232 4.22378e-06
81 *703:A2 *457:163 2.49049e-06
82 *704:B1 *457:163 1.59615e-06
83 *712:B2 *457:141 1.02506e-06
84 *712:C *712:A1 2.12481e-06
85 *712:C *457:124 3.39742e-05
86 *712:C *457:141 7.63254e-07
87 *717:A2 *717:A1 2.03526e-06
88 *739:A2 *457:173 0
89 *66:25 *457:86 9.70123e-06
90 *71:20 *457:56 3.7915e-06
91 *105:14 *457:169 8.58704e-06
92 *107:12 *457:173 2.19685e-06
93 *109:10 *457:86 0
94 *109:27 *457:86 0
95 *113:10 *712:A1 0
96 *113:10 *457:86 5.67735e-06
97 *113:10 *457:99 0
98 *113:10 *457:118 2.98532e-06
99 *115:10 *922:A 0
100 *115:10 *457:26 0
101 *129:10 *922:A 5.51814e-06
102 *129:10 *457:26 1.89962e-06
103 *146:24 *457:213 0
104 *149:24 *457:69 5.15815e-05
105 *149:24 *457:71 0.000112803
106 *149:28 *457:71 7.53018e-05
107 *149:42 *457:77 7.11252e-08
108 *158:10 *457:86 0
109 *159:33 *712:A1 4.9351e-06
110 *159:33 *457:139 1.38631e-06
111 *210:12 *457:213 0
112 *213:34 *457:56 8.6361e-06
113 *213:34 *457:69 3.59323e-06
114 *213:42 *457:56 0
115 *213:92 *457:149 2.54392e-05
116 *232:52 *457:99 4.49185e-06
117 *246:10 *457:26 0
118 *250:12 *457:56 3.35377e-07
119 *250:12 *457:232 2.01227e-07
120 *259:10 *457:169 5.37866e-07
121 *261:14 *457:202 1.49407e-08
122 *262:10 *457:169 0
123 *263:10 *457:163 0
124 *267:8 *457:99 1.26478e-05
125 *268:12 *457:99 9.07421e-06
126 *269:8 *457:99 2.74173e-06
127 *269:8 *457:112 5.47821e-07
128 *269:8 *457:118 2.19629e-06
129 *269:16 *457:118 1.18128e-05
130 *270:10 *457:118 4.82093e-05
131 *272:12 *457:99 5.38447e-06
132 *294:18 *457:56 2.32756e-05
133 *294:26 *457:56 2.95693e-06
134 *294:35 *457:232 3.32721e-06
135 *346:31 *457:26 3.32579e-06
136 *347:18 *457:18 3.25708e-06
137 *350:20 *457:169 0
138 *353:35 *457:141 1.36155e-06
139 *359:12 *703:A1 3.90258e-06
140 *359:20 *457:157 1.12776e-05
141 *359:20 *457:169 1.88168e-06
142 *359:28 *457:202 1.29877e-05
143 *360:10 *457:163 0
144 *360:10 *457:169 3.05118e-07
145 *360:14 *457:149 3.5572e-05
146 *360:14 *457:157 1.16058e-05
147 *360:26 *457:141 9.28603e-05
148 *360:34 *712:A1 1.12894e-06
149 *360:34 *457:118 0
150 *366:8 *457:8 0
151 *371:8 *457:173 3.79307e-06
152 *374:12 *457:157 2.20028e-06
153 *375:14 *457:213 1.70708e-06
154 *452:24 *457:202 3.36331e-07
*RES
1 *1000:Y *457:8 36.9342 
2 *457:8 *457:12 31.4308 
3 *457:12 *457:18 36.4626 
4 *457:18 *457:22 43.4064 
5 *457:22 *457:26 23.3948 
6 *457:26 *922:A 38.9053 
7 *457:26 *682:A1 48.3055 
8 *457:12 *457:50 41.3778 
9 *457:50 *457:56 33.4899 
10 *457:56 *686:A 34.4 
11 *457:56 *457:69 27.2942 
12 *457:69 *457:71 66.6629 
13 *457:71 *457:77 35.6202 
14 *457:77 *690:A1 17.2 
15 *457:69 *457:84 17.2 
16 *457:84 *457:86 33.6961 
17 *457:86 *457:88 17.2 
18 *457:88 *711:A 17.2 
19 *457:88 *457:99 48.2555 
20 *457:99 *716:A 36.0045 
21 *457:99 *457:112 21.7992 
22 *457:112 *457:118 43.5707 
23 *457:118 *457:124 44.5617 
24 *457:124 *712:A1 39.9466 
25 *457:124 *457:139 18.8895 
26 *457:139 *457:141 36.9029 
27 *457:141 *457:147 35.2447 
28 *457:147 *457:149 22.5096 
29 *457:149 *457:157 47.3653 
30 *457:157 *457:163 32.3168 
31 *457:163 *457:169 38.5153 
32 *457:169 *457:173 48.1741 
33 *457:173 *694:A1 34.4 
34 *457:169 *699:A1 17.2 
35 *457:163 *703:A1 35.4697 
36 *457:149 *457:202 39.5517 
37 *457:202 *706:A1 17.2 
38 *457:112 *457:213 33.8734 
39 *457:213 *717:A1 36.0045 
40 *457:50 *457:232 37.285 
41 *457:232 *687:A1 17.2 
*END

*D_NET *458 0.00147389
*CONN
*I *783:CLK I *D DFFHQNx1_ASAP7_75t_SL
*I *782:CLK I *D DFFHQNx1_ASAP7_75t_SL
*I *785:CLK I *D DFFHQNx1_ASAP7_75t_SL
*I *766:CLK I *D DFFHQNx1_ASAP7_75t_SL
*I *764:CLK I *D DFFHQNx1_ASAP7_75t_SL
*I *790:CLK I *D DFFHQNx1_ASAP7_75t_SL
*I *765:CLK I *D DFFHQNx1_ASAP7_75t_SL
*I *763:CLK I *D DFFHQNx1_ASAP7_75t_SL
*I *769:CLK I *D DFFHQNx1_ASAP7_75t_SL
*I *1001:Y O *D BUFx4_ASAP7_75t_SL
*CAP
1 *783:CLK 2.08421e-05
2 *782:CLK 7.45063e-06
3 *785:CLK 0
4 *766:CLK 0
5 *764:CLK 0
6 *790:CLK 2.56371e-05
7 *765:CLK 1.08579e-05
8 *763:CLK 1.20595e-05
9 *769:CLK 7.70649e-06
10 *1001:Y 3.45576e-06
11 *458:169 4.59555e-05
12 *458:163 6.04193e-05
13 *458:159 5.14569e-05
14 *458:152 1.51809e-05
15 *458:137 1.19274e-05
16 *458:131 4.91874e-05
17 *458:122 3.0568e-05
18 *458:111 7.37844e-05
19 *458:94 2.84372e-05
20 *458:92 2.06381e-05
21 *458:84 4.31963e-05
22 *458:71 7.53781e-05
23 *458:65 7.60383e-05
24 *458:50 2.22603e-05
25 *458:38 1.93949e-05
26 *458:30 1.47087e-05
27 *458:20 4.96883e-05
28 *458:18 4.16209e-05
29 *458:10 2.36993e-05
30 *458:8 3.45576e-06
31 *763:CLK *476:10 1.07573e-06
32 *765:CLK *476:34 5.67735e-06
33 *458:8 *481:16 1.6136e-06
34 *458:18 *481:16 2.77615e-05
35 *458:71 *476:10 1.09067e-06
36 *458:71 *476:135 0
37 *458:71 *476:137 6.33206e-07
38 *458:71 *477:18 6.42451e-07
39 *458:84 *476:18 4.23705e-06
40 *458:92 *476:26 2.48789e-06
41 *458:163 *477:39 0
42 *540:A *763:CLK 1.36943e-05
43 *543:A *458:65 5.79724e-07
44 *663:A2 *458:50 3.66349e-06
45 *990:A *458:159 6.53466e-06
46 *3:10 *763:CLK 9.67723e-06
47 *3:14 *458:84 2.29115e-05
48 *4:10 *458:137 0
49 *4:10 *458:152 4.83862e-06
50 *4:12 *458:71 1.25483e-05
51 *4:12 *458:131 3.61574e-05
52 *4:12 *458:152 2.0561e-05
53 *4:14 *458:71 3.09505e-05
54 *4:20 *765:CLK 7.53363e-06
55 *4:20 *458:92 3.19982e-06
56 *4:20 *458:111 4.06224e-06
57 *4:24 *765:CLK 9.08513e-06
58 *5:14 *458:169 4.75792e-05
59 *5:28 *458:163 2.62428e-05
60 *17:10 *458:163 1.18996e-06
61 *34:12 *458:163 1.46419e-06
62 *34:18 *783:CLK 3.56648e-06
63 *34:18 *458:163 3.62704e-06
64 *64:6 *790:CLK 7.33751e-05
65 *64:6 *458:111 2.3365e-05
66 *71:20 *458:38 0
67 *71:20 *458:169 0
68 *75:18 *458:20 2.28578e-06
69 *75:18 *458:30 7.79015e-07
70 *75:18 *458:50 5.37605e-06
71 *106:18 *763:CLK 1.37152e-05
72 *106:18 *458:71 5.8968e-06
73 *142:18 *458:38 7.98185e-06
74 *142:18 *458:50 3.66349e-06
75 *142:18 *458:65 2.14502e-05
76 *144:10 *458:71 3.31686e-06
77 *145:8 *763:CLK 0
78 *145:8 *458:71 0
79 *146:8 *458:122 1.46419e-06
80 *146:130 *458:122 2.20678e-05
81 *147:12 *458:65 9.30097e-06
82 *147:14 *458:30 5.41446e-06
83 *148:10 *458:92 0
84 *149:8 *458:111 5.37866e-07
85 *149:8 *458:122 1.46419e-06
86 *149:83 *765:CLK 9.56957e-06
87 *149:83 *458:111 6.36624e-06
88 *149:89 *458:92 7.98105e-06
89 *149:89 *458:111 2.03526e-06
90 *149:116 *458:137 1.34231e-06
91 *149:129 *458:137 8.29156e-06
92 *149:129 *458:152 3.31686e-06
93 *208:25 *782:CLK 0
94 *210:77 *458:8 2.77657e-06
95 *210:77 *458:18 0
96 *210:77 *458:163 2.27099e-06
97 *215:16 *458:137 3.73518e-07
98 *217:14 *782:CLK 1.31667e-05
99 *231:14 *458:65 0
100 *231:18 *458:65 6.02051e-06
101 *336:57 *763:CLK 0
102 *336:57 *458:30 3.65426e-06
103 *336:57 *458:38 2.63836e-06
104 *336:57 *458:65 1.34466e-06
105 *336:74 *458:20 4.38272e-06
106 *336:74 *458:169 0
107 *397:34 *458:20 2.13074e-05
108 *397:34 *458:169 0
109 *447:8 *458:18 5.17782e-06
110 *447:8 *458:159 8.82442e-06
111 *455:35 *782:CLK 1.70708e-06
*RES
1 *1001:Y *458:8 38.3422 
2 *458:8 *458:10 17.2 
3 *458:10 *458:18 47.6237 
4 *458:18 *458:20 10.8219 
5 *458:20 *458:30 39.6055 
6 *458:30 *458:38 38.446 
7 *458:38 *458:50 47.3386 
8 *458:50 *769:CLK 37.0741 
9 *458:20 *458:65 48.0098 
10 *458:65 *458:71 41.8906 
11 *458:71 *763:CLK 48.4791 
12 *458:71 *458:84 35.9189 
13 *458:84 *458:92 47.0411 
14 *458:92 *458:94 17.2 
15 *458:94 *765:CLK 44.9585 
16 *458:94 *458:111 31.3605 
17 *458:111 *790:CLK 39.1278 
18 *458:111 *458:122 41.9793 
19 *458:122 *764:CLK 34.4 
20 *458:65 *458:131 11.2313 
21 *458:131 *458:137 43.4107 
22 *458:137 *766:CLK 17.2 
23 *458:131 *458:152 43.6337 
24 *458:152 *785:CLK 17.2 
25 *458:10 *458:159 8.02238 
26 *458:159 *458:163 35.6906 
27 *458:163 *458:169 49.1178 
28 *458:169 *782:CLK 40.1255 
29 *458:159 *783:CLK 28.4313 
*END

*D_NET *459 0.00104414
*CONN
*I *795:CLK I *D DFFHQNx1_ASAP7_75t_SL
*I *778:CLK I *D DFFHQNx1_ASAP7_75t_SL
*I *794:CLK I *D DFFHQNx1_ASAP7_75t_SL
*I *777:CLK I *D DFFHQNx1_ASAP7_75t_SL
*I *793:CLK I *D DFFHQNx1_ASAP7_75t_SL
*I *779:CLK I *D DFFHQNx1_ASAP7_75t_SL
*I *998:A I *D BUFx2_ASAP7_75t_SL
*I *796:CLK I *D DFFHQNx1_ASAP7_75t_SL
*I *780:CLK I *D DFFHQNx1_ASAP7_75t_SL
*I *1002:Y O *D BUFx4_ASAP7_75t_SL
*CAP
1 *795:CLK 0
2 *778:CLK 0
3 *794:CLK 0
4 *777:CLK 1.37855e-05
5 *793:CLK 0
6 *779:CLK 7.98724e-06
7 *998:A 8.54631e-06
8 *796:CLK 1.63728e-05
9 *780:CLK 0
10 *1002:Y 1.38077e-05
11 *459:97 3.13305e-05
12 *459:70 2.35061e-05
13 *459:64 7.30825e-05
14 *459:62 4.63549e-05
15 *459:60 6.27442e-05
16 *459:56 6.74478e-05
17 *459:54 6.22744e-05
18 *459:41 4.48423e-05
19 *459:30 4.09545e-05
20 *459:19 4.12308e-05
21 *459:12 7.5296e-05
22 *459:8 0.000102732
23 *777:CLK *494:34 0
24 *459:8 *483:58 2.87273e-06
25 *459:8 *483:66 1.49407e-08
26 *459:12 *462:26 0
27 *459:12 *493:22 1.56713e-06
28 *459:19 *462:26 0
29 *459:19 *468:10 2.89387e-06
30 *459:19 *468:18 3.42518e-07
31 *459:30 *530:B 0
32 *459:30 *463:10 0
33 *459:41 *463:10 0
34 *459:54 *463:10 0
35 *459:56 *463:8 3.0471e-06
36 *459:64 *480:87 4.04384e-05
37 *459:64 *480:99 2.26515e-05
38 *459:64 *480:110 0
39 *459:64 *483:88 0
40 *459:70 *480:87 2.97284e-05
41 *459:70 *483:88 0
42 *743:C2 *459:12 1.10364e-05
43 *778:D *459:97 1.59435e-05
44 *84:10 *459:62 1.07573e-06
45 *84:10 *459:64 1.67336e-06
46 *85:10 *459:41 9.81516e-06
47 *136:8 *796:CLK 0
48 *136:10 *459:8 7.2158e-06
49 *136:10 *459:19 2.16262e-06
50 *146:72 *459:8 0
51 *146:72 *459:19 0
52 *284:10 *459:12 6.29754e-06
53 *298:14 *459:60 1.25483e-05
54 *298:22 *459:60 3.78768e-05
55 *360:20 *459:30 5.45719e-06
56 *360:20 *459:41 6.33206e-07
57 *373:10 *459:97 0
58 *437:43 *459:64 1.47504e-05
59 *437:62 *459:64 9.7064e-06
60 *450:14 *459:70 3.12218e-05
61 *451:10 *459:62 5.97901e-06
62 *451:10 *459:64 5.19498e-06
63 *451:18 *459:64 7.20677e-06
64 *451:26 *459:64 1.30795e-06
65 *453:14 *796:CLK 3.65131e-06
66 *453:14 *459:19 0
67 *453:14 *459:30 0
68 *453:22 *459:12 1.711e-05
69 *457:147 *459:41 4.26751e-07
*RES
1 *1002:Y *459:8 43.4107 
2 *459:8 *459:12 49.8243 
3 *459:12 *780:CLK 17.2 
4 *459:8 *459:19 9.01066 
5 *459:19 *796:CLK 41.3527 
6 *459:19 *459:30 7.88432 
7 *459:30 *998:A 39.2134 
8 *459:30 *459:41 15.2055 
9 *459:41 *779:CLK 39.2134 
10 *459:41 *459:54 28.4633 
11 *459:54 *459:56 27.2761 
12 *459:56 *459:60 33.7796 
13 *459:60 *459:62 9.01066 
14 *459:62 *459:64 33.2268 
15 *459:64 *459:70 35.3594 
16 *459:70 *793:CLK 17.2 
17 *459:64 *777:CLK 39.2134 
18 *459:62 *794:CLK 34.4 
19 *459:60 *459:97 40.5376 
20 *459:97 *778:CLK 17.2 
21 *459:56 *795:CLK 17.2 
*END

*D_NET *460 0.000289898
*CONN
*I *531:C I *D AND5x1_ASAP7_75t_SL
*I *689:A I *D INVx1_ASAP7_75t_SL
*I *1003:Y O *D BUFx3_ASAP7_75t_SL
*CAP
1 *531:C 0
2 *689:A 0
3 *1003:Y 0
4 *460:23 3.40762e-05
5 *460:12 6.4527e-05
6 *460:8 0.000134989
7 *460:6 3.63854e-05
8 *460:8 *468:10 0
9 *460:23 *465:17 7.84037e-07
10 *460:23 *466:21 6.7842e-07
11 *460:23 *468:10 0
12 *460:23 *480:36 2.43887e-07
13 *758:B *460:23 0
14 *759:B *460:8 0
15 *991:A *460:8 0
16 *60:10 *460:23 2.22736e-06
17 *154:28 *460:8 3.86633e-06
18 *252:6 *460:12 1.21211e-05
19 *348:6 *460:12 0
*RES
1 *1003:Y *460:6 34.4 
2 *460:6 *460:8 25.9056 
3 *460:8 *460:12 48.7547 
4 *460:12 *689:A 17.2 
5 *460:8 *460:23 40.2048 
6 *460:23 *531:C 17.2 
*END

*D_NET *461 0.000897871
*CONN
*I *744:A I *D INVx1_ASAP7_75t_SL
*I *715:A1 I *D OA21x2_ASAP7_75t_SL
*I *714:A I *D NOR2x1_ASAP7_75t_SL
*I *528:A I *D AND4x1_ASAP7_75t_SL
*I *1004:Y O *D BUFx3_ASAP7_75t_SL
*CAP
1 *744:A 0
2 *715:A1 2.11982e-06
3 *714:A 3.78983e-06
4 *528:A 1.43625e-05
5 *1004:Y 1.22406e-05
6 *461:64 3.85484e-05
7 *461:58 4.69198e-05
8 *461:52 4.4897e-05
9 *461:35 6.36038e-05
10 *461:31 2.54081e-05
11 *461:20 4.86747e-05
12 *461:18 3.43122e-05
13 *461:16 3.57182e-05
14 *461:14 3.88793e-05
15 *461:10 1.54017e-05
16 *461:10 *493:35 1.12894e-06
17 *461:14 *493:35 2.19685e-06
18 *461:16 *480:12 5.08628e-05
19 *461:35 *480:12 3.1923e-06
20 *461:64 *467:55 3.56177e-06
21 *461:64 *478:99 1.31716e-05
22 *658:B *461:20 2.25602e-05
23 *75:10 *461:16 1.04475e-06
24 *87:10 *461:58 0
25 *141:89 *461:20 4.78155e-05
26 *142:18 *461:20 5.21643e-05
27 *146:8 *461:14 5.52807e-07
28 *146:104 *461:58 1.01707e-05
29 *209:57 *461:20 0
30 *212:23 *461:20 8.33006e-07
31 *229:14 *461:20 5.02156e-05
32 *232:14 *461:16 3.56648e-06
33 *232:18 *461:20 3.47607e-06
34 *232:22 *461:16 0.000104531
35 *232:28 *461:16 1.56713e-06
36 *232:28 *461:35 0
37 *232:36 *714:A 2.28976e-06
38 *232:36 *461:35 1.56713e-06
39 *232:44 *461:58 4.65695e-07
40 *232:75 *461:20 1.11872e-05
41 *279:8 *461:20 5.52807e-07
42 *279:12 *461:20 2.70427e-06
43 *279:16 *461:16 3.97879e-05
44 *279:24 *461:10 5.17782e-06
45 *279:24 *461:52 2.11212e-05
46 *285:8 *461:16 5.17782e-06
47 *409:16 *461:64 1.03507e-05
48 *457:86 *461:64 0
*RES
1 *1004:Y *461:10 41.5228 
2 *461:10 *461:14 20.0158 
3 *461:14 *461:16 50.8084 
4 *461:16 *461:18 17.2 
5 *461:18 *461:20 43.9269 
6 *461:20 *528:A 40.2831 
7 *461:10 *461:31 17.2 
8 *461:31 *461:35 28.4313 
9 *461:35 *714:A 37.694 
10 *461:35 *461:52 33.9496 
11 *461:52 *461:58 40.5948 
12 *461:58 *461:64 34.0063 
13 *461:64 *715:A1 35.4697 
14 *461:31 *744:A 17.2 
*END

*D_NET *462 0.000485039
*CONN
*I *710:A1 I *D OA21x2_ASAP7_75t_SL
*I *709:A I *D NOR2x1_ASAP7_75t_SL
*I *742:A I *D INVx1_ASAP7_75t_SL
*I *530:A I *D AND4x1_ASAP7_75t_SL
*I *1005:Y O *D BUFx3_ASAP7_75t_SL
*CAP
1 *710:A1 1.30446e-05
2 *709:A 0
3 *742:A 0
4 *530:A 0
5 *1005:Y 0
6 *462:40 1.79659e-05
7 *462:26 5.61023e-05
8 *462:20 6.74476e-05
9 *462:14 5.92578e-05
10 *462:10 7.19207e-05
11 *462:4 2.89295e-05
12 *710:A1 *494:6 4.70254e-06
13 *462:10 *494:6 2.46401e-05
14 *462:20 *468:10 0
15 *462:20 *494:20 8.99634e-06
16 *462:26 *483:58 7.63254e-07
17 *462:26 *483:66 8.49117e-06
18 *462:26 *493:22 3.81627e-06
19 *462:40 *494:6 5.39563e-06
20 *709:B *710:A1 2.67517e-05
21 *743:A2 *462:26 2.11853e-06
22 *743:C2 *462:26 7.58265e-07
23 *146:72 *462:26 2.95635e-05
24 *159:10 *462:10 1.90585e-05
25 *159:22 *462:14 8.51778e-06
26 *160:10 *462:10 1.94927e-05
27 *284:10 *462:26 6.78445e-06
28 *453:22 *462:26 5.19552e-07
29 *459:12 *462:26 0
30 *459:19 *462:26 0
*RES
1 *1005:Y *462:4 17.2 
2 *462:4 *462:10 38.3983 
3 *462:10 *462:14 36.9885 
4 *462:14 *462:20 43.4107 
5 *462:20 *462:26 49.2648 
6 *462:26 *530:A 34.4 
7 *462:20 *742:A 17.2 
8 *462:4 *462:40 3.74377 
9 *462:40 *709:A 17.2 
10 *462:40 *710:A1 27.3617 
*END

*D_NET *463 0.000199859
*CONN
*I *705:A I *D INVx1_ASAP7_75t_SL
*I *530:B I *D AND4x1_ASAP7_75t_SL
*I *1006:Y O *D BUFx3_ASAP7_75t_SL
*CAP
1 *705:A 3.15398e-06
2 *530:B 1.26369e-05
3 *1006:Y 3.2509e-05
4 *463:10 4.40394e-05
5 *463:8 6.07576e-05
6 *530:B *530:C 3.05302e-06
7 *463:10 *464:8 0
8 *755:A *463:8 1.51653e-06
9 *49:6 *463:8 1.26378e-06
10 *52:10 *463:10 5.52807e-07
11 *146:72 *530:B 1.27915e-05
12 *146:80 *530:B 1.67815e-06
13 *146:80 *705:A 1.44167e-06
14 *146:80 *463:10 1.54229e-06
15 *213:92 *463:10 1.93482e-06
16 *266:10 *705:A 1.52651e-06
17 *266:10 *463:10 1.6414e-05
18 *452:18 *463:10 0
19 *459:30 *530:B 0
20 *459:30 *463:10 0
21 *459:41 *463:10 0
22 *459:54 *463:10 0
23 *459:56 *463:8 3.0471e-06
*RES
1 *1006:Y *463:8 49.9099 
2 *463:8 *463:10 22.5266 
3 *463:10 *530:B 43.2973 
4 *463:10 *705:A 36.5393 
*END

*D_NET *464 0.000197898
*CONN
*I *701:A I *D INVx1_ASAP7_75t_SL
*I *530:C I *D AND4x1_ASAP7_75t_SL
*I *1007:Y O *D BUFx3_ASAP7_75t_SL
*CAP
1 *701:A 1.15522e-05
2 *530:C 2.43692e-05
3 *1007:Y 0
4 *464:8 8.5823e-05
5 *464:6 4.99016e-05
6 *701:A *471:120 2.20493e-06
7 *464:8 *480:118 0
8 *530:B *530:C 3.05302e-06
9 *52:10 *464:8 2.98814e-06
10 *101:10 *464:8 0
11 *146:72 *530:C 0
12 *146:72 *464:8 0
13 *146:80 *464:8 0
14 *210:54 *530:C 3.36483e-06
15 *210:54 *464:8 3.99766e-06
16 *213:98 *464:8 0
17 *261:8 *701:A 2.66797e-07
18 *264:10 *464:8 9.11384e-07
19 *264:22 *464:8 5.97629e-07
20 *352:33 *464:8 0
21 *452:18 *464:8 8.8679e-06
22 *463:10 *464:8 0
*RES
1 *1007:Y *464:6 34.4 
2 *464:6 *464:8 37.169 
3 *464:8 *530:C 49.5168 
4 *464:8 *701:A 39.2134 
*END

*D_NET *465 0.000326248
*CONN
*I *531:A I *D AND5x1_ASAP7_75t_SL
*I *697:A I *D INVx1_ASAP7_75t_SL
*I *1008:Y O *D BUFx3_ASAP7_75t_SL
*CAP
1 *531:A 0
2 *697:A 6.57775e-05
3 *1008:Y 0
4 *465:17 5.16383e-05
5 *465:4 0.000117416
6 *465:17 *466:21 3.76935e-06
7 *465:17 *468:10 0
8 *757:A *465:17 0
9 *757:B *697:A 1.64509e-05
10 *757:B *465:17 2.87917e-05
11 *136:10 *465:17 0
12 *146:72 *465:17 1.49407e-08
13 *258:14 *697:A 0
14 *297:8 *465:17 0
15 *297:23 *697:A 4.38832e-06
16 *450:8 *697:A 3.72177e-05
17 *460:23 *465:17 7.84037e-07
*RES
1 *1008:Y *465:4 17.2 
2 *465:4 *697:A 44.4761 
3 *465:4 *465:17 48.2555 
4 *465:17 *531:A 34.4 
*END

*D_NET *466 0.00012467
*CONN
*I *531:B I *D AND5x1_ASAP7_75t_SL
*I *693:A I *D INVx1_ASAP7_75t_SL
*I *1009:Y O *D BUFx3_ASAP7_75t_SL
*CAP
1 *531:B 0
2 *693:A 2.78244e-05
3 *1009:Y 0
4 *466:21 2.97206e-05
5 *466:4 5.7545e-05
6 *136:10 *466:21 5.52807e-07
7 *255:8 *693:A 4.57952e-06
8 *460:23 *466:21 6.7842e-07
9 *465:17 *466:21 3.76935e-06
*RES
1 *1009:Y *466:4 17.2 
2 *466:4 *693:A 29.501 
3 *466:4 *466:21 49.5168 
4 *466:21 *531:B 17.2 
*END

*D_NET *467 0.000678368
*CONN
*I *531:D I *D AND5x1_ASAP7_75t_SL
*I *685:A1 I *D OA21x2_ASAP7_75t_SL
*I *684:A I *D NOR2x1_ASAP7_75t_SL
*I *735:A I *D INVx1_ASAP7_75t_SL
*I *1010:Y O *D BUFx3_ASAP7_75t_SL
*CAP
1 *531:D 6.7081e-05
2 *685:A1 1.67575e-06
3 *684:A 1.03286e-05
4 *735:A 0
5 *1010:Y 1.75421e-06
6 *467:59 7.48965e-05
7 *467:55 5.23423e-05
8 *467:51 4.9916e-05
9 *467:38 9.70447e-06
10 *467:27 2.89899e-05
11 *467:19 3.12482e-05
12 *467:12 2.581e-05
13 *467:8 3.75116e-05
14 *467:8 *478:92 1.22048e-05
15 *467:19 *478:92 6.8435e-06
16 *467:19 *478:99 3.51342e-05
17 *467:27 *483:158 1.48371e-05
18 *467:38 *478:99 6.75189e-06
19 *467:51 *478:99 2.91248e-05
20 *467:51 *493:10 1.19435e-05
21 *467:59 *476:81 6.78455e-06
22 *504:A *531:D 1.26378e-06
23 *504:B *531:D 1.36155e-06
24 *504:C *531:D 5.33594e-07
25 *685:A2 *467:27 5.19552e-07
26 *685:A2 *467:51 5.19498e-06
27 *685:B *467:27 2.20493e-06
28 *688:A2 *467:12 1.41612e-05
29 *688:B2 *467:12 5.75097e-06
30 *109:14 *467:55 1.73051e-05
31 *110:6 *531:D 1.37525e-05
32 *146:104 *467:27 2.20417e-06
33 *155:10 *467:55 2.12481e-06
34 *213:34 *467:19 3.57606e-06
35 *213:34 *467:38 8.90818e-07
36 *213:34 *467:51 1.12894e-06
37 *232:40 *684:A 7.08618e-06
38 *232:44 *467:27 8.58704e-06
39 *294:6 *467:12 3.07765e-05
40 *294:8 *467:12 9.74424e-06
41 *294:18 *467:12 1.711e-05
42 *457:56 *467:8 5.33743e-06
43 *457:56 *467:19 8.52488e-06
44 *457:69 *467:19 7.84772e-07
45 *461:64 *467:55 3.56177e-06
*RES
1 *1010:Y *467:8 38.3422 
2 *467:8 *467:12 35.9189 
3 *467:12 *735:A 17.2 
4 *467:8 *467:19 14.0792 
5 *467:19 *467:27 46.4212 
6 *467:27 *684:A 40.2831 
7 *467:19 *467:38 2.81583 
8 *467:38 *685:A1 35.4697 
9 *467:38 *467:51 27.337 
10 *467:51 *467:55 47.685 
11 *467:55 *467:59 22.8317 
12 *467:59 *531:D 48.2198 
*END

*D_NET *468 0.000488191
*CONN
*I *761:B I *D HAxp5_ASAP7_75t_SL
*I *530:D I *D AND4x1_ASAP7_75t_SL
*I *1011:Y O *D BUFx3_ASAP7_75t_SL
*CAP
1 *761:B 0
2 *530:D 2.75048e-06
3 *1011:Y 0
4 *468:35 2.29363e-05
5 *468:18 1.08539e-05
6 *468:10 0.00011993
7 *468:8 0.000121183
8 *468:4 3.22931e-05
9 *468:10 *493:22 1.94229e-07
10 *504:A *468:10 0
11 *505:A1 *468:10 0
12 *557:B *468:10 0
13 *62:14 *468:10 0
14 *62:27 *468:10 0
15 *67:19 *468:35 2.68933e-07
16 *69:8 *468:35 7.72307e-07
17 *69:10 *468:10 0
18 *136:10 *468:10 0.000114918
19 *137:8 *468:10 9.1471e-07
20 *146:72 *468:18 0
21 *154:28 *468:10 7.76819e-06
22 *350:12 *468:18 2.22714e-05
23 *360:14 *468:18 4.76997e-06
24 *415:20 *468:35 0
25 *415:28 *468:10 0
26 *417:8 *468:10 0
27 *453:22 *468:10 2.31297e-05
28 *457:149 *468:18 0
29 *459:19 *468:10 2.89387e-06
30 *459:19 *468:18 3.42518e-07
31 *460:8 *468:10 0
32 *460:23 *468:10 0
33 *462:20 *468:10 0
34 *465:17 *468:10 0
*RES
1 *1011:Y *468:4 17.2 
2 *468:4 *468:8 20.9438 
3 *468:8 *468:10 92.6408 
4 *468:10 *468:18 39.4874 
5 *468:18 *530:D 35.4697 
6 *468:4 *468:35 49.6302 
7 *468:35 *761:B 17.2 
*END

*D_NET *469 0.000354197
*CONN
*I *730:A I *D INVx1_ASAP7_75t_SL
*I *668:A1 I *D OA21x2_ASAP7_75t_SL
*I *528:D I *D AND4x1_ASAP7_75t_SL
*I *666:A1 I *D OA211x2_ASAP7_75t_SL
*I *1012:Y O *D BUFx3_ASAP7_75t_SL
*CAP
1 *730:A 3.67419e-06
2 *668:A1 0
3 *528:D 3.17123e-05
4 *666:A1 4.50777e-06
5 *1012:Y 0
6 *469:34 5.42488e-05
7 *469:12 4.91898e-05
8 *469:10 8.262e-05
9 *469:4 1.90756e-05
10 *528:D *528:C 2.11263e-05
11 *667:A1 *469:34 1.32074e-05
12 *668:A2 *469:34 7.35354e-06
13 *36:16 *666:A1 1.4927e-05
14 *36:16 *469:12 1.12374e-05
15 *39:14 *730:A 8.65792e-06
16 *39:14 *469:10 5.62196e-06
17 *134:10 *528:D 0
18 *147:122 *666:A1 2.37311e-06
19 *213:160 *469:34 1.52651e-06
20 *234:8 *469:12 0
21 *235:6 *469:34 0
22 *235:14 *469:34 3.71468e-06
23 *397:102 *469:10 1.0269e-05
24 *397:102 *469:12 9.15342e-06
*RES
1 *1012:Y *469:4 17.2 
2 *469:4 *469:10 27.8151 
3 *469:10 *469:12 11.8265 
4 *469:12 *666:A1 39.4685 
5 *469:12 *528:D 46.1661 
6 *469:10 *469:34 41.8019 
7 *469:34 *668:A1 17.2 
8 *469:4 *730:A 19.8741 
*END

*D_NET *470 0.000469527
*CONN
*I *671:A I *D INVx1_ASAP7_75t_SL
*I *528:C I *D AND4x1_ASAP7_75t_SL
*I *1013:Y O *D BUFx3_ASAP7_75t_SL
*CAP
1 *671:A 1.05991e-05
2 *528:C 6.21299e-06
3 *1013:Y 0
4 *470:20 3.76265e-05
5 *470:16 5.47856e-05
6 *470:10 7.63831e-05
7 *470:4 6.36101e-05
8 *671:A *731:C1 5.17782e-06
9 *470:10 *731:C1 2.97289e-06
10 *528:B *528:C 1.00935e-05
11 *528:D *528:C 2.11263e-05
12 *28:22 *671:A 1.01102e-06
13 *31:22 *470:16 2.10126e-05
14 *35:10 *470:20 1.18996e-06
15 *36:24 *470:20 6.50145e-05
16 *38:12 *470:16 7.63254e-06
17 *134:10 *528:C 5.50294e-07
18 *149:137 *470:20 0
19 *214:44 *470:10 8.07286e-05
20 *236:10 *470:20 0
21 *282:8 *470:10 3.79923e-06
22 *431:33 *470:20 0
*RES
1 *1013:Y *470:4 17.2 
2 *470:4 *470:10 46.7854 
3 *470:10 *470:16 45.6313 
4 *470:16 *470:20 44.232 
5 *470:20 *528:C 24.1527 
6 *470:4 *671:A 23.0831 
*END

*D_NET *471 0.00180416
*CONN
*I *736:A1 I *D OA222x2_ASAP7_75t_SL
*I *681:A I *D AND3x1_ASAP7_75t_SL
*I *734:A1 I *D OA222x2_ASAP7_75t_SL
*I *741:A1 I *D OA222x2_ASAP7_75t_SL
*I *743:A1 I *D OA222x2_ASAP7_75t_SL
*I *740:A1 I *D OA222x2_ASAP7_75t_SL
*I *702:A I *D AND3x1_ASAP7_75t_SL
*I *698:A I *D AND3x1_ASAP7_75t_SL
*I *739:A1 I *D OA222x2_ASAP7_75t_SL
*I *738:A1 I *D OA222x2_ASAP7_75t_SL
*I *737:A1 I *D OA222x2_ASAP7_75t_SL
*I *1014:Y O *D BUFx3_ASAP7_75t_SL
*CAP
1 *736:A1 0
2 *681:A 0
3 *734:A1 1.69921e-05
4 *741:A1 2.52796e-06
5 *743:A1 1.52927e-05
6 *740:A1 3.64568e-06
7 *702:A 0
8 *698:A 4.12553e-06
9 *739:A1 3.22179e-06
10 *738:A1 2.74372e-06
11 *737:A1 0
12 *1014:Y 1.37169e-05
13 *471:168 1.37925e-05
14 *471:155 7.72512e-06
15 *471:120 4.78488e-05
16 *471:114 5.11996e-05
17 *471:108 3.30147e-05
18 *471:104 3.32222e-05
19 *471:85 4.80899e-05
20 *471:74 3.58245e-05
21 *471:61 3.48678e-05
22 *471:50 3.39971e-05
23 *471:39 5.85269e-05
24 *471:30 7.06018e-05
25 *471:28 7.18639e-05
26 *471:24 5.84946e-05
27 *471:18 6.92472e-05
28 *471:16 5.50057e-05
29 *471:14 4.9438e-05
30 *471:8 0.000140215
31 *471:6 0.000127553
32 *734:A1 *478:21 2.88806e-06
33 *741:A1 *480:118 1.40419e-08
34 *743:A1 *483:72 4.48153e-05
35 *743:A1 *494:34 2.54159e-06
36 *471:6 *493:62 2.61758e-05
37 *471:8 *493:62 0.00014998
38 *471:24 *478:27 6.33206e-07
39 *471:30 *478:37 0
40 *471:39 *478:37 0
41 *471:39 *483:98 8.59092e-06
42 *471:50 *739:B1 7.21451e-07
43 *471:50 *483:96 1.21149e-06
44 *471:61 *483:88 0
45 *471:74 *702:C 0
46 *471:104 *483:86 2.87631e-05
47 *471:114 *704:A2 0
48 *471:114 *480:87 0
49 *471:114 *480:110 2.23812e-05
50 *694:B *471:39 4.83862e-06
51 *698:B *471:61 0
52 *698:B *471:74 0
53 *701:A *471:120 2.20493e-06
54 *739:A2 *739:A1 6.19506e-06
55 *739:A2 *471:61 3.33563e-05
56 *739:B2 *471:61 0
57 *740:A2 *740:A1 9.08513e-06
58 *741:A2 *741:A1 1.73158e-06
59 *743:A2 *743:A1 2.05732e-05
60 *83:10 *471:120 1.07377e-06
61 *95:14 *471:14 0
62 *95:14 *471:18 4.34206e-05
63 *105:14 *471:74 0
64 *107:12 *471:39 0
65 *120:10 *471:168 3.70195e-05
66 *149:36 *471:39 3.23425e-06
67 *149:42 *471:39 7.04033e-05
68 *149:50 *471:114 6.74984e-06
69 *210:54 *471:120 2.19892e-05
70 *213:98 *471:120 2.05027e-06
71 *258:29 *471:114 1.10099e-06
72 *259:10 *698:A 1.07377e-06
73 *259:10 *471:74 5.52807e-07
74 *260:10 *471:74 1.12894e-06
75 *260:10 *471:85 1.908e-06
76 *261:8 *471:120 1.39174e-05
77 *261:14 *471:114 0
78 *261:22 *471:104 2.48612e-05
79 *261:37 *471:108 6.53938e-06
80 *262:10 *471:85 3.73518e-07
81 *293:27 *471:155 1.25267e-05
82 *293:35 *471:8 2.03526e-06
83 *293:35 *471:14 2.20493e-06
84 *303:10 *734:A1 9.13939e-06
85 *350:20 *471:74 6.33206e-07
86 *350:20 *471:85 8.9453e-07
87 *351:33 *471:85 2.32002e-05
88 *351:33 *471:104 8.06436e-07
89 *359:20 *471:104 4.23885e-07
90 *366:8 *471:168 0
91 *366:16 *471:168 3.1625e-06
92 *370:12 *738:A1 7.14604e-06
93 *374:12 *471:74 1.34467e-07
94 *374:12 *471:85 5.28699e-06
95 *374:12 *471:104 3.05118e-08
96 *415:20 *734:A1 0
97 *415:20 *471:14 0
98 *415:20 *471:155 2.24214e-06
99 *437:62 *471:85 3.9526e-06
100 *448:22 *471:30 3.92018e-06
101 *448:22 *471:39 7.84037e-07
102 *449:18 *471:39 5.67735e-06
103 *449:18 *471:50 2.89597e-06
104 *452:24 *471:114 1.61939e-06
105 *457:77 *471:39 2.68933e-07
106 *457:157 *471:85 1.02522e-06
107 *457:157 *471:104 3.37911e-06
108 *457:169 *471:74 0
109 *457:169 *471:85 0
110 *457:173 *471:50 0
111 *457:173 *471:61 0
112 *457:202 *471:114 3.88115e-06
*RES
1 *1014:Y *471:6 24.1527 
2 *471:6 *471:8 54.0173 
3 *471:8 *471:14 33.4431 
4 *471:14 *471:16 17.2 
5 *471:16 *471:18 43.3208 
6 *471:18 *471:24 45.6633 
7 *471:24 *471:28 35.9189 
8 *471:28 *471:30 22.5266 
9 *471:30 *737:A1 34.4 
10 *471:30 *471:39 41.6743 
11 *471:39 *738:A1 36.5393 
12 *471:39 *471:50 10.137 
13 *471:50 *739:A1 36.5393 
14 *471:50 *471:61 16.3318 
15 *471:61 *698:A 36.5393 
16 *471:61 *471:74 26.2107 
17 *471:74 *702:A 17.2 
18 *471:74 *471:85 36.2626 
19 *471:85 *740:A1 37.0741 
20 *471:85 *471:104 44.9635 
21 *471:104 *471:108 24.1527 
22 *471:108 *471:114 49.6055 
23 *471:114 *471:120 40.5942 
24 *471:120 *743:A1 49.9099 
25 *471:108 *741:A1 18.8045 
26 *471:14 *734:A1 45.55 
27 *471:8 *471:155 39.975 
28 *471:155 *681:A 17.2 
29 *471:6 *471:168 47.8593 
30 *471:168 *736:A1 17.2 
*END

*D_NET *472 0.000319272
*CONN
*I *727:A I *D INVx1_ASAP7_75t_SL
*I *653:B I *D AND3x1_ASAP7_75t_SL
*I *529:B I *D AND4x1_ASAP7_75t_SL
*I *1015:Y O *D BUFx3_ASAP7_75t_SL
*CAP
1 *727:A 2.19482e-05
2 *653:B 1.4837e-05
3 *529:B 0
4 *1015:Y 0
5 *472:22 1.16558e-05
6 *472:14 5.32502e-05
7 *472:8 6.29504e-05
8 *472:4 2.84672e-05
9 *653:B *477:92 2.46625e-06
10 *653:B *477:100 1.10101e-05
11 *472:14 *477:92 4.57263e-07
12 *472:22 *477:77 2.70589e-07
13 *653:C *653:B 1.61096e-06
14 *37:26 *653:B 6.54505e-06
15 *40:29 *472:22 2.87676e-05
16 *135:6 *472:22 3.68287e-06
17 *210:77 *472:22 0
18 *287:32 *472:14 8.75305e-06
19 *287:40 *472:22 1.13518e-05
20 *340:18 *653:B 9.83062e-07
21 *397:79 *727:A 1.84616e-05
22 *397:79 *472:8 3.3921e-06
23 *456:16 *653:B 1.74632e-05
24 *456:16 *472:14 9.33705e-06
25 *456:106 *653:B 1.61096e-06
*RES
1 *1015:Y *472:4 17.2 
2 *472:4 *472:8 19.8741 
3 *472:8 *472:14 33.9496 
4 *472:14 *472:22 45.6066 
5 *472:22 *529:B 17.2 
6 *472:8 *653:B 47.8593 
7 *472:4 *727:A 28.4313 
*END

*D_NET *473 8.14062e-06
*CONN
*I *677:A I *D NAND2x1_ASAP7_75t_SL
*I *1016:Y O *D BUFx3_ASAP7_75t_SL
*CAP
1 *677:A 2.5438e-06
2 *1016:Y 2.5438e-06
3 *245:22 *677:A 3.05302e-06
*RES
1 *1016:Y *677:A 36.5393 
*END

*D_NET *474 9.16478e-05
*CONN
*I *672:A I *D NAND2x1_ASAP7_75t_SL
*I *1017:Y O *D BUFx3_ASAP7_75t_SL
*CAP
1 *672:A 0
2 *1017:Y 0
3 *474:12 4.39806e-05
4 *474:6 4.39806e-05
5 *149:245 *474:12 1.19531e-06
6 *211:12 *474:12 1.07227e-06
7 *239:8 *474:12 1.4191e-06
8 *243:8 *474:12 0
*RES
1 *1017:Y *474:6 34.4 
2 *474:6 *474:12 42.8789 
3 *474:12 *672:A 17.2 
*END

*D_NET *475 0.000154854
*CONN
*I *655:A1 I *D AOI22x1_ASAP7_75t_SL
*I *1018:Y O *D BUFx3_ASAP7_75t_SL
*CAP
1 *655:A1 0
2 *1018:Y 0
3 *475:20 1.64997e-05
4 *475:10 4.54955e-05
5 *475:6 2.89958e-05
6 *1018:A *475:10 3.38221e-06
7 *18:23 *475:10 1.99117e-05
8 *74:12 *475:20 3.92018e-06
9 *149:193 *475:20 6.7842e-07
10 *210:92 *475:10 3.12987e-06
11 *275:6 *475:20 1.66584e-05
12 *275:10 *475:10 8.06799e-07
13 *288:10 *475:10 3.47607e-06
14 *288:10 *475:20 3.56648e-06
15 *336:106 *475:20 8.33296e-06
*RES
1 *1018:Y *475:6 34.4 
2 *475:6 *475:10 41.9793 
3 *475:10 *475:20 46.8427 
4 *475:20 *655:A1 17.2 
*END

*D_NET *476 0.00212011
*CONN
*I *722:B I *D AO21x2_ASAP7_75t_SL
*I *538:B I *D AO21x1_ASAP7_75t_SL
*I *545:B I *D AND2x2_ASAP7_75t_SL
*I *541:B I *D NAND2x1_ASAP7_75t_SL
*I *702:C I *D AND3x1_ASAP7_75t_SL
*I *698:C I *D AND3x1_ASAP7_75t_SL
*I *681:C I *D AND3x1_ASAP7_75t_SL
*I *1019:Y O *D BUFx3_ASAP7_75t_SL
*CAP
1 *722:B 5.7414e-06
2 *538:B 1.45991e-06
3 *545:B 0
4 *541:B 0
5 *702:C 1.28564e-05
6 *698:C 4.87697e-06
7 *681:C 0
8 *1019:Y 2.60172e-05
9 *476:148 4.50225e-05
10 *476:137 4.89007e-05
11 *476:135 2.62272e-05
12 *476:117 7.70969e-06
13 *476:87 1.77334e-05
14 *476:85 8.50866e-05
15 *476:83 8.50866e-05
16 *476:81 6.20436e-05
17 *476:79 6.20436e-05
18 *476:77 3.13609e-05
19 *476:66 2.51622e-05
20 *476:60 3.38429e-05
21 *476:54 4.19521e-05
22 *476:50 9.068e-05
23 *476:46 0.000120901
24 *476:40 4.76086e-05
25 *476:38 1.77601e-05
26 *476:34 3.14016e-05
27 *476:26 4.69001e-05
28 *476:18 7.36076e-05
29 *476:10 5.60661e-05
30 *698:C *483:88 1.70708e-06
31 *702:C *483:88 2.57494e-05
32 *476:50 *483:162 0
33 *476:50 *483:183 0
34 *476:66 *478:8 2.19685e-06
35 *476:77 *478:84 6.10236e-08
36 *476:77 *494:58 4.40007e-05
37 *476:81 *494:58 0.000125332
38 *476:85 *483:50 0.000106139
39 *476:85 *494:24 0.000104673
40 *506:B *476:81 4.91691e-06
41 *661:B *476:148 0
42 *698:B *698:C 3.32336e-06
43 *698:B *702:C 6.45127e-06
44 *700:C *702:C 1.32074e-05
45 *736:B2 *476:46 1.30746e-06
46 *746:CI *476:50 4.98688e-07
47 *763:CLK *476:10 1.07573e-06
48 *765:CLK *476:34 5.67735e-06
49 *773:D *476:66 3.37925e-05
50 *4:14 *476:135 1.60115e-05
51 *4:24 *476:38 1.42799e-05
52 *4:26 *476:38 1.2768e-05
53 *4:26 *476:40 2.29378e-05
54 *4:26 *476:46 1.79628e-05
55 *4:26 *476:117 7.35354e-06
56 *13:10 *476:46 7.58265e-07
57 *24:14 *476:77 5.49212e-07
58 *56:19 *476:81 9.99467e-06
59 *65:23 *476:81 1.49407e-08
60 *65:36 *476:77 3.3921e-06
61 *69:8 *476:60 8.06588e-06
62 *71:20 *476:34 1.43509e-05
63 *71:20 *476:50 9.56234e-06
64 *79:16 *476:60 3.71468e-06
65 *96:8 *476:117 0
66 *106:18 *476:18 1.49407e-08
67 *106:18 *476:135 1.49407e-08
68 *115:10 *476:66 1.03429e-05
69 *141:89 *476:148 0
70 *142:22 *538:B 3.68287e-06
71 *144:10 *476:137 2.83874e-07
72 *145:8 *476:10 8.18029e-06
73 *146:42 *476:85 0
74 *146:130 *476:34 1.09067e-06
75 *146:153 *476:10 6.70433e-06
76 *148:10 *476:26 2.98814e-08
77 *148:10 *476:137 0
78 *149:8 *476:34 1.16088e-06
79 *149:83 *476:34 2.78959e-06
80 *149:89 *476:18 9.94583e-06
81 *149:89 *476:26 1.25606e-05
82 *149:89 *476:135 6.06797e-06
83 *149:110 *476:18 7.25792e-06
84 *153:8 *476:77 0
85 *156:12 *476:77 8.2174e-07
86 *157:10 *476:81 0
87 *158:10 *476:81 0
88 *159:10 *476:81 0
89 *159:22 *476:81 7.62406e-06
90 *160:10 *476:81 4.26171e-06
91 *232:18 *476:148 0
92 *247:10 *476:54 1.73917e-06
93 *247:10 *476:66 2.74606e-06
94 *247:10 *476:77 1.12894e-06
95 *278:8 *476:148 8.18318e-06
96 *279:8 *476:148 0
97 *279:12 *476:148 0
98 *283:10 *476:46 1.49407e-08
99 *293:14 *476:66 5.0551e-07
100 *293:27 *476:66 7.02653e-06
101 *293:58 *476:66 1.62612e-05
102 *303:22 *476:66 2.19482e-06
103 *303:29 *476:50 9.10106e-07
104 *303:33 *476:54 2.84374e-06
105 *303:33 *476:77 8.21855e-06
106 *336:57 *476:137 0
107 *336:57 *476:148 0
108 *374:12 *702:C 5.72091e-06
109 *374:18 *476:85 6.26682e-05
110 *402:8 *476:148 4.53891e-05
111 *402:14 *476:148 7.76258e-05
112 *416:14 *476:77 3.6269e-06
113 *419:8 *476:81 2.18514e-05
114 *419:17 *476:81 1.51704e-05
115 *437:24 *476:77 1.908e-06
116 *437:39 *476:85 6.43539e-06
117 *458:71 *476:10 1.09067e-06
118 *458:71 *476:135 0
119 *458:71 *476:137 6.33206e-07
120 *458:84 *476:18 4.23705e-06
121 *458:92 *476:26 2.48789e-06
122 *467:59 *476:81 6.78455e-06
123 *471:74 *702:C 0
*RES
1 *1019:Y *476:10 49.6869 
2 *476:10 *476:18 49.0103 
3 *476:18 *476:26 47.4714 
4 *476:26 *476:34 46.2145 
5 *476:34 *476:38 25.2224 
6 *476:38 *476:40 6.95272 
7 *476:40 *476:46 35.8817 
8 *476:46 *476:50 48.7999 
9 *476:50 *476:54 19.5465 
10 *476:54 *476:60 41.3527 
11 *476:60 *476:66 43.049 
12 *476:66 *681:C 17.2 
13 *476:54 *476:77 42.4008 
14 *476:77 *476:79 17.2 
15 *476:79 *476:81 60.9158 
16 *476:81 *476:83 17.2 
17 *476:83 *476:85 47.8328 
18 *476:85 *476:87 17.2 
19 *476:87 *698:C 37.1963 
20 *476:87 *702:C 47.0606 
21 *476:40 *476:117 39.3551 
22 *476:117 *541:B 17.2 
23 *476:38 *545:B 17.2 
24 *476:18 *476:135 45.4083 
25 *476:135 *476:137 5.63166 
26 *476:137 *538:B 35.4697 
27 *476:137 *476:148 42.8006 
28 *476:148 *722:B 37.0741 
*END

*D_NET *477 0.00151403
*CONN
*I *729:A1 I *D OA222x2_ASAP7_75t_SL
*I *653:A I *D AND3x1_ASAP7_75t_SL
*I *728:A1 I *D OA222x2_ASAP7_75t_SL
*I *652:A I *D NOR2x1_ASAP7_75t_SL
*I *732:A1 I *D OA222x2_ASAP7_75t_SL
*I *733:A1 I *D OA222x2_ASAP7_75t_SL
*I *731:A1 I *D OA222x2_ASAP7_75t_SL
*I *666:C I *D OA211x2_ASAP7_75t_SL
*I *726:A1 I *D OA222x2_ASAP7_75t_SL
*I *725:A1 I *D OA222x2_ASAP7_75t_SL
*I *539:A2 I *D OA21x2_ASAP7_75t_SL
*I *1020:Y O *D BUFx3_ASAP7_75t_SL
*CAP
1 *729:A1 6.57348e-06
2 *653:A 5.33517e-06
3 *728:A1 0
4 *652:A 0
5 *732:A1 1.08688e-05
6 *733:A1 0
7 *731:A1 0
8 *666:C 6.66313e-06
9 *726:A1 1.69971e-06
10 *725:A1 2.40296e-06
11 *539:A2 6.38006e-06
12 *1020:Y 6.02757e-06
13 *477:162 1.88583e-05
14 *477:133 1.91085e-05
15 *477:126 8.15125e-07
16 *477:120 2.62456e-05
17 *477:112 4.76438e-05
18 *477:108 7.03772e-05
19 *477:104 6.59999e-05
20 *477:100 2.75581e-05
21 *477:92 5.63329e-05
22 *477:77 6.09063e-05
23 *477:71 9.14734e-05
24 *477:58 3.58659e-05
25 *477:47 3.70541e-05
26 *477:43 3.00843e-05
27 *477:39 5.28299e-05
28 *477:31 5.18208e-05
29 *477:18 2.19063e-05
30 *477:10 3.09698e-05
31 *477:8 6.02757e-06
32 *477:39 *481:16 5.49212e-07
33 *477:77 *479:66 1.47416e-06
34 *477:108 *481:74 0
35 *477:108 *481:84 4.83862e-06
36 *477:112 *731:C1 7.9862e-05
37 *477:133 *481:84 1.97537e-05
38 *477:133 *481:97 0
39 *477:162 *481:55 2.46349e-07
40 *477:162 *481:61 1.62312e-05
41 *543:A *477:8 3.73518e-07
42 *653:B *477:92 2.46625e-06
43 *653:B *477:100 1.10101e-05
44 *653:C *653:A 5.85387e-06
45 *653:C *477:100 1.78906e-05
46 *654:A *477:108 1.15587e-05
47 *657:B *477:43 3.46317e-06
48 *666:B *666:C 1.95129e-06
49 *725:A2 *725:A1 7.35354e-06
50 *726:B1 *726:A1 7.35354e-06
51 *729:A2 *729:A1 5.85387e-06
52 *729:A2 *477:39 1.36155e-06
53 *729:C2 *477:39 7.58265e-07
54 *729:C2 *477:43 1.05206e-05
55 *733:B2 *732:A1 0
56 *747:A *732:A1 2.12481e-06
57 *751:A *477:104 2.40363e-05
58 *751:A *477:162 3.39742e-05
59 *1013:A *477:112 1.25483e-05
60 *4:12 *477:18 1.42799e-05
61 *4:12 *477:31 2.40363e-05
62 *4:14 *539:A2 3.16328e-06
63 *4:14 *477:18 1.66706e-05
64 *5:22 *477:43 2.03526e-06
65 *5:28 *477:39 0
66 *5:28 *477:43 1.23909e-05
67 *27:8 *732:A1 5.22376e-07
68 *28:22 *477:112 1.06092e-05
69 *28:33 *732:A1 4.85405e-06
70 *28:33 *477:133 1.47405e-06
71 *36:24 *477:126 3.04043e-06
72 *37:26 *653:A 7.86436e-06
73 *37:26 *477:92 1.2556e-05
74 *37:26 *477:100 1.60814e-06
75 *39:6 *477:104 1.29877e-05
76 *40:18 *726:A1 2.88806e-06
77 *40:29 *477:77 0
78 *40:29 *477:92 0
79 *42:10 *477:77 6.85928e-07
80 *42:14 *477:120 2.22283e-05
81 *89:14 *477:58 0
82 *91:8 *477:39 6.33206e-07
83 *144:10 *477:18 7.84037e-07
84 *146:161 *477:47 1.56807e-06
85 *146:161 *477:58 6.34801e-07
86 *147:122 *477:77 5.21252e-07
87 *147:139 *666:C 1.66663e-05
88 *149:129 *729:A1 0
89 *149:129 *477:39 0
90 *150:18 *732:A1 4.94003e-06
91 *208:25 *477:47 8.2174e-07
92 *208:25 *477:58 1.49407e-08
93 *210:77 *477:77 7.48582e-06
94 *214:40 *477:108 2.1664e-06
95 *215:8 *477:8 6.72662e-07
96 *215:16 *729:A1 6.8435e-06
97 *215:16 *477:31 1.73404e-05
98 *225:12 *477:43 1.09492e-05
99 *226:8 *477:39 0
100 *231:14 *477:8 3.73518e-07
101 *231:18 *729:A1 5.37866e-07
102 *236:10 *477:126 0
103 *280:8 *477:47 2.35559e-05
104 *287:17 *477:58 5.52807e-07
105 *287:32 *477:71 1.09067e-06
106 *287:32 *477:77 1.23862e-05
107 *287:32 *477:92 6.63277e-06
108 *287:40 *477:77 2.46296e-06
109 *288:37 *477:162 7.31297e-06
110 *290:8 *732:A1 1.23321e-06
111 *302:8 *477:47 1.18665e-05
112 *336:57 *477:18 3.05118e-08
113 *340:18 *477:100 2.89406e-05
114 *340:18 *477:108 0
115 *363:26 *477:108 3.3563e-06
116 *397:26 *477:71 1.66587e-05
117 *397:26 *477:92 9.51841e-07
118 *397:28 *477:58 6.6516e-05
119 *397:28 *477:71 3.35641e-06
120 *397:34 *477:58 8.53887e-06
121 *397:42 *477:39 1.52651e-06
122 *397:55 *725:A1 1.07377e-06
123 *397:79 *477:92 9.47071e-07
124 *397:149 *732:A1 4.26751e-07
125 *397:149 *477:133 6.40127e-07
126 *397:164 *732:A1 0
127 *437:89 *477:58 0
128 *437:95 *477:58 0
129 *456:12 *653:A 2.22349e-06
130 *456:12 *477:92 2.26172e-06
131 *456:16 *477:92 2.98814e-08
132 *458:71 *477:18 6.42451e-07
133 *458:163 *477:39 0
134 *472:14 *477:92 4.57263e-07
135 *472:22 *477:77 2.70589e-07
*RES
1 *1020:Y *477:8 38.3422 
2 *477:8 *477:10 17.2 
3 *477:10 *477:18 46.3079 
4 *477:18 *539:A2 21.4786 
5 *477:10 *477:31 29.7844 
6 *477:31 *477:39 49.5168 
7 *477:39 *477:43 36.9885 
8 *477:43 *477:47 26.2107 
9 *477:47 *725:A1 36.5393 
10 *477:47 *477:58 25.9056 
11 *477:58 *726:A1 36.5393 
12 *477:58 *477:71 23.958 
13 *477:71 *477:77 49.2118 
14 *477:77 *666:C 39.2134 
15 *477:71 *477:92 37.3323 
16 *477:92 *477:100 49.3504 
17 *477:100 *477:104 24.1527 
18 *477:104 *477:108 45.3583 
19 *477:108 *477:112 41.2671 
20 *477:112 *477:120 44.9557 
21 *477:120 *477:126 35.4325 
22 *477:126 *731:A1 17.2 
23 *477:108 *477:133 7.88432 
24 *477:133 *733:A1 34.4 
25 *477:133 *732:A1 44.4236 
26 *477:104 *652:A 17.2 
27 *477:104 *477:162 34.1197 
28 *477:162 *728:A1 34.4 
29 *477:92 *653:A 38.8203 
30 *477:31 *729:A1 39.9466 
*END

*D_NET *478 0.00147782
*CONN
*I *797:CLK I *D DFFHQNx1_ASAP7_75t_SL
*I *781:CLK I *D DFFHQNx1_ASAP7_75t_SL
*I *774:CLK I *D DFFHQNx1_ASAP7_75t_SL
*I *789:CLK I *D DFFHQNx1_ASAP7_75t_SL
*I *775:CLK I *D DFFHQNx1_ASAP7_75t_SL
*I *791:CLK I *D DFFHQNx1_ASAP7_75t_SL
*I *776:CLK I *D DFFHQNx1_ASAP7_75t_SL
*I *792:CLK I *D DFFHQNx1_ASAP7_75t_SL
*I *773:CLK I *D DFFHQNx1_ASAP7_75t_SL
*I *1021:Y O *D BUFx4_ASAP7_75t_SL
*CAP
1 *797:CLK 2.59267e-05
2 *781:CLK 3.70709e-05
3 *774:CLK 0
4 *789:CLK 0
5 *775:CLK 0
6 *791:CLK 0
7 *776:CLK 0
8 *792:CLK 0
9 *773:CLK 7.2736e-06
10 *1021:Y 0
11 *478:99 9.44031e-05
12 *478:92 2.39976e-05
13 *478:88 5.54031e-05
14 *478:86 8.35204e-05
15 *478:84 0.000104432
16 *478:61 1.02985e-05
17 *478:50 2.48666e-05
18 *478:37 6.64197e-05
19 *478:31 6.70011e-05
20 *478:29 1.51495e-05
21 *478:27 3.56074e-05
22 *478:21 0.000139752
23 *478:19 0.000104144
24 *478:8 3.27933e-05
25 *478:4 4.64317e-05
26 *478:21 *734:C1 3.90258e-06
27 *478:21 *483:170 1.04475e-06
28 *478:37 *480:50 4.8179e-05
29 *478:37 *483:98 3.13755e-07
30 *478:92 *483:158 0
31 *478:99 *480:24 3.88115e-06
32 *478:99 *493:10 5.07403e-06
33 *502:A *478:86 2.66992e-06
34 *554:A2 *478:86 6.61478e-06
35 *554:B *478:86 5.09299e-06
36 *558:A1 *478:8 2.22736e-06
37 *687:B1 *478:92 1.15945e-06
38 *715:A2 *781:CLK 7.80516e-06
39 *734:A1 *478:21 2.88806e-06
40 *734:A2 *478:21 1.53057e-06
41 *734:B2 *478:21 1.36155e-06
42 *959:A *478:86 1.59615e-06
43 *1010:A *478:92 0
44 *62:14 *478:8 0
45 *65:36 *478:84 8.00358e-06
46 *65:44 *478:8 1.25267e-05
47 *67:6 *478:21 6.92634e-06
48 *67:19 *478:21 7.14604e-06
49 *68:8 *478:8 2.01457e-05
50 *68:27 *478:8 1.08723e-05
51 *80:8 *478:92 0
52 *97:14 *478:27 1.1648e-05
53 *97:14 *478:61 6.62106e-06
54 *108:10 *478:86 1.5804e-05
55 *156:12 *478:84 9.49947e-06
56 *210:38 *478:37 4.70422e-06
57 *210:38 *478:50 1.19496e-05
58 *213:121 *478:37 2.69892e-05
59 *213:121 *478:50 2.5899e-05
60 *247:10 *478:8 0
61 *268:12 *797:CLK 5.51397e-07
62 *272:8 *781:CLK 0
63 *272:12 *797:CLK 9.67723e-06
64 *272:12 *478:99 1.8826e-05
65 *293:35 *773:CLK 2.45559e-05
66 *293:58 *773:CLK 2.90773e-05
67 *293:58 *478:8 1.33022e-05
68 *294:26 *478:92 3.16603e-06
69 *303:10 *478:21 0
70 *347:14 *478:92 1.64764e-06
71 *348:10 *478:37 3.05118e-08
72 *348:23 *478:37 6.10236e-07
73 *415:20 *773:CLK 1.41101e-06
74 *415:20 *478:8 1.86001e-05
75 *416:6 *478:86 0
76 *416:14 *478:86 0
77 *417:8 *478:8 0
78 *437:16 *478:8 1.64764e-06
79 *448:14 *478:37 0
80 *448:22 *478:37 0
81 *457:56 *478:92 3.05118e-08
82 *457:86 *797:CLK 0
83 *457:86 *478:99 0
84 *461:64 *478:99 1.31716e-05
85 *467:8 *478:92 1.22048e-05
86 *467:19 *478:92 6.8435e-06
87 *467:19 *478:99 3.51342e-05
88 *467:38 *478:99 6.75189e-06
89 *467:51 *478:99 2.91248e-05
90 *471:24 *478:27 6.33206e-07
91 *471:30 *478:37 0
92 *471:39 *478:37 0
93 *476:66 *478:8 2.19685e-06
94 *476:77 *478:84 6.10236e-08
*RES
1 *1021:Y *478:4 17.2 
2 *478:4 *478:8 45.9215 
3 *478:8 *773:CLK 44.537 
4 *478:8 *478:19 17.2 
5 *478:19 *478:21 46.5298 
6 *478:21 *478:27 41.6109 
7 *478:27 *478:29 17.2 
8 *478:29 *478:31 5.88308 
9 *478:31 *478:37 48.932 
10 *478:37 *792:CLK 34.4 
11 *478:37 *478:50 36.3723 
12 *478:50 *776:CLK 17.2 
13 *478:31 *478:61 44.537 
14 *478:61 *791:CLK 17.2 
15 *478:29 *775:CLK 17.2 
16 *478:21 *789:CLK 17.2 
17 *478:4 *478:84 44.7317 
18 *478:84 *478:86 36.9029 
19 *478:86 *478:88 17.2 
20 *478:88 *478:92 35.7845 
21 *478:92 *774:CLK 17.2 
22 *478:88 *478:99 34.3531 
23 *478:99 *781:CLK 47.2358 
24 *478:99 *797:CLK 45.8014 
*END

*D_NET *479 0.00136134
*CONN
*I *1002:A I *D BUFx4_ASAP7_75t_SL
*I *1021:A I *D BUFx4_ASAP7_75t_SL
*I *999:A I *D BUFx4_ASAP7_75t_SL
*I *1001:A I *D BUFx4_ASAP7_75t_SL
*I *1022:Y O *D BUFx4_ASAP7_75t_SL
*CAP
1 *1002:A 0
2 *1021:A 0
3 *999:A 0
4 *1001:A 0
5 *1022:Y 0
6 *479:128 8.06845e-06
7 *479:110 6.79382e-07
8 *479:106 8.79213e-05
9 *479:100 0.00011613
10 *479:92 8.40893e-05
11 *479:82 0.000217588
12 *479:66 2.28971e-05
13 *479:50 4.58232e-06
14 *479:46 7.01418e-05
15 *479:38 0.000187224
16 *479:36 0.000116669
17 *479:32 0.000195323
18 *479:19 3.21544e-05
19 *479:11 1.17806e-05
20 *479:6 2.7298e-06
21 *479:38 *483:18 4.21086e-06
22 *479:50 *481:16 1.49407e-08
23 *479:92 *483:50 0
24 *479:92 *494:24 1.87064e-06
25 *479:100 *494:24 1.21019e-05
26 *479:128 *494:24 1.24672e-08
27 *25:26 *479:38 8.86767e-07
28 *25:26 *479:66 2.06826e-05
29 *42:10 *479:66 1.59095e-06
30 *44:10 *479:11 3.61852e-06
31 *44:10 *479:32 2.95425e-06
32 *45:8 *479:32 1.49407e-08
33 *62:14 *479:110 1.39984e-06
34 *146:32 *479:92 2.92003e-05
35 *146:32 *479:106 0
36 *146:34 *479:92 1.33146e-06
37 *146:34 *479:100 0
38 *146:34 *479:128 5.03162e-06
39 *146:72 *479:128 6.37055e-07
40 *149:137 *479:50 0
41 *210:12 *479:38 2.05569e-05
42 *210:20 *479:106 0
43 *210:73 *479:38 4.33736e-05
44 *210:73 *479:66 1.45674e-05
45 *210:88 *479:66 7.85208e-06
46 *226:14 *479:50 3.29527e-06
47 *226:22 *479:50 3.47607e-06
48 *230:12 *479:50 1.49407e-07
49 *335:21 *479:11 6.33206e-07
50 *336:74 *479:46 2.42315e-07
51 *417:25 *479:110 1.39984e-06
52 *433:8 *479:19 2.14755e-06
53 *457:71 *479:106 1.86352e-05
54 *477:77 *479:66 1.47416e-06
*RES
1 *1022:Y *479:6 34.4 
2 *479:6 *479:11 2.81583 
3 *479:11 *479:19 39.2134 
4 *479:19 *479:32 39.1031 
5 *479:32 *479:36 17.498 
6 *479:36 *479:38 36.7945 
7 *479:38 *479:46 47.3349 
8 *479:46 *479:50 21.9869 
9 *479:50 *1001:A 34.4 
10 *479:38 *479:66 29.0003 
11 *479:66 *999:A 34.4 
12 *479:32 *479:82 49.6399 
13 *479:82 *479:92 46.682 
14 *479:92 *479:100 32.4183 
15 *479:100 *479:106 48.0392 
16 *479:106 *479:110 18.0447 
17 *479:110 *1021:A 34.4 
18 *479:100 *479:128 33.1167 
19 *479:128 *1002:A 34.4 
*END

*D_NET *480 0.00153408
*CONN
*I *741:C1 I *D OA222x2_ASAP7_75t_SL
*I *740:C1 I *D OA222x2_ASAP7_75t_SL
*I *739:C1 I *D OA222x2_ASAP7_75t_SL
*I *738:C1 I *D OA222x2_ASAP7_75t_SL
*I *737:C1 I *D OA222x2_ASAP7_75t_SL
*I *1023:Y O *D BUFx6f_ASAP7_75t_SL
*CAP
1 *741:C1 0
2 *740:C1 0
3 *739:C1 8.86822e-06
4 *738:C1 8.85743e-06
5 *737:C1 0
6 *1023:Y 9.50177e-06
7 *480:118 3.52283e-05
8 *480:110 5.5132e-05
9 *480:99 1.18656e-05
10 *480:89 3.17693e-05
11 *480:87 3.243e-05
12 *480:85 3.49393e-05
13 *480:74 2.53891e-05
14 *480:61 5.18291e-05
15 *480:50 1.84985e-05
16 *480:44 8.28263e-05
17 *480:42 3.70547e-05
18 *480:36 1.26983e-05
19 *480:28 0.000145908
20 *480:26 0.000134897
21 *480:24 6.47676e-05
22 *480:18 6.7235e-05
23 *480:12 1.4494e-05
24 *480:8 2.15283e-05
25 *480:18 *493:35 1.98472e-06
26 *480:87 *704:A2 8.41106e-06
27 *480:87 *483:88 0
28 *480:87 *494:36 1.35176e-05
29 *480:99 *704:A2 9.31704e-06
30 *480:110 *704:A2 7.35354e-06
31 *480:118 *741:B1 1.35684e-06
32 *561:A2 *480:28 2.27479e-06
33 *561:B *480:28 4.70139e-06
34 *714:B *480:18 6.33206e-07
35 *739:C2 *480:74 9.97906e-07
36 *739:C2 *480:87 8.02814e-07
37 *741:A1 *480:118 1.40419e-08
38 *741:A2 *480:118 1.07377e-06
39 *741:B2 *480:118 2.66797e-07
40 *758:A *480:44 8.65792e-06
41 *758:B *480:36 3.36331e-07
42 *4:72 *480:8 0
43 *58:10 *480:44 1.26378e-06
44 *59:6 *480:28 1.17468e-05
45 *62:14 *480:28 2.88806e-06
46 *84:10 *480:110 2.47351e-06
47 *98:12 *480:50 5.0551e-07
48 *98:12 *480:61 5.95936e-05
49 *99:8 *480:87 3.74045e-06
50 *100:8 *480:110 7.84037e-07
51 *101:10 *480:118 6.33206e-07
52 *111:8 *480:28 7.58265e-07
53 *146:8 *480:8 0
54 *146:12 *480:24 0
55 *146:14 *480:24 0
56 *146:22 *480:24 0
57 *146:48 *480:61 0
58 *146:52 *480:61 0
59 *147:58 *480:24 0
60 *149:24 *480:24 0
61 *156:12 *480:28 2.59632e-05
62 *210:38 *480:50 2.2718e-05
63 *210:38 *480:61 5.97901e-06
64 *232:28 *480:8 6.33206e-07
65 *232:28 *480:12 2.9437e-05
66 *232:32 *480:18 1.98472e-06
67 *252:21 *480:50 6.97772e-06
68 *255:14 *738:C1 5.80001e-06
69 *255:22 *480:61 1.12894e-06
70 *258:14 *739:C1 5.80001e-06
71 *258:14 *480:85 1.62563e-06
72 *258:14 *480:87 0
73 *258:29 *480:87 0
74 *261:22 *480:99 1.02359e-06
75 *261:37 *480:110 2.68255e-06
76 *279:22 *480:8 2.22736e-06
77 *285:10 *480:8 0
78 *296:8 *480:44 6.10326e-05
79 *352:33 *480:118 3.61852e-06
80 *359:28 *480:99 1.42334e-05
81 *359:28 *480:110 2.31575e-05
82 *373:10 *480:110 4.75333e-06
83 *418:44 *480:28 2.25106e-05
84 *448:14 *480:50 1.07573e-06
85 *451:26 *480:99 1.28654e-05
86 *457:69 *480:24 9.47507e-07
87 *457:71 *480:36 2.54331e-06
88 *457:86 *480:24 0
89 *459:64 *480:87 4.04384e-05
90 *459:64 *480:99 2.26515e-05
91 *459:64 *480:110 0
92 *459:70 *480:87 2.97284e-05
93 *460:23 *480:36 2.43887e-07
94 *461:16 *480:12 5.08628e-05
95 *461:35 *480:12 3.1923e-06
96 *464:8 *480:118 0
97 *471:114 *480:87 0
98 *471:114 *480:110 2.23812e-05
99 *478:37 *480:50 4.8179e-05
100 *478:99 *480:24 3.88115e-06
*RES
1 *1023:Y *480:8 41.158 
2 *480:8 *480:12 38.0582 
3 *480:12 *480:18 36.3711 
4 *480:18 *480:24 37.2216 
5 *480:24 *480:26 17.2 
6 *480:26 *480:28 64.7138 
7 *480:28 *480:36 39.4874 
8 *480:36 *480:42 35.2447 
9 *480:42 *480:44 32.6243 
10 *480:44 *480:50 37.2756 
11 *480:50 *737:C1 34.4 
12 *480:44 *480:61 44.232 
13 *480:61 *738:C1 39.7482 
14 *480:61 *480:74 26.2107 
15 *480:74 *739:C1 22.5483 
16 *480:74 *480:85 18.8045 
17 *480:85 *480:87 34.3531 
18 *480:87 *480:89 17.2 
19 *480:89 *480:99 46.5629 
20 *480:99 *740:C1 17.2 
21 *480:89 *480:110 36.5424 
22 *480:110 *480:118 49.5168 
23 *480:118 *741:C1 34.4 
*END

*D_NET *481 0.00118109
*CONN
*I *732:C1 I *D OA222x2_ASAP7_75t_SL
*I *733:C1 I *D OA222x2_ASAP7_75t_SL
*I *731:C1 I *D OA222x2_ASAP7_75t_SL
*I *728:C1 I *D OA222x2_ASAP7_75t_SL
*I *726:C1 I *D OA222x2_ASAP7_75t_SL
*I *725:C1 I *D OA222x2_ASAP7_75t_SL
*I *729:C1 I *D OA222x2_ASAP7_75t_SL
*I *1024:Y O *D BUFx6f_ASAP7_75t_SL
*CAP
1 *732:C1 9.89423e-06
2 *733:C1 0
3 *731:C1 1.70708e-05
4 *728:C1 1.07468e-05
5 *726:C1 0
6 *725:C1 1.09829e-05
7 *729:C1 0
8 *1024:Y 6.23907e-07
9 *481:97 1.8315e-05
10 *481:84 3.07616e-05
11 *481:76 2.21116e-05
12 *481:74 4.77939e-05
13 *481:61 3.72081e-05
14 *481:55 0.00012621
15 *481:53 5.68266e-05
16 *481:44 1.29078e-05
17 *481:27 7.52938e-05
18 *481:16 1.96298e-05
19 *481:12 8.29685e-05
20 *481:8 7.68802e-06
21 *481:74 *484:10 0
22 *654:A *481:55 0
23 *654:A *481:74 0
24 *654:B *481:55 0
25 *655:B1 *728:C1 3.05118e-08
26 *671:A *731:C1 5.17782e-06
27 *725:C2 *725:C1 8.87187e-06
28 *726:A2 *481:53 2.90209e-08
29 *731:C2 *731:C1 2.96818e-06
30 *733:A2 *481:84 2.90209e-08
31 *751:A *481:61 1.44639e-06
32 *28:18 *481:74 9.94604e-06
33 *28:22 *731:C1 1.35684e-06
34 *40:18 *481:44 3.90258e-06
35 *40:18 *481:53 2.29378e-05
36 *74:12 *728:C1 1.5876e-05
37 *137:12 *481:12 0
38 *147:116 *481:8 6.33206e-07
39 *149:129 *481:16 3.29527e-06
40 *210:77 *481:16 0
41 *211:18 *732:C1 1.93482e-06
42 *214:44 *731:C1 8.37646e-05
43 *218:12 *481:53 8.31096e-06
44 *218:12 *481:55 0
45 *218:23 *481:55 0
46 *221:10 *481:74 0
47 *226:14 *481:16 4.83143e-05
48 *230:12 *481:16 0
49 *238:14 *732:C1 2.35086e-05
50 *238:14 *481:74 0
51 *238:14 *481:97 4.97654e-06
52 *281:14 *728:C1 1.46952e-05
53 *288:20 *481:74 0
54 *288:37 *481:61 1.44167e-06
55 *302:33 *725:C1 1.04475e-06
56 *336:74 *481:12 0
57 *336:74 *481:27 0
58 *363:26 *481:74 6.94376e-06
59 *397:87 *481:55 1.65617e-05
60 *397:149 *481:84 6.92634e-06
61 *397:164 *732:C1 8.42553e-06
62 *397:164 *481:84 1.95129e-06
63 *397:164 *481:97 9.71833e-06
64 *437:85 *481:55 0
65 *437:89 *725:C1 2.64998e-05
66 *437:89 *481:44 2.81466e-05
67 *437:95 *725:C1 0
68 *455:33 *481:55 0
69 *455:35 *725:C1 4.10713e-05
70 *455:35 *481:44 2.94719e-05
71 *455:35 *481:55 0
72 *458:8 *481:16 1.6136e-06
73 *458:18 *481:16 2.77615e-05
74 *470:10 *731:C1 2.97289e-06
75 *477:39 *481:16 5.49212e-07
76 *477:108 *481:74 0
77 *477:108 *481:84 4.83862e-06
78 *477:112 *731:C1 7.9862e-05
79 *477:133 *481:84 1.97537e-05
80 *477:133 *481:97 0
81 *477:162 *481:55 2.46349e-07
82 *477:162 *481:61 1.62312e-05
83 *479:50 *481:16 1.49407e-08
*RES
1 *1024:Y *481:8 35.057 
2 *481:8 *481:12 19.5808 
3 *481:12 *481:16 40.7591 
4 *481:16 *729:C1 34.4 
5 *481:12 *481:27 37.7616 
6 *481:27 *725:C1 49.4549 
7 *481:27 *481:44 28.5005 
8 *481:44 *726:C1 17.2 
9 *481:44 *481:53 24.6875 
10 *481:53 *481:55 33.2268 
11 *481:55 *481:61 46.701 
12 *481:61 *728:C1 42.7058 
13 *481:55 *481:74 35.4795 
14 *481:74 *481:76 17.2 
15 *481:76 *481:84 47.0977 
16 *481:84 *731:C1 47.685 
17 *481:76 *481:97 23.7029 
18 *481:97 *733:C1 34.4 
19 *481:97 *732:C1 44.4236 
*END

*D_NET *482 3.83143e-05
*CONN
*I *928:A I *D BUFx2_ASAP7_75t_SL
*I *1025:Y O *D BUFx3_ASAP7_75t_SL
*CAP
1 *928:A 1.91572e-05
2 *1025:Y 1.91572e-05
*RES
1 *1025:Y *928:A 46.701 
*END

*D_NET *483 0.00249517
*CONN
*I *745:B1 I *D OA222x2_ASAP7_75t_SL
*I *736:B1 I *D OA222x2_ASAP7_75t_SL
*I *734:B1 I *D OA222x2_ASAP7_75t_SL
*I *743:B1 I *D OA222x2_ASAP7_75t_SL
*I *741:B1 I *D OA222x2_ASAP7_75t_SL
*I *740:B1 I *D OA222x2_ASAP7_75t_SL
*I *739:B1 I *D OA222x2_ASAP7_75t_SL
*I *738:B1 I *D OA222x2_ASAP7_75t_SL
*I *737:B1 I *D OA222x2_ASAP7_75t_SL
*I *1026:Y O *D BUFx6f_ASAP7_75t_SL
*CAP
1 *745:B1 0
2 *736:B1 0
3 *734:B1 0
4 *743:B1 0
5 *741:B1 4.71579e-06
6 *740:B1 3.35839e-06
7 *739:B1 4.80958e-06
8 *738:B1 2.95274e-06
9 *737:B1 1.87635e-06
10 *1026:Y 2.4032e-05
11 *483:183 2.16305e-05
12 *483:170 5.04576e-06
13 *483:162 7.62476e-05
14 *483:160 9.28323e-05
15 *483:158 8.52296e-05
16 *483:156 8.52296e-05
17 *483:98 4.39705e-05
18 *483:96 5.4917e-05
19 *483:94 2.37454e-05
20 *483:88 5.7458e-05
21 *483:86 6.97532e-05
22 *483:80 4.19384e-05
23 *483:78 4.03431e-05
24 *483:72 5.0958e-05
25 *483:66 4.06579e-05
26 *483:58 1.2811e-05
27 *483:50 4.98188e-05
28 *483:48 5.31833e-05
29 *483:40 1.16159e-05
30 *483:36 2.67648e-05
31 *483:28 4.51509e-05
32 *483:22 2.66184e-05
33 *483:18 2.59882e-05
34 *483:10 4.80511e-05
35 *483:18 *493:35 9.97906e-07
36 *483:48 *493:10 1.23321e-06
37 *483:50 *493:14 0.000203031
38 *483:50 *493:33 7.65651e-06
39 *483:158 *493:10 2.98814e-08
40 *685:B *483:158 3.23585e-05
41 *698:B *483:88 6.83191e-06
42 *698:C *483:88 1.70708e-06
43 *702:B *483:88 6.25744e-06
44 *702:C *483:88 2.57494e-05
45 *717:C *483:28 9.58449e-06
46 *717:C *483:36 0
47 *734:A2 *483:170 5.41446e-06
48 *739:B2 *739:B1 2.55346e-06
49 *739:B2 *483:88 9.47897e-06
50 *739:B2 *483:94 3.06518e-07
51 *739:C2 *483:88 6.50104e-06
52 *740:B2 *740:B1 1.35684e-06
53 *743:A1 *483:72 4.48153e-05
54 *743:A2 *483:66 7.35354e-06
55 *745:A1 *483:28 6.19506e-06
56 *746:CI *483:162 1.17191e-05
57 *4:110 *483:10 1.73841e-05
58 *4:116 *483:28 2.47522e-06
59 *80:8 *483:158 3.40276e-05
60 *99:8 *483:88 9.66472e-07
61 *103:14 *483:18 1.91613e-06
62 *120:10 *483:158 6.79918e-06
63 *136:10 *483:58 2.68255e-06
64 *146:72 *483:72 0
65 *146:104 *483:158 3.91066e-06
66 *147:71 *483:158 1.95333e-05
67 *147:84 *483:158 5.34956e-05
68 *149:36 *483:98 1.59977e-05
69 *149:50 *483:80 1.49407e-08
70 *209:31 *483:158 3.89072e-06
71 *210:12 *483:18 5.31251e-05
72 *210:54 *483:72 9.56231e-06
73 *213:24 *483:36 0
74 *213:24 *483:40 1.07377e-06
75 *213:32 *483:36 2.78783e-06
76 *213:32 *483:40 1.35684e-06
77 *213:32 *483:48 3.56648e-06
78 *213:32 *483:158 7.9603e-06
79 *213:34 *483:158 3.00499e-05
80 *213:42 *483:158 2.31967e-05
81 *213:98 *483:80 0
82 *213:112 *483:98 6.68357e-06
83 *213:121 *483:98 1.10758e-05
84 *213:147 *483:36 5.91429e-06
85 *232:44 *483:158 2.93202e-05
86 *250:20 *483:158 1.88168e-06
87 *255:22 *483:96 0
88 *255:22 *483:98 0
89 *261:8 *483:78 3.83162e-05
90 *261:14 *741:B1 9.07661e-06
91 *261:14 *483:80 4.67317e-05
92 *261:14 *483:86 1.06368e-05
93 *261:22 *740:B1 4.7691e-06
94 *261:22 *483:86 6.63982e-06
95 *261:22 *483:88 1.60454e-05
96 *263:10 *483:88 8.02718e-06
97 *268:8 *483:158 4.8639e-07
98 *273:8 *483:28 6.15528e-07
99 *274:10 *483:18 1.48196e-05
100 *294:18 *483:158 5.8198e-06
101 *294:35 *483:158 1.34057e-05
102 *301:25 *483:10 8.07416e-06
103 *303:10 *483:170 0
104 *303:14 *483:162 2.42051e-05
105 *303:29 *483:162 3.36978e-05
106 *347:14 *483:158 0
107 *347:18 *483:158 5.89455e-06
108 *348:10 *483:98 8.54745e-06
109 *348:23 *483:98 2.17066e-05
110 *349:43 *483:98 8.52654e-07
111 *350:35 *483:88 5.0041e-06
112 *352:33 *741:B1 5.04502e-06
113 *352:33 *483:80 7.21841e-06
114 *359:28 *483:88 7.82377e-07
115 *374:12 *740:B1 1.08461e-06
116 *374:12 *483:88 1.50147e-06
117 *375:14 *483:28 8.13414e-06
118 *415:16 *483:162 0
119 *437:39 *483:50 5.83093e-06
120 *437:43 *483:88 1.10561e-06
121 *437:62 *483:88 5.37866e-07
122 *439:28 *483:28 8.48652e-06
123 *439:28 *483:158 0
124 *448:22 *737:B1 5.0551e-07
125 *449:18 *483:96 2.62193e-06
126 *449:18 *483:98 5.67735e-06
127 *453:22 *483:58 1.35684e-06
128 *453:22 *483:66 2.88335e-06
129 *455:10 *483:28 5.92989e-06
130 *455:10 *483:158 0
131 *457:12 *483:183 8.97638e-07
132 *457:18 *483:162 2.56824e-06
133 *457:18 *483:183 3.74016e-08
134 *457:56 *483:158 1.64764e-06
135 *457:118 *483:50 3.39503e-05
136 *457:149 *483:86 8.72751e-06
137 *457:157 *483:86 2.27515e-05
138 *457:213 *483:50 2.61465e-05
139 *457:232 *483:158 3.55495e-06
140 *459:8 *483:58 2.87273e-06
141 *459:8 *483:66 1.49407e-08
142 *459:64 *483:88 0
143 *459:70 *483:88 0
144 *462:26 *483:58 7.63254e-07
145 *462:26 *483:66 8.49117e-06
146 *467:27 *483:158 1.48371e-05
147 *471:39 *483:98 8.59092e-06
148 *471:50 *739:B1 7.21451e-07
149 *471:50 *483:96 1.21149e-06
150 *471:61 *483:88 0
151 *471:104 *483:86 2.87631e-05
152 *476:50 *483:162 0
153 *476:50 *483:183 0
154 *476:85 *483:50 0.000106139
155 *478:21 *483:170 1.04475e-06
156 *478:37 *483:98 3.13755e-07
157 *478:92 *483:158 0
158 *479:38 *483:18 4.21086e-06
159 *479:92 *483:50 0
160 *480:87 *483:88 0
161 *480:118 *741:B1 1.35684e-06
*RES
1 *1026:Y *483:10 47.4714 
2 *483:10 *483:18 48.4363 
3 *483:18 *483:22 18.2696 
4 *483:22 *483:28 35.7241 
5 *483:28 *483:36 44.1686 
6 *483:36 *483:40 20.9438 
7 *483:40 *483:48 38.1066 
8 *483:48 *483:50 38.7424 
9 *483:50 *483:58 36.5021 
10 *483:58 *483:66 43.6904 
11 *483:66 *483:72 33.9496 
12 *483:72 *483:78 45.6313 
13 *483:78 *483:80 17.3643 
14 *483:80 *483:86 47.1698 
15 *483:86 *483:88 42.7068 
16 *483:88 *483:94 38.1438 
17 *483:94 *483:96 7.88432 
18 *483:96 *483:98 39.4216 
19 *483:98 *737:B1 35.4697 
20 *483:96 *738:B1 36.0045 
21 *483:94 *739:B1 38.8203 
22 *483:86 *740:B1 37.253 
23 *483:80 *741:B1 39.5057 
24 *483:58 *743:B1 17.2 
25 *483:40 *483:156 17.2 
26 *483:156 *483:158 94.7057 
27 *483:158 *483:160 17.2 
28 *483:160 *483:162 32.8986 
29 *483:162 *483:170 37.7878 
30 *483:170 *734:B1 17.2 
31 *483:160 *483:183 41.3337 
32 *483:183 *736:B1 17.2 
33 *483:22 *745:B1 17.2 
*END

*D_NET *484 0.000610603
*CONN
*I *651:A I *D NAND2x2_ASAP7_75t_SL
*I *675:A2 I *D AO21x2_ASAP7_75t_SL
*I *680:A1 I *D AO21x2_ASAP7_75t_SL
*I *669:B I *D NAND2x2_ASAP7_75t_SL
*I *1027:Y O *D BUFx6f_ASAP7_75t_SL
*CAP
1 *651:A 3.00256e-06
2 *675:A2 2.62259e-06
3 *680:A1 0
4 *669:B 0
5 *1027:Y 8.15728e-06
6 *484:58 1.85109e-05
7 *484:41 3.41566e-05
8 *484:30 7.59748e-06
9 *484:22 0.000105654
10 *484:20 0.000103213
11 *484:12 2.34246e-05
12 *484:10 3.54041e-05
13 *484:8 3.54041e-05
14 *484:6 1.11598e-05
15 *610:A1 *484:30 1.64509e-05
16 *630:A *484:20 6.7842e-07
17 *630:A *484:41 9.59239e-06
18 *651:B *484:10 0
19 *1016:A *484:41 2.79851e-06
20 *1032:A *484:10 0
21 *15:29 *484:41 0
22 *16:14 *484:22 0
23 *30:12 *484:20 0
24 *78:8 *484:58 0
25 *93:8 *484:10 1.91241e-06
26 *94:8 *484:10 1.03135e-05
27 *199:8 *484:30 6.7842e-07
28 *214:40 *651:A 3.05302e-06
29 *214:40 *484:6 9.75735e-06
30 *221:10 *484:10 8.46363e-06
31 *238:14 *484:10 2.47849e-05
32 *241:14 *484:58 0
33 *242:31 *484:10 1.95873e-06
34 *245:22 *484:41 0
35 *245:22 *484:58 0
36 *290:12 *484:22 0
37 *291:10 *484:10 1.63609e-05
38 *291:14 *484:22 1.08471e-05
39 *291:24 *484:22 1.79324e-05
40 *292:10 *484:10 0
41 *292:10 *484:20 3.73144e-06
42 *292:10 *484:41 4.32973e-06
43 *341:10 *484:41 2.36473e-05
44 *341:10 *484:58 2.53764e-05
45 *344:6 *484:58 2.12481e-06
46 *344:14 *675:A2 6.7842e-07
47 *344:14 *484:58 2.52755e-07
48 *345:10 *484:58 1.52566e-05
49 *427:14 *484:22 0
50 *427:22 *484:22 0
51 *431:60 *484:30 9.49809e-07
52 *441:49 *484:22 1.03649e-05
53 *456:64 *484:10 0
54 *456:88 *484:10 0
55 *456:88 *484:20 0
56 *481:74 *484:10 0
*RES
1 *1027:Y *484:6 24.1527 
2 *484:6 *484:8 17.2 
3 *484:8 *484:10 33.2268 
4 *484:10 *484:12 17.2 
5 *484:12 *484:20 38.482 
6 *484:20 *484:22 37.4438 
7 *484:22 *484:30 40.0582 
8 *484:30 *669:B 17.2 
9 *484:12 *484:41 34.1763 
10 *484:41 *680:A1 34.4 
11 *484:41 *484:58 49.9703 
12 *484:58 *675:A2 36.0045 
13 *484:6 *651:A 19.8741 
*END

*D_NET *485 0.000376021
*CONN
*I *978:B I *D AND3x4_ASAP7_75t_SL
*I *989:A2 I *D AOI21x1_ASAP7_75t_SL
*I *1029:Y O *D BUFx3_ASAP7_75t_SL
*CAP
1 *978:B 0
2 *989:A2 0
3 *1029:Y 8.67315e-06
4 *485:26 7.46028e-06
5 *485:20 3.09392e-05
6 *485:18 2.34789e-05
7 *485:16 8.7265e-06
8 *485:8 1.73996e-05
9 *978:A *485:16 4.43846e-06
10 *1038:A *485:20 1.82733e-06
11 *133:24 *485:8 0
12 *209:25 *485:16 2.50967e-06
13 *209:25 *485:20 0.00011675
14 *209:31 *485:26 1.02491e-06
15 *213:8 *485:8 0
16 *213:8 *485:16 0
17 *301:25 *485:16 0
18 *439:10 *485:8 2.83075e-06
19 *439:18 *485:8 0
20 *439:18 *485:16 1.22091e-05
21 *439:18 *485:20 5.98994e-07
22 *439:22 *485:20 0.000117853
23 *439:28 *485:26 1.93006e-05
*RES
1 *1029:Y *485:8 40.0317 
2 *485:8 *485:16 43.0989 
3 *485:16 *485:18 17.2 
4 *485:18 *485:20 33.694 
5 *485:20 *485:26 41.158 
6 *485:26 *989:A2 17.2 
7 *485:18 *978:B 17.2 
*END

*D_NET *486 5.70136e-05
*CONN
*I *638:A1 I *D AOI21x1_ASAP7_75t_SL
*I *1030:Y O *D BUFx3_ASAP7_75t_SL
*CAP
1 *638:A1 2.05942e-06
2 *1030:Y 3.39681e-06
3 *486:8 5.45623e-06
4 *720:A1 *638:A1 1.02672e-05
5 *141:44 *486:8 1.28682e-05
6 *276:14 *638:A1 1.00976e-05
7 *402:8 *486:8 1.28682e-05
*RES
1 *1030:Y *486:8 38.9053 
2 *486:8 *638:A1 37.0741 
*END

*D_NET *487 0.000126001
*CONN
*I *670:A1 I *D AOI22x1_ASAP7_75t_SL
*I *1031:Y O *D BUFx3_ASAP7_75t_SL
*CAP
1 *670:A1 1.34546e-05
2 *1031:Y 3.65165e-05
3 *487:8 4.99711e-05
4 *533:A1 *670:A1 7.63254e-07
5 *533:A1 *487:8 2.52755e-07
6 *533:A2 *487:8 5.41446e-06
7 *670:B1 *670:A1 2.20493e-06
8 *35:33 *670:A1 8.06436e-06
9 *76:8 *670:A1 3.47607e-06
10 *139:8 *487:8 5.85387e-06
11 *427:50 *487:8 2.90209e-08
*RES
1 *1031:Y *487:8 48.8403 
2 *487:8 *670:A1 44.1686 
*END

*D_NET *488 0.000291046
*CONN
*I *1033:A I *D BUFx3_ASAP7_75t_SL
*I *526:A1 I *D OAI21x1_ASAP7_75t_SL
*I *532:B I *D AO21x1_ASAP7_75t_SL
*I *1032:Y O *D BUFx3_ASAP7_75t_SL
*CAP
1 *1033:A 0
2 *526:A1 0
3 *532:B 0
4 *1032:Y 1.91698e-05
5 *488:46 1.95354e-05
6 *488:30 1.47815e-05
7 *488:22 2.68429e-05
8 *488:18 3.63686e-05
9 *488:10 6.30125e-05
10 *26:10 *488:30 0
11 *26:23 *488:30 0
12 *29:12 *488:22 3.74496e-05
13 *30:12 *488:10 9.93857e-06
14 *30:12 *488:46 2.82101e-05
15 *78:12 *488:18 0
16 *138:10 *488:30 5.22376e-07
17 *291:24 *488:22 1.04475e-06
18 *292:10 *488:10 0
19 *344:6 *488:46 1.23408e-05
20 *400:23 *488:46 0
21 *403:16 *488:30 8.65792e-06
22 *456:99 *488:18 1.31716e-05
23 *456:99 *488:30 0
*RES
1 *1032:Y *488:10 43.6621 
2 *488:10 *488:18 46.9277 
3 *488:18 *488:22 28.4313 
4 *488:22 *488:30 44.9018 
5 *488:30 *532:B 17.2 
6 *488:22 *526:A1 17.2 
7 *488:10 *488:46 34.4598 
8 *488:46 *1033:A 17.2 
*END

*D_NET *489 8.85136e-06
*CONN
*I *620:A I *D XNOR2x2_ASAP7_75t_SL
*I *1033:Y O *D BUFx3_ASAP7_75t_SL
*CAP
1 *620:A 0
2 *1033:Y 4.42568e-06
3 *489:8 4.42568e-06
*RES
1 *1033:Y *489:8 37.779 
2 *489:8 *620:A 34.4 
*END

*D_NET *490 2.34894e-05
*CONN
*I *958:A I *D BUFx3_ASAP7_75t_SL
*I *1034:Y O *D BUFx3_ASAP7_75t_SL
*CAP
1 *958:A 0
2 *1034:Y 8.9619e-06
3 *490:10 8.9619e-06
4 *293:6 *490:10 2.0895e-06
5 *293:14 *490:10 0
6 *346:31 *490:10 3.47607e-06
*RES
1 *1034:Y *490:10 39.89 
2 *490:10 *958:A 34.4 
*END

*D_NET *491 4.23521e-05
*CONN
*I *976:A I *D BUFx3_ASAP7_75t_SL
*I *1035:Y O *D BUFx3_ASAP7_75t_SL
*CAP
1 *976:A 1.87159e-06
2 *1035:Y 5.28001e-06
3 *491:8 7.1516e-06
4 *88:8 *491:8 0
5 *216:6 *976:A 6.86929e-06
6 *336:82 *491:8 5.37569e-06
7 *435:8 *976:A 1.5804e-05
*RES
1 *1035:Y *491:8 38.9053 
2 *491:8 *976:A 39.2134 
*END

*D_NET *492 9.94668e-05
*CONN
*I *964:A I *D BUFx3_ASAP7_75t_SL
*I *1036:Y O *D BUFx3_ASAP7_75t_SL
*CAP
1 *964:A 1.36572e-05
2 *1036:Y 7.89518e-06
3 *492:8 2.15523e-05
4 *48:8 *492:8 0
5 *113:14 *964:A 1.35736e-05
6 *113:27 *964:A 1.44167e-06
7 *113:27 *492:8 1.12894e-06
8 *113:33 *964:A 5.19552e-07
9 *213:63 *492:8 9.63579e-06
10 *408:12 *964:A 2.03526e-06
11 *408:12 *492:8 8.33296e-06
12 *408:16 *964:A 1.96943e-05
*RES
1 *1036:Y *492:8 42.2843 
2 *492:8 *964:A 47.7706 
*END

*D_NET *493 0.00169669
*CONN
*I *745:C1 I *D OA222x2_ASAP7_75t_SL
*I *734:C1 I *D OA222x2_ASAP7_75t_SL
*I *736:C1 I *D OA222x2_ASAP7_75t_SL
*I *743:C1 I *D OA222x2_ASAP7_75t_SL
*I *1037:Y O *D BUFx3_ASAP7_75t_SL
*CAP
1 *745:C1 2.55838e-06
2 *734:C1 2.04762e-05
3 *736:C1 4.06874e-06
4 *743:C1 0
5 *1037:Y 1.42579e-05
6 *493:68 2.88254e-05
7 *493:62 6.32536e-05
8 *493:60 6.60152e-05
9 *493:47 1.82765e-05
10 *493:43 4.32518e-05
11 *493:41 5.82818e-05
12 *493:35 8.13384e-05
13 *493:33 0.000133589
14 *493:22 5.8438e-06
15 *493:14 5.73888e-05
16 *493:12 0.000119364
17 *493:10 3.80744e-05
18 *493:8 5.23323e-05
19 *685:A2 *493:10 1.182e-05
20 *710:A2 *493:10 4.16806e-05
21 *714:B *493:35 5.52807e-07
22 *734:A2 *734:C1 5.22376e-07
23 *743:C2 *493:22 1.44167e-06
24 *746:A *493:68 3.37358e-06
25 *4:41 *493:43 0
26 *4:45 *493:43 0
27 *4:51 *493:60 0
28 *4:51 *493:62 1.62361e-05
29 *4:116 *745:C1 6.49184e-07
30 *13:10 *493:43 1.19526e-06
31 *22:28 *493:68 2.39014e-05
32 *23:8 *493:62 2.66797e-07
33 *43:12 *493:35 1.04735e-05
34 *43:21 *493:33 1.60814e-06
35 *43:21 *493:35 2.07851e-06
36 *96:8 *493:43 1.52833e-05
37 *103:8 *745:C1 2.30405e-06
38 *103:14 *493:35 3.30873e-05
39 *146:8 *493:35 0
40 *146:119 *493:35 0
41 *149:12 *493:41 0
42 *213:20 *493:33 1.49407e-08
43 *213:34 *493:10 1.78642e-05
44 *232:32 *493:35 1.49407e-08
45 *247:10 *493:68 1.60661e-05
46 *248:12 *493:43 0
47 *271:8 *493:35 1.31643e-05
48 *272:12 *493:10 7.85973e-05
49 *274:10 *493:33 4.9137e-07
50 *274:10 *493:35 3.21821e-06
51 *279:24 *493:8 6.19533e-06
52 *283:10 *493:43 6.39706e-05
53 *284:10 *493:22 1.30795e-06
54 *301:25 *493:33 0
55 *303:22 *734:C1 2.03526e-06
56 *303:33 *493:68 1.07368e-06
57 *350:12 *493:14 4.08924e-06
58 *366:8 *493:60 1.47065e-05
59 *366:16 *493:60 0
60 *375:14 *493:33 0
61 *409:29 *493:10 2.81248e-05
62 *437:10 *493:35 3.08218e-06
63 *437:39 *493:14 2.13226e-05
64 *457:8 *493:60 0
65 *457:99 *493:10 1.45651e-06
66 *457:112 *493:10 5.47821e-07
67 *457:213 *493:33 2.47595e-05
68 *459:12 *493:22 1.56713e-06
69 *461:10 *493:35 1.12894e-06
70 *461:14 *493:35 2.19685e-06
71 *462:26 *493:22 3.81627e-06
72 *467:51 *493:10 1.19435e-05
73 *468:10 *493:22 1.94229e-07
74 *471:6 *493:62 2.61758e-05
75 *471:8 *493:62 0.00014998
76 *478:21 *734:C1 3.90258e-06
77 *478:99 *493:10 5.07403e-06
78 *480:18 *493:35 1.98472e-06
79 *483:18 *493:35 9.97906e-07
80 *483:48 *493:10 1.23321e-06
81 *483:50 *493:14 0.000203031
82 *483:50 *493:33 7.65651e-06
83 *483:158 *493:10 2.98814e-08
*RES
1 *1037:Y *493:8 40.2831 
2 *493:8 *493:10 47.0244 
3 *493:10 *493:12 17.2 
4 *493:12 *493:14 33.5479 
5 *493:14 *493:22 39.6084 
6 *493:22 *743:C1 17.2 
7 *493:12 *493:33 46.1461 
8 *493:33 *493:35 47.8691 
9 *493:35 *493:41 42.4224 
10 *493:41 *493:43 38.8585 
11 *493:43 *493:47 18.8045 
12 *493:47 *736:C1 19.3393 
13 *493:47 *493:60 43.4107 
14 *493:60 *493:62 57.2263 
15 *493:62 *493:68 46.7897 
16 *493:68 *734:C1 26.8269 
17 *493:33 *745:C1 36.0045 
*END

*D_NET *494 0.00124332
*CONN
*I *683:A2 I *D AO221x2_ASAP7_75t_SL
*I *704:A2 I *D AO221x2_ASAP7_75t_SL
*I *700:A2 I *D AO221x2_ASAP7_75t_SL
*I *1038:Y O *D BUFx6f_ASAP7_75t_SL
*CAP
1 *683:A2 3.85584e-06
2 *704:A2 1.9501e-05
3 *700:A2 0
4 *1038:Y 0
5 *494:58 5.30756e-05
6 *494:56 4.92197e-05
7 *494:36 2.97887e-05
8 *494:34 7.18124e-05
9 *494:30 6.3387e-05
10 *494:24 4.1222e-05
11 *494:20 7.29151e-05
12 *494:14 4.49528e-05
13 *494:6 0.000127295
14 *494:4 0.000115898
15 *506:B *494:14 1.12969e-05
16 *506:B *494:58 1.98018e-05
17 *559:A *494:58 1.24703e-05
18 *683:A1 *683:A2 7.58545e-06
19 *683:C *683:A2 6.7842e-07
20 *709:B *494:6 2.67517e-05
21 *710:A1 *494:6 4.70254e-06
22 *743:A1 *494:34 2.54159e-06
23 *777:CLK *494:34 0
24 *962:A *494:14 2.26278e-06
25 *1038:A *494:6 6.43537e-06
26 *24:14 *494:58 1.05922e-05
27 *56:8 *494:20 3.95499e-05
28 *65:23 *494:58 0
29 *111:23 *494:58 9.68811e-06
30 *146:34 *494:24 0
31 *146:42 *494:24 0
32 *154:10 *494:58 1.67815e-06
33 *156:12 *494:58 0
34 *209:25 *494:6 0
35 *258:29 *704:A2 1.49116e-06
36 *258:29 *494:36 6.954e-06
37 *303:41 *683:A2 9.75645e-06
38 *346:16 *683:A2 1.52651e-06
39 *359:28 *704:A2 1.52651e-06
40 *437:16 *494:58 0
41 *437:37 *494:14 0
42 *437:37 *494:20 1.7271e-06
43 *451:26 *704:A2 5.0551e-07
44 *455:27 *494:6 5.25727e-06
45 *462:10 *494:6 2.46401e-05
46 *462:20 *494:20 8.99634e-06
47 *462:40 *494:6 5.39563e-06
48 *471:114 *704:A2 0
49 *476:77 *494:58 4.40007e-05
50 *476:81 *494:58 0.000125332
51 *476:85 *494:24 0.000104673
52 *479:92 *494:24 1.87064e-06
53 *479:100 *494:24 1.21019e-05
54 *479:128 *494:24 1.24672e-08
55 *480:87 *704:A2 8.41106e-06
56 *480:87 *494:36 1.35176e-05
57 *480:99 *704:A2 9.31704e-06
58 *480:110 *704:A2 7.35354e-06
*RES
1 *1038:Y *494:4 17.2 
2 *494:4 *494:6 51.878 
3 *494:6 *494:14 41.0163 
4 *494:14 *494:20 41.1592 
5 *494:20 *494:24 35.1644 
6 *494:24 *494:30 35.2447 
7 *494:30 *494:34 44.4761 
8 *494:34 *494:36 11.2633 
9 *494:36 *700:A2 34.4 
10 *494:36 *704:A2 49.237 
11 *494:6 *494:56 17.2 
12 *494:56 *494:58 57.4429 
13 *494:58 *683:A2 38.1438 
*END
