*SPEF "ieee 1481-1999"
*DESIGN "adder32"
*DATE "06:32:19 Thursday January 15, 2026"
*VENDOR "The OpenROAD Project"
*PROGRAM "OpenROAD"
*VERSION "26Q1-54-gb42159587e"
*DESIGN_FLOW "NAME_SCOPE LOCAL" "PIN_CAP NONE"
*DIVIDER /
*DELIMITER :
*BUS_DELIMITER []
*T_UNIT 1 NS
*C_UNIT 1 PF
*R_UNIT 1 OHM
*L_UNIT 1 HENRY

*NAME_MAP
*1 net1
*2 net2
*3 net3
*4 net4
*5 net5
*6 net6
*7 net7
*8 net8
*9 net9
*10 net10
*11 net11
*12 net12
*13 net13
*14 net14
*15 net15
*16 net16
*17 net17
*18 net18
*19 net19
*20 net20
*21 net21
*22 net22
*23 net23
*24 net24
*25 net25
*26 net26
*27 net27
*28 net28
*29 net29
*30 net30
*31 net31
*32 net32
*33 net33
*34 net34
*35 net35
*36 net36
*37 net37
*38 net38
*39 net39
*40 net40
*41 net41
*42 net42
*43 net43
*44 net44
*45 net45
*46 net46
*47 net47
*48 net48
*49 net49
*50 net50
*51 net51
*52 net52
*53 net53
*54 net54
*55 net55
*56 net56
*57 net57
*58 net58
*59 net59
*60 net60
*61 net61
*62 net62
*63 net63
*64 net64
*65 net65
*66 A[9]
*67 A[8]
*68 A[7]
*69 A[6]
*70 A[5]
*71 A[4]
*72 A[3]
*73 A[32]
*74 A[31]
*75 A[30]
*76 A[2]
*77 A[29]
*78 A[28]
*79 A[27]
*80 A[26]
*81 A[25]
*82 A[24]
*83 A[23]
*84 A[22]
*85 A[21]
*86 A[20]
*87 A[1]
*88 A[19]
*89 A[18]
*90 A[17]
*91 A[16]
*92 A[15]
*93 A[14]
*94 A[13]
*95 A[12]
*96 A[11]
*97 A[10]
*98 net66
*99 net67
*100 net68
*101 net69
*102 net70
*103 net71
*104 net72
*105 net73
*106 net74
*107 net75
*108 net76
*109 net77
*110 net78
*111 net79
*112 net80
*113 net81
*114 net82
*115 net83
*116 net84
*117 net85
*118 net86
*119 net87
*120 net88
*121 net89
*122 net90
*123 net91
*124 net92
*125 net93
*126 net94
*127 net95
*128 net96
*129 net97
*130 _000_
*131 _001_
*132 _002_
*133 _003_
*134 _004_
*135 _005_
*136 _006_
*137 _007_
*138 _008_
*139 _009_
*140 _010_
*141 _011_
*142 _012_
*143 _013_
*144 _014_
*145 _015_
*146 _016_
*147 _017_
*148 _018_
*149 _019_
*150 _020_
*151 _021_
*152 _022_
*153 _023_
*154 _024_
*155 _025_
*156 _026_
*157 _027_
*158 _028_
*159 _029_
*160 _030_
*161 _031_
*162 _032_
*163 _033_
*164 _034_
*165 _035_
*166 _036_
*167 _037_
*168 _038_
*169 _039_
*170 _040_
*171 _041_
*172 _042_
*173 _043_
*174 _044_
*175 _045_
*176 _046_
*177 _047_
*178 _048_
*179 _049_
*180 _050_
*181 _051_
*182 _052_
*183 _053_
*184 _054_
*185 _055_
*186 _056_
*187 _057_
*188 _058_
*189 _059_
*190 _060_
*191 _061_
*192 _062_
*193 _063_
*194 _064_
*195 _065_
*196 _066_
*197 _067_
*198 _068_
*199 _069_
*200 _070_
*201 _071_
*202 _072_
*203 _073_
*204 _074_
*205 _075_
*206 _076_
*207 _077_
*208 _078_
*209 _079_
*210 _080_
*211 _081_
*212 _082_
*213 _083_
*214 _084_
*215 _085_
*216 _086_
*217 _087_
*218 _088_
*219 _089_
*220 _090_
*221 _091_
*222 _092_
*223 _093_
*224 _094_
*225 _095_
*226 _096_
*227 B[18]
*228 _098_
*229 _099_
*230 B[17]
*231 B[16]
*232 _102_
*233 _103_
*234 _104_
*235 _105_
*236 _106_
*237 _107_
*238 _108_
*239 _109_
*240 _110_
*241 _111_
*242 _112_
*243 _113_
*244 _114_
*245 _115_
*246 B[15]
*247 _117_
*248 _118_
*249 _119_
*250 _120_
*251 _121_
*252 _122_
*253 _123_
*254 _124_
*255 _125_
*256 _126_
*257 _127_
*258 _128_
*259 B[14]
*260 _130_
*261 _131_
*262 _132_
*263 _133_
*264 _134_
*265 _135_
*266 _136_
*267 _137_
*268 _138_
*269 _139_
*270 _140_
*271 _141_
*272 _142_
*273 _143_
*274 _144_
*275 _145_
*276 _146_
*277 _147_
*278 _148_
*279 _149_
*280 _150_
*281 _151_
*282 B[13]
*283 _153_
*284 _154_
*285 _155_
*286 _156_
*287 _157_
*288 _158_
*289 _159_
*290 _160_
*291 _161_
*292 _162_
*293 _163_
*294 _164_
*295 _165_
*296 _166_
*297 _167_
*298 _168_
*299 _169_
*300 _170_
*301 _171_
*302 _172_
*303 _173_
*304 _174_
*305 _175_
*306 _176_
*307 _177_
*308 _178_
*309 _179_
*310 _180_
*311 _181_
*312 _182_
*313 _183_
*314 _184_
*315 _185_
*316 _186_
*317 _187_
*318 _188_
*319 _189_
*320 _190_
*321 _191_
*322 _192_
*323 _193_
*324 _194_
*325 _195_
*326 _196_
*327 _197_
*328 _198_
*329 _199_
*330 _200_
*331 _201_
*332 _202_
*333 _203_
*334 B[12]
*335 _205_
*336 _206_
*337 _207_
*338 _208_
*339 _209_
*340 _210_
*341 _211_
*342 _212_
*343 _213_
*344 _214_
*345 _215_
*346 _216_
*347 _217_
*348 _218_
*349 _219_
*350 _220_
*351 _221_
*352 _222_
*353 _223_
*354 _224_
*355 _225_
*356 _226_
*357 _227_
*358 _228_
*359 _229_
*360 _230_
*361 _231_
*362 _232_
*363 _233_
*364 _234_
*365 _235_
*366 _236_
*367 _237_
*368 _238_
*369 _239_
*370 _240_
*371 _241_
*372 _242_
*373 _243_
*374 _244_
*375 _245_
*376 _246_
*377 _247_
*378 _248_
*379 _249_
*380 B[11]
*381 _251_
*382 _252_
*383 _253_
*384 _254_
*385 _255_
*386 _256_
*387 _257_
*388 _258_
*389 _259_
*390 _260_
*391 _261_
*392 _262_
*393 _263_
*394 _264_
*395 _265_
*396 _266_
*397 _267_
*398 B[10]
*399 _269_
*400 _270_
*401 _271_
*402 _272_
*403 _273_
*404 _274_
*405 _275_
*406 _276_
*407 _277_
*408 _278_
*409 _279_
*410 _280_
*411 _281_
*412 _282_
*413 _283_
*414 _284_
*415 _285_
*416 _286_
*417 _287_
*418 _288_
*419 _289_
*420 _290_
*421 _291_
*422 _292_
*423 _293_
*424 _294_
*425 _295_
*426 _296_
*427 _297_
*428 _298_
*429 _299_
*430 _300_
*431 _301_
*432 _302_
*433 _303_
*434 _304_
*435 _305_
*436 _306_
*437 _307_
*438 _308_
*439 _309_
*440 _310_
*441 _311_
*442 _312_
*443 _313_
*444 _314_
*445 _315_
*446 _316_
*447 _317_
*448 _318_
*449 _319_
*450 _320_
*451 _321_
*452 _322_
*453 _323_
*454 _324_
*455 _325_
*456 _326_
*457 _327_
*458 _328_
*459 _329_
*460 _330_
*461 _331_
*462 _332_
*463 _333_
*464 _334_
*465 _335_
*466 _336_
*467 _337_
*468 _338_
*469 _339_
*470 _340_
*473 B[19]
*474 B[1]
*475 B[20]
*476 B[21]
*477 B[22]
*478 B[23]
*479 B[24]
*480 B[25]
*481 B[26]
*482 B[27]
*483 B[28]
*484 B[29]
*485 B[2]
*486 B[30]
*487 B[31]
*488 B[32]
*489 B[3]
*490 B[4]
*491 B[5]
*492 B[6]
*493 B[7]
*494 B[8]
*495 B[9]
*496 C32
*497 S[10]
*498 S[11]
*499 S[12]
*500 S[13]
*501 S[14]
*502 S[15]
*503 S[16]
*504 S[17]
*505 S[18]
*506 S[19]
*507 S[1]
*508 S[20]
*509 S[21]
*510 S[22]
*511 S[23]
*512 S[24]
*513 S[25]
*514 S[26]
*515 S[27]
*516 S[28]
*517 S[29]
*518 S[2]
*519 S[30]
*520 S[31]
*521 S[32]
*522 S[3]
*523 S[4]
*524 S[5]
*525 S[6]
*526 S[7]
*527 S[8]
*528 S[9]
*529 net212
*530 net213
*531 net223
*532 net216
*533 net217
*534 net218
*535 net219
*536 net220
*537 net221
*538 net222
*539 net224
*540 net225
*541 net226
*542 net227
*543 net229
*544 net230
*545 net231
*546 net232
*547 net233
*548 net234
*549 net235
*550 net239
*551 net237
*552 net238
*553 net240
*554 net242
*555 net243
*556 net244
*557 net245
*558 net246
*559 net248
*560 net249
*561 net251
*562 net250
*563 net252
*564 net253
*565 net254
*566 net255
*567 net257
*568 net258
*569 net259
*570 net260
*571 net261
*572 net262
*573 net263
*574 net266
*575 net265
*576 net267
*577 net268
*578 net271
*579 net272
*580 net273
*581 net274
*582 net276
*583 net275
*584 net280
*585 net278
*586 net283
*587 net279
*588 net281
*589 net282
*590 net285
*591 net288
*592 net286
*593 net287
*594 net291
*595 net290
*596 net292
*597 net337
*598 net293
*599 net294
*600 net336
*601 net295
*602 net335
*603 net296
*604 net334
*605 net297
*606 net330
*607 net306
*608 net298
*609 net299
*610 net300
*611 net301
*612 net302
*613 net303
*614 net304
*615 net305
*616 net307
*617 net308
*618 net309
*619 net323
*620 net310
*621 net311
*622 net319
*623 net312
*624 net318
*625 net313
*626 net314
*627 net315
*628 net316
*629 net317
*630 net320
*631 net321
*632 net322
*633 net324
*634 net325
*635 net326
*636 net327
*637 net328
*638 net329
*639 net331
*640 net332
*641 net333
*642 net211
*643 net214
*644 net347
*645 net228
*646 net236
*647 net241
*648 net247
*649 net256
*650 net264
*651 net269
*652 net270
*653 net277
*654 net284
*655 net289
*656 net338
*657 net339
*658 net340
*659 net346
*660 net351
*661 net352
*662 net353
*663 net354
*664 _341_
*665 _342_
*666 _343_
*667 _344_
*668 _345_
*669 _346_
*670 _347_
*671 _348_
*672 _349_
*673 input41
*674 _351_
*675 _352_
*676 _353_
*677 input40
*678 input39
*679 _356_
*680 _357_
*681 _358_
*682 _359_
*683 _360_
*684 _361_
*685 _362_
*686 _363_
*687 _364_
*688 _365_
*689 _366_
*690 _367_
*691 _368_
*692 _369_
*693 input38
*694 _371_
*695 _372_
*696 _373_
*697 _374_
*698 _375_
*699 _376_
*700 _377_
*701 _378_
*702 _379_
*703 _380_
*704 _381_
*705 _382_
*706 _383_
*707 input37
*708 _385_
*709 _386_
*710 _387_
*711 _388_
*712 _389_
*713 _390_
*714 _391_
*715 _392_
*716 _393_
*717 _394_
*718 _395_
*719 _396_
*720 _397_
*721 _398_
*722 _399_
*723 _400_
*724 _401_
*725 _402_
*726 _403_
*727 _404_
*728 _405_
*729 _406_
*730 _407_
*731 input36
*732 _409_
*733 _410_
*734 _411_
*735 _412_
*736 _413_
*737 _414_
*738 _415_
*739 _416_
*740 _417_
*741 _418_
*742 _419_
*743 _420_
*744 _421_
*745 _422_
*746 _423_
*747 _424_
*748 _425_
*749 _426_
*750 _427_
*751 _428_
*752 _429_
*753 _430_
*754 _431_
*755 _432_
*756 _433_
*757 _434_
*758 _435_
*759 _436_
*760 _437_
*761 _438_
*762 _439_
*763 _440_
*764 _441_
*765 _442_
*766 _443_
*767 _444_
*768 _445_
*769 _446_
*770 _447_
*771 _448_
*772 _449_
*773 _450_
*774 _451_
*775 _452_
*776 _453_
*777 _454_
*778 _455_
*779 _456_
*780 _457_
*781 _458_
*782 _459_
*783 _460_
*784 input35
*785 _462_
*786 _463_
*787 _464_
*788 _465_
*789 _466_
*790 _467_
*791 _468_
*792 _469_
*793 _470_
*794 _471_
*795 _472_
*796 _473_
*797 _474_
*798 _475_
*799 _476_
*800 _477_
*801 _478_
*802 _479_
*803 _480_
*804 _481_
*805 _482_
*806 _483_
*807 _484_
*808 _485_
*809 _486_
*810 _487_
*811 _488_
*812 _489_
*813 _490_
*814 _491_
*815 _492_
*816 _493_
*817 _494_
*818 _495_
*819 _496_
*820 _497_
*821 _498_
*822 _499_
*823 _500_
*824 _501_
*825 _502_
*826 _503_
*827 _504_
*828 _505_
*829 _506_
*830 _507_
*831 _508_
*832 input34
*833 _510_
*834 _511_
*835 _512_
*836 _513_
*837 _514_
*838 _515_
*839 _516_
*840 _517_
*841 _518_
*842 _519_
*843 _520_
*844 _521_
*845 _522_
*846 _523_
*847 _524_
*848 _525_
*849 _526_
*850 input33
*851 _528_
*852 _529_
*853 _530_
*854 _531_
*855 _532_
*856 _533_
*857 _534_
*858 _535_
*859 _536_
*860 _537_
*861 _538_
*862 _539_
*863 _540_
*864 _541_
*865 _542_
*866 _543_
*867 _544_
*868 _545_
*869 _546_
*870 _547_
*871 _548_
*872 _549_
*873 _550_
*874 _551_
*875 _552_
*876 _553_
*877 _554_
*878 _555_
*879 _556_
*880 _557_
*881 _558_
*882 _559_
*883 _560_
*884 _561_
*885 _562_
*886 _563_
*887 _564_
*888 _565_
*889 _566_
*890 _567_
*891 _568_
*892 _569_
*893 _570_
*894 _571_
*895 _572_
*896 _573_
*897 _574_
*898 _575_
*899 _576_
*900 _577_
*901 _578_
*902 _579_
*903 _580_
*904 _581_
*905 _582_
*906 _583_
*907 _584_
*908 _585_
*909 _586_
*910 _587_
*911 _588_
*912 _589_
*913 _590_
*914 _591_
*915 _592_
*916 _593_
*917 _594_
*918 _595_
*919 _596_
*920 _597_
*921 _598_
*922 _599_
*923 _600_
*924 _601_
*925 _602_
*926 _603_
*927 _604_
*928 _605_
*929 _606_
*930 _607_
*931 _608_
*932 _609_
*933 _610_
*934 _611_
*935 _612_
*936 _613_
*937 _614_
*938 _615_
*939 _616_
*940 _617_
*941 _618_
*942 _619_
*943 _620_
*944 _621_
*945 _622_
*946 _623_
*947 _624_
*948 _625_
*949 _626_
*950 _627_
*951 _628_
*952 _629_
*953 _630_
*954 _631_
*955 _632_
*956 _633_
*957 _634_
*958 _635_
*959 _636_
*960 _637_
*961 _638_
*962 _639_
*963 _640_
*964 _641_
*965 _642_
*966 _643_
*967 _644_
*968 _645_
*969 _646_
*970 _647_
*971 _648_
*972 _649_
*973 _650_
*974 _651_
*975 _652_
*976 _653_
*977 _654_
*978 _655_
*979 _656_
*980 _657_
*981 _658_
*982 _659_
*983 _660_
*984 _661_
*985 _662_
*986 _663_
*987 _664_
*988 _665_
*989 _666_
*990 _667_
*991 _668_
*992 _669_
*993 _670_
*994 _671_
*995 _672_
*996 _673_
*997 _674_
*998 input32
*999 input31
*1000 input30
*1001 input29
*1002 input28
*1003 input27
*1004 input26
*1005 input25
*1006 input24
*1007 input23
*1008 input22
*1009 input21
*1010 input20
*1011 input19
*1012 input18
*1013 input17
*1014 input16
*1015 input15
*1016 input14
*1017 input13
*1018 input12
*1019 input11
*1020 input10
*1021 input9
*1022 input8
*1023 input7
*1024 input6
*1025 input5
*1026 input4
*1027 input3
*1028 input2
*1029 input1
*1030 PHY_EDGE_ROW_0_Right_0
*1031 PHY_EDGE_ROW_1_Right_1
*1032 PHY_EDGE_ROW_2_Right_2
*1033 PHY_EDGE_ROW_3_Right_3
*1034 PHY_EDGE_ROW_4_Right_4
*1035 PHY_EDGE_ROW_5_Right_5
*1036 PHY_EDGE_ROW_6_Right_6
*1037 PHY_EDGE_ROW_7_Right_7
*1038 PHY_EDGE_ROW_8_Right_8
*1039 PHY_EDGE_ROW_9_Right_9
*1040 PHY_EDGE_ROW_10_Right_10
*1041 PHY_EDGE_ROW_11_Right_11
*1042 PHY_EDGE_ROW_12_Right_12
*1043 PHY_EDGE_ROW_13_Right_13
*1044 PHY_EDGE_ROW_14_Right_14
*1045 PHY_EDGE_ROW_15_Right_15
*1046 PHY_EDGE_ROW_16_Right_16
*1047 PHY_EDGE_ROW_17_Right_17
*1048 PHY_EDGE_ROW_18_Right_18
*1049 PHY_EDGE_ROW_19_Right_19
*1050 PHY_EDGE_ROW_20_Right_20
*1051 PHY_EDGE_ROW_21_Right_21
*1052 PHY_EDGE_ROW_22_Right_22
*1053 PHY_EDGE_ROW_23_Right_23
*1054 PHY_EDGE_ROW_24_Right_24
*1055 PHY_EDGE_ROW_25_Right_25
*1056 PHY_EDGE_ROW_26_Right_26
*1057 PHY_EDGE_ROW_27_Right_27
*1058 PHY_EDGE_ROW_28_Right_28
*1059 PHY_EDGE_ROW_29_Right_29
*1060 PHY_EDGE_ROW_30_Right_30
*1061 PHY_EDGE_ROW_31_Right_31
*1062 PHY_EDGE_ROW_32_Right_32
*1063 PHY_EDGE_ROW_33_Right_33
*1064 PHY_EDGE_ROW_34_Right_34
*1065 PHY_EDGE_ROW_35_Right_35
*1066 PHY_EDGE_ROW_36_Right_36
*1067 PHY_EDGE_ROW_0_Left_37
*1068 PHY_EDGE_ROW_1_Left_38
*1069 PHY_EDGE_ROW_2_Left_39
*1070 PHY_EDGE_ROW_3_Left_40
*1071 PHY_EDGE_ROW_4_Left_41
*1072 PHY_EDGE_ROW_5_Left_42
*1073 PHY_EDGE_ROW_6_Left_43
*1074 PHY_EDGE_ROW_7_Left_44
*1075 PHY_EDGE_ROW_8_Left_45
*1076 PHY_EDGE_ROW_9_Left_46
*1077 PHY_EDGE_ROW_10_Left_47
*1078 PHY_EDGE_ROW_11_Left_48
*1079 PHY_EDGE_ROW_12_Left_49
*1080 PHY_EDGE_ROW_13_Left_50
*1081 PHY_EDGE_ROW_14_Left_51
*1082 PHY_EDGE_ROW_15_Left_52
*1083 PHY_EDGE_ROW_16_Left_53
*1084 PHY_EDGE_ROW_17_Left_54
*1085 PHY_EDGE_ROW_18_Left_55
*1086 PHY_EDGE_ROW_19_Left_56
*1087 PHY_EDGE_ROW_20_Left_57
*1088 PHY_EDGE_ROW_21_Left_58
*1089 PHY_EDGE_ROW_22_Left_59
*1090 PHY_EDGE_ROW_23_Left_60
*1091 PHY_EDGE_ROW_24_Left_61
*1092 PHY_EDGE_ROW_25_Left_62
*1093 PHY_EDGE_ROW_26_Left_63
*1094 PHY_EDGE_ROW_27_Left_64
*1095 PHY_EDGE_ROW_28_Left_65
*1096 PHY_EDGE_ROW_29_Left_66
*1097 PHY_EDGE_ROW_30_Left_67
*1098 PHY_EDGE_ROW_31_Left_68
*1099 PHY_EDGE_ROW_32_Left_69
*1100 PHY_EDGE_ROW_33_Left_70
*1101 PHY_EDGE_ROW_34_Left_71
*1102 PHY_EDGE_ROW_35_Left_72
*1103 PHY_EDGE_ROW_36_Left_73
*1104 input42
*1105 input43
*1106 input44
*1107 input45
*1108 input46
*1109 input47
*1110 input48
*1111 input49
*1112 input50
*1113 input51
*1114 input52
*1115 input53
*1116 input54
*1117 input55
*1118 input56
*1119 input57
*1120 input58
*1121 input59
*1122 input60
*1123 input61
*1124 input62
*1125 input63
*1126 input64
*1127 output65
*1128 output66
*1129 output67
*1130 output68
*1131 output69
*1132 output70
*1133 output71
*1134 output72
*1135 output73
*1136 output74
*1137 output75
*1138 output76
*1139 output77
*1140 output78
*1141 output79
*1142 output80
*1143 output81
*1144 output82
*1145 output83
*1146 output84
*1147 output85
*1148 output86
*1149 output87
*1150 output88
*1151 output89
*1152 output90
*1153 output91
*1154 output92
*1155 output93
*1156 output94
*1157 output95
*1158 output96
*1159 output97
*1160 place212
*1161 place213
*1162 place223
*1163 place216
*1164 place217
*1165 place218
*1166 place219
*1167 place220
*1168 place221
*1169 place222
*1170 place224
*1171 place225
*1172 place226
*1173 place227
*1174 place229
*1175 place230
*1176 place231
*1177 place232
*1178 place233
*1179 place234
*1180 place235
*1181 place239
*1182 place237
*1183 place238
*1184 place240
*1185 place242
*1186 place243
*1187 place244
*1188 place245
*1189 place246
*1190 place248
*1191 place249
*1192 place251
*1193 place250
*1194 place252
*1195 place253
*1196 place254
*1197 place255
*1198 place257
*1199 place258
*1200 place259
*1201 place260
*1202 place261
*1203 place262
*1204 place263
*1205 place266
*1206 place265
*1207 place267
*1208 place268
*1209 place271
*1210 place272
*1211 place273
*1212 place274
*1213 place276
*1214 place275
*1215 place280
*1216 place278
*1217 place283
*1218 place279
*1219 place281
*1220 place282
*1221 place285
*1222 place288
*1223 place286
*1224 place287
*1225 place291
*1226 place290
*1227 place292
*1228 rebuffer337
*1229 place293
*1230 place294
*1231 rebuffer336
*1232 place295
*1233 rebuffer335
*1234 place296
*1235 rebuffer334
*1236 place297
*1237 place330
*1238 place306
*1239 place298
*1240 place299
*1241 place300
*1242 place301
*1243 place302
*1244 place303
*1245 place304
*1246 place305
*1247 place307
*1248 place308
*1249 place309
*1250 place323
*1251 place310
*1252 place311
*1253 place319
*1254 place312
*1255 place318
*1256 place313
*1257 place314
*1258 place315
*1259 place316
*1260 place317
*1261 place320
*1262 place321
*1263 place322
*1264 place324
*1265 place325
*1266 place326
*1267 place327
*1268 place328
*1269 place329
*1270 place331
*1271 place332
*1272 rebuffer333
*1273 place211
*1274 place214
*1275 rebuffer347
*1276 place228
*1277 place236
*1278 place241
*1279 place247
*1280 place256
*1281 place264
*1282 place269
*1283 place270
*1284 place277
*1285 place284
*1286 place289
*1287 rebuffer338
*1288 rebuffer339
*1289 rebuffer340
*1290 rebuffer346
*1291 rebuffer351
*1292 rebuffer352
*1293 rebuffer353
*1294 rebuffer354
*1295 FILLER_0_2
*1296 FILLER_0_40
*1297 FILLER_0_52
*1298 FILLER_0_64
*1299 FILLER_0_72
*1300 FILLER_0_105
*1301 FILLER_0_119
*1302 FILLER_0_126
*1303 FILLER_0_149
*1304 FILLER_0_156
*1305 FILLER_0_171
*1306 FILLER_1_2
*1307 FILLER_1_20
*1308 FILLER_1_45
*1309 FILLER_1_64
*1310 FILLER_1_70
*1311 FILLER_1_82
*1312 FILLER_1_84
*1313 FILLER_1_88
*1314 FILLER_1_114
*1315 FILLER_1_130
*1316 FILLER_1_134
*1317 FILLER_1_140
*1318 FILLER_1_146
*1319 FILLER_1_181
*1320 FILLER_1_183
*1321 FILLER_2_2
*1322 FILLER_2_6
*1323 FILLER_2_21
*1324 FILLER_2_34
*1325 FILLER_2_45
*1326 FILLER_2_49
*1327 FILLER_2_86
*1328 FILLER_2_92
*1329 FILLER_2_98
*1330 FILLER_2_106
*1331 FILLER_2_108
*1332 FILLER_2_127
*1333 FILLER_2_137
*1334 FILLER_2_139
*1335 FILLER_2_149
*1336 FILLER_2_175
*1337 FILLER_2_177
*1338 FILLER_3_2
*1339 FILLER_3_14
*1340 FILLER_3_24
*1341 FILLER_3_46
*1342 FILLER_3_52
*1343 FILLER_3_61
*1344 FILLER_3_74
*1345 FILLER_3_84
*1346 FILLER_3_90
*1347 FILLER_3_108
*1348 FILLER_3_120
*1349 FILLER_3_122
*1350 FILLER_3_129
*1351 FILLER_3_137
*1352 FILLER_3_152
*1353 FILLER_3_162
*1354 FILLER_3_168
*1355 FILLER_3_182
*1356 FILLER_4_2
*1357 FILLER_4_19
*1358 FILLER_4_71
*1359 FILLER_4_98
*1360 FILLER_4_118
*1361 FILLER_4_120
*1362 FILLER_4_127
*1363 FILLER_4_133
*1364 FILLER_4_151
*1365 FILLER_4_157
*1366 FILLER_4_164
*1367 FILLER_4_171
*1368 FILLER_4_181
*1369 FILLER_4_183
*1370 FILLER_5_2
*1371 FILLER_5_6
*1372 FILLER_5_27
*1373 FILLER_5_33
*1374 FILLER_5_35
*1375 FILLER_5_54
*1376 FILLER_5_63
*1377 FILLER_5_73
*1378 FILLER_5_80
*1379 FILLER_5_86
*1380 FILLER_5_90
*1381 FILLER_5_92
*1382 FILLER_5_108
*1383 FILLER_5_112
*1384 FILLER_5_129
*1385 FILLER_5_143
*1386 FILLER_5_151
*1387 FILLER_5_157
*1388 FILLER_5_172
*1389 FILLER_6_2
*1390 FILLER_6_8
*1391 FILLER_6_10
*1392 FILLER_6_31
*1393 FILLER_6_37
*1394 FILLER_6_39
*1395 FILLER_6_61
*1396 FILLER_6_88
*1397 FILLER_6_104
*1398 FILLER_6_120
*1399 FILLER_6_137
*1400 FILLER_6_165
*1401 FILLER_6_183
*1402 FILLER_7_2
*1403 FILLER_7_19
*1404 FILLER_7_26
*1405 FILLER_7_36
*1406 FILLER_7_44
*1407 FILLER_7_54
*1408 FILLER_7_62
*1409 FILLER_7_64
*1410 FILLER_7_76
*1411 FILLER_7_90
*1412 FILLER_7_94
*1413 FILLER_7_101
*1414 FILLER_7_103
*1415 FILLER_7_110
*1416 FILLER_7_112
*1417 FILLER_7_123
*1418 FILLER_7_133
*1419 FILLER_7_156
*1420 FILLER_7_164
*1421 FILLER_7_170
*1422 FILLER_7_178
*1423 FILLER_8_2
*1424 FILLER_8_8
*1425 FILLER_8_15
*1426 FILLER_8_37
*1427 FILLER_8_50
*1428 FILLER_8_67
*1429 FILLER_8_69
*1430 FILLER_8_76
*1431 FILLER_8_82
*1432 FILLER_8_91
*1433 FILLER_8_97
*1434 FILLER_8_99
*1435 FILLER_8_150
*1436 FILLER_8_156
*1437 FILLER_8_165
*1438 FILLER_8_169
*1439 FILLER_8_181
*1440 FILLER_8_183
*1441 FILLER_9_2
*1442 FILLER_9_17
*1443 FILLER_9_24
*1444 FILLER_9_30
*1445 FILLER_9_46
*1446 FILLER_9_71
*1447 FILLER_9_90
*1448 FILLER_9_121
*1449 FILLER_9_143
*1450 FILLER_9_157
*1451 FILLER_9_178
*1452 FILLER_10_2
*1453 FILLER_10_6
*1454 FILLER_10_16
*1455 FILLER_10_26
*1456 FILLER_10_36
*1457 FILLER_10_48
*1458 FILLER_10_62
*1459 FILLER_10_66
*1460 FILLER_10_78
*1461 FILLER_10_80
*1462 FILLER_10_93
*1463 FILLER_10_113
*1464 FILLER_10_123
*1465 FILLER_10_125
*1466 FILLER_10_138
*1467 FILLER_10_152
*1468 FILLER_10_165
*1469 FILLER_10_171
*1470 FILLER_10_178
*1471 FILLER_11_2
*1472 FILLER_11_20
*1473 FILLER_11_30
*1474 FILLER_11_52
*1475 FILLER_11_59
*1476 FILLER_11_79
*1477 FILLER_11_85
*1478 FILLER_11_108
*1479 FILLER_11_145
*1480 FILLER_11_155
*1481 FILLER_11_157
*1482 FILLER_11_164
*1483 FILLER_11_180
*1484 FILLER_12_7
*1485 FILLER_12_11
*1486 FILLER_12_29
*1487 FILLER_12_37
*1488 FILLER_12_43
*1489 FILLER_12_50
*1490 FILLER_12_58
*1491 FILLER_12_90
*1492 FILLER_12_97
*1493 FILLER_12_118
*1494 FILLER_12_132
*1495 FILLER_12_139
*1496 FILLER_12_147
*1497 FILLER_12_159
*1498 FILLER_12_171
*1499 FILLER_12_177
*1500 FILLER_13_2
*1501 FILLER_13_15
*1502 FILLER_13_41
*1503 FILLER_13_47
*1504 FILLER_13_63
*1505 FILLER_13_70
*1506 FILLER_13_78
*1507 FILLER_13_96
*1508 FILLER_13_108
*1509 FILLER_13_110
*1510 FILLER_13_117
*1511 FILLER_13_123
*1512 FILLER_13_125
*1513 FILLER_13_132
*1514 FILLER_13_134
*1515 FILLER_13_149
*1516 FILLER_13_156
*1517 FILLER_13_168
*1518 FILLER_13_180
*1519 FILLER_14_7
*1520 FILLER_14_25
*1521 FILLER_14_47
*1522 FILLER_14_61
*1523 FILLER_14_63
*1524 FILLER_14_86
*1525 FILLER_14_96
*1526 FILLER_14_98
*1527 FILLER_14_105
*1528 FILLER_14_116
*1529 FILLER_14_138
*1530 FILLER_14_142
*1531 FILLER_14_151
*1532 FILLER_14_163
*1533 FILLER_14_183
*1534 FILLER_15_22
*1535 FILLER_15_32
*1536 FILLER_15_40
*1537 FILLER_15_63
*1538 FILLER_15_67
*1539 FILLER_15_74
*1540 FILLER_15_88
*1541 FILLER_15_113
*1542 FILLER_15_121
*1543 FILLER_15_135
*1544 FILLER_15_150
*1545 FILLER_15_172
*1546 FILLER_16_2
*1547 FILLER_16_24
*1548 FILLER_16_28
*1549 FILLER_16_120
*1550 FILLER_16_142
*1551 FILLER_16_156
*1552 FILLER_16_162
*1553 FILLER_16_180
*1554 FILLER_17_2
*1555 FILLER_17_24
*1556 FILLER_17_26
*1557 FILLER_17_39
*1558 FILLER_17_53
*1559 FILLER_17_66
*1560 FILLER_17_79
*1561 FILLER_17_125
*1562 FILLER_17_144
*1563 FILLER_17_158
*1564 FILLER_17_160
*1565 FILLER_17_178
*1566 FILLER_18_2
*1567 FILLER_18_8
*1568 FILLER_18_18
*1569 FILLER_18_44
*1570 FILLER_18_63
*1571 FILLER_18_67
*1572 FILLER_18_85
*1573 FILLER_18_87
*1574 FILLER_18_94
*1575 FILLER_18_116
*1576 FILLER_18_181
*1577 FILLER_18_183
*1578 FILLER_19_2
*1579 FILLER_19_9
*1580 FILLER_19_13
*1581 FILLER_19_38
*1582 FILLER_19_45
*1583 FILLER_19_67
*1584 FILLER_19_86
*1585 FILLER_19_104
*1586 FILLER_19_126
*1587 FILLER_19_144
*1588 FILLER_19_170
*1589 FILLER_20_2
*1590 FILLER_20_8
*1591 FILLER_20_19
*1592 FILLER_20_26
*1593 FILLER_20_50
*1594 FILLER_20_64
*1595 FILLER_20_70
*1596 FILLER_20_79
*1597 FILLER_20_99
*1598 FILLER_20_121
*1599 FILLER_20_131
*1600 FILLER_20_133
*1601 FILLER_20_146
*1602 FILLER_20_181
*1603 FILLER_20_183
*1604 FILLER_21_2
*1605 FILLER_21_17
*1606 FILLER_21_29
*1607 FILLER_21_41
*1608 FILLER_21_51
*1609 FILLER_21_64
*1610 FILLER_21_86
*1611 FILLER_21_102
*1612 FILLER_21_116
*1613 FILLER_21_123
*1614 FILLER_21_130
*1615 FILLER_21_141
*1616 FILLER_21_160
*1617 FILLER_21_172
*1618 FILLER_21_179
*1619 FILLER_21_183
*1620 FILLER_22_2
*1621 FILLER_22_22
*1622 FILLER_22_31
*1623 FILLER_22_33
*1624 FILLER_22_46
*1625 FILLER_22_52
*1626 FILLER_22_71
*1627 FILLER_22_93
*1628 FILLER_22_115
*1629 FILLER_22_117
*1630 FILLER_22_130
*1631 FILLER_22_141
*1632 FILLER_22_148
*1633 FILLER_22_162
*1634 FILLER_22_174
*1635 FILLER_22_180
*1636 FILLER_23_2
*1637 FILLER_23_8
*1638 FILLER_23_10
*1639 FILLER_23_17
*1640 FILLER_23_31
*1641 FILLER_23_39
*1642 FILLER_23_49
*1643 FILLER_23_63
*1644 FILLER_23_65
*1645 FILLER_23_72
*1646 FILLER_23_74
*1647 FILLER_23_84
*1648 FILLER_23_97
*1649 FILLER_23_109
*1650 FILLER_23_115
*1651 FILLER_23_117
*1652 FILLER_23_127
*1653 FILLER_23_138
*1654 FILLER_23_152
*1655 FILLER_23_158
*1656 FILLER_23_160
*1657 FILLER_23_175
*1658 FILLER_24_2
*1659 FILLER_24_14
*1660 FILLER_24_24
*1661 FILLER_24_42
*1662 FILLER_24_49
*1663 FILLER_24_53
*1664 FILLER_24_104
*1665 FILLER_24_111
*1666 FILLER_24_127
*1667 FILLER_24_140
*1668 FILLER_24_142
*1669 FILLER_24_146
*1670 FILLER_24_167
*1671 FILLER_24_173
*1672 FILLER_24_181
*1673 FILLER_24_183
*1674 FILLER_25_2
*1675 FILLER_25_8
*1676 FILLER_25_20
*1677 FILLER_25_26
*1678 FILLER_25_28
*1679 FILLER_25_43
*1680 FILLER_25_45
*1681 FILLER_25_55
*1682 FILLER_25_69
*1683 FILLER_25_79
*1684 FILLER_25_81
*1685 FILLER_25_88
*1686 FILLER_25_97
*1687 FILLER_25_101
*1688 FILLER_25_118
*1689 FILLER_25_124
*1690 FILLER_25_140
*1691 FILLER_25_155
*1692 FILLER_25_177
*1693 FILLER_25_183
*1694 FILLER_26_2
*1695 FILLER_26_18
*1696 FILLER_26_26
*1697 FILLER_26_28
*1698 FILLER_26_32
*1699 FILLER_26_68
*1700 FILLER_26_78
*1701 FILLER_26_80
*1702 FILLER_26_87
*1703 FILLER_26_91
*1704 FILLER_26_102
*1705 FILLER_26_110
*1706 FILLER_26_138
*1707 FILLER_26_145
*1708 FILLER_26_162
*1709 FILLER_26_181
*1710 FILLER_26_183
*1711 FILLER_27_2
*1712 FILLER_27_8
*1713 FILLER_27_18
*1714 FILLER_27_31
*1715 FILLER_27_39
*1716 FILLER_27_53
*1717 FILLER_27_62
*1718 FILLER_27_76
*1719 FILLER_27_98
*1720 FILLER_27_100
*1721 FILLER_27_107
*1722 FILLER_27_121
*1723 FILLER_27_156
*1724 FILLER_27_170
*1725 FILLER_27_174
*1726 FILLER_27_181
*1727 FILLER_27_183
*1728 FILLER_28_2
*1729 FILLER_28_24
*1730 FILLER_28_39
*1731 FILLER_28_54
*1732 FILLER_28_61
*1733 FILLER_28_75
*1734 FILLER_28_79
*1735 FILLER_28_86
*1736 FILLER_28_101
*1737 FILLER_28_123
*1738 FILLER_28_150
*1739 FILLER_28_164
*1740 FILLER_28_181
*1741 FILLER_28_183
*1742 FILLER_29_2
*1743 FILLER_29_4
*1744 FILLER_29_10
*1745 FILLER_29_17
*1746 FILLER_29_23
*1747 FILLER_29_25
*1748 FILLER_29_38
*1749 FILLER_29_60
*1750 FILLER_29_68
*1751 FILLER_29_83
*1752 FILLER_29_89
*1753 FILLER_29_91
*1754 FILLER_29_109
*1755 FILLER_29_113
*1756 FILLER_29_123
*1757 FILLER_29_133
*1758 FILLER_29_149
*1759 FILLER_29_151
*1760 FILLER_29_158
*1761 FILLER_29_164
*1762 FILLER_30_22
*1763 FILLER_30_43
*1764 FILLER_30_57
*1765 FILLER_30_69
*1766 FILLER_30_81
*1767 FILLER_30_105
*1768 FILLER_30_114
*1769 FILLER_30_128
*1770 FILLER_30_157
*1771 FILLER_30_167
*1772 FILLER_30_169
*1773 FILLER_30_179
*1774 FILLER_30_183
*1775 FILLER_31_2
*1776 FILLER_31_16
*1777 FILLER_31_22
*1778 FILLER_31_42
*1779 FILLER_31_52
*1780 FILLER_31_54
*1781 FILLER_31_66
*1782 FILLER_31_72
*1783 FILLER_31_74
*1784 FILLER_31_92
*1785 FILLER_31_106
*1786 FILLER_31_112
*1787 FILLER_31_126
*1788 FILLER_31_130
*1789 FILLER_31_139
*1790 FILLER_31_149
*1791 FILLER_31_160
*1792 FILLER_31_178
*1793 FILLER_32_2
*1794 FILLER_32_12
*1795 FILLER_32_29
*1796 FILLER_32_45
*1797 FILLER_32_52
*1798 FILLER_32_54
*1799 FILLER_32_64
*1800 FILLER_32_66
*1801 FILLER_32_85
*1802 FILLER_32_107
*1803 FILLER_32_141
*1804 FILLER_32_151
*1805 FILLER_32_165
*1806 FILLER_32_171
*1807 FILLER_32_178
*1808 FILLER_33_22
*1809 FILLER_33_41
*1810 FILLER_33_51
*1811 FILLER_33_65
*1812 FILLER_33_67
*1813 FILLER_33_110
*1814 FILLER_33_116
*1815 FILLER_33_118
*1816 FILLER_33_133
*1817 FILLER_33_143
*1818 FILLER_33_145
*1819 FILLER_33_167
*1820 FILLER_33_180
*1821 FILLER_34_7
*1822 FILLER_34_17
*1823 FILLER_34_62
*1824 FILLER_34_72
*1825 FILLER_34_87
*1826 FILLER_34_99
*1827 FILLER_34_110
*1828 FILLER_34_116
*1829 FILLER_34_128
*1830 FILLER_34_134
*1831 FILLER_34_136
*1832 FILLER_34_146
*1833 FILLER_34_176
*1834 FILLER_34_178
*1835 FILLER_35_2
*1836 FILLER_35_27
*1837 FILLER_35_49
*1838 FILLER_35_61
*1839 FILLER_35_82
*1840 FILLER_35_92
*1841 FILLER_35_99
*1842 FILLER_35_132
*1843 FILLER_35_136
*1844 FILLER_35_142
*1845 FILLER_35_148
*1846 FILLER_35_150
*1847 FILLER_35_154
*1848 FILLER_35_164
*1849 FILLER_35_175
*1850 FILLER_35_181
*1851 FILLER_35_183
*1852 FILLER_36_2
*1853 FILLER_36_24
*1854 FILLER_36_31
*1855 FILLER_36_53
*1856 FILLER_36_59
*1857 FILLER_36_69
*1858 FILLER_36_92
*1859 FILLER_36_112
*1860 FILLER_36_119
*1861 FILLER_36_126
*1862 FILLER_36_128
*1863 FILLER_36_135
*1864 FILLER_36_142
*1865 FILLER_36_156
*1866 FILLER_36_170

*PORTS
A[10] I
A[11] I
A[12] I
A[13] I
A[14] I
A[15] I
A[16] I
A[17] I
A[18] I
A[19] I
A[1] I
A[20] I
A[21] I
A[22] I
A[23] I
A[24] I
A[25] I
A[26] I
A[27] I
A[28] I
A[29] I
A[2] I
A[30] I
A[31] I
A[32] I
A[3] I
A[4] I
A[5] I
A[6] I
A[7] I
A[8] I
A[9] I
B[10] I
B[11] I
B[12] I
B[13] I
B[14] I
B[15] I
B[16] I
B[17] I
B[18] I
B[19] I
B[1] I
B[20] I
B[21] I
B[22] I
B[23] I
B[24] I
B[25] I
B[26] I
B[27] I
B[28] I
B[29] I
B[2] I
B[30] I
B[31] I
B[32] I
B[3] I
B[4] I
B[5] I
B[6] I
B[7] I
B[8] I
B[9] I
C32 O
S[10] O
S[11] O
S[12] O
S[13] O
S[14] O
S[15] O
S[16] O
S[17] O
S[18] O
S[19] O
S[1] O
S[20] O
S[21] O
S[22] O
S[23] O
S[24] O
S[25] O
S[26] O
S[27] O
S[28] O
S[29] O
S[2] O
S[30] O
S[31] O
S[32] O
S[3] O
S[4] O
S[5] O
S[6] O
S[7] O
S[8] O
S[9] O

*D_NET *1 1.29726e-05
*CONN
*I *988:B I *D HAxp5_ASAP7_75t_R
*I *1029:Y O *D BUFx2_ASAP7_75t_R
*CAP
1 *988:B 0
2 *1029:Y 5.12669e-06
3 *1:8 5.12669e-06
4 *1:8 *33:12 1.62854e-06
5 *1:8 *199:10 1.09067e-06
*RES
1 *1029:Y *1:8 38.9053 
2 *1:8 *988:B 34.4 
*END

*D_NET *2 3.61207e-05
*CONN
*I *987:B I *D HAxp5_ASAP7_75t_R
*I *1028:Y O *D BUFx6f_ASAP7_75t_R
*CAP
1 *987:B 1.01955e-05
2 *1028:Y 5.02197e-06
3 *2:8 1.52175e-05
4 *2:8 *34:20 5.68573e-06
*RES
1 *1028:Y *2:8 38.9053 
2 *2:8 *987:B 40.2831 
*END

*D_NET *3 4.44212e-05
*CONN
*I *986:A I *D HAxp5_ASAP7_75t_R
*I *1027:Y O *D BUFx2_ASAP7_75t_R
*CAP
1 *986:A 2.22106e-05
2 *1027:Y 2.22106e-05
*RES
1 *1027:Y *986:A 44.5617 
*END

*D_NET *4 9.86265e-05
*CONN
*I *985:B I *D HAxp5_ASAP7_75t_R
*I *1267:A I *D BUFx3_ASAP7_75t_R
*I *1026:Y O *D BUFx3_ASAP7_75t_R
*CAP
1 *985:B 1.68787e-05
2 *1267:A 9.1862e-06
3 *1026:Y 1.80322e-05
4 *4:8 4.40971e-05
5 *985:B *192:10 5.63702e-07
6 *985:B *193:6 5.80001e-06
7 *985:B *283:22 5.0468e-07
8 *985:B *636:8 2.56604e-06
9 *4:8 *636:8 9.97906e-07
*RES
1 *1026:Y *4:8 47.3528 
2 *4:8 *1267:A 39.2134 
3 *4:8 *985:B 47.1544 
*END

*D_NET *5 3.08734e-05
*CONN
*I *984:B I *D HAxp5_ASAP7_75t_R
*I *1025:Y O *D BUFx6f_ASAP7_75t_R
*CAP
1 *984:B 0
2 *1025:Y 1.49378e-05
3 *5:10 1.49378e-05
4 *5:10 *37:8 9.97906e-07
*RES
1 *1025:Y *5:10 43.8888 
2 *5:10 *984:B 34.4 
*END

*D_NET *6 3.94956e-05
*CONN
*I *983:A I *D HAxp5_ASAP7_75t_R
*I *1024:Y O *D BUFx2_ASAP7_75t_R
*CAP
1 *983:A 0
2 *1024:Y 5.09135e-06
3 *6:8 5.09135e-06
4 *6:8 *7:10 0
5 *6:8 *188:8 5.3483e-06
6 *6:8 *231:13 2.39646e-05
*RES
1 *1024:Y *6:8 42.2843 
2 *6:8 *983:A 34.4 
*END

*D_NET *7 2.5808e-05
*CONN
*I *982:B I *D HAxp5_ASAP7_75t_R
*I *1023:Y O *D BUFx6f_ASAP7_75t_R
*CAP
1 *982:B 0
2 *1023:Y 1.2904e-05
3 *7:10 1.2904e-05
4 *6:8 *7:10 0
*RES
1 *1023:Y *7:10 41.5795 
2 *7:10 *982:B 34.4 
*END

*D_NET *8 0.000234734
*CONN
*I *981:A I *D HAxp5_ASAP7_75t_R
*I *1262:A I *D BUFx3_ASAP7_75t_R
*I *1022:Y O *D BUFx2_ASAP7_75t_R
*CAP
1 *981:A 0
2 *1262:A 2.13529e-05
3 *1022:Y 9.18557e-06
4 *8:12 2.13529e-05
5 *8:10 4.29662e-05
6 *8:8 5.21517e-05
7 *1262:A *865:A 1.29877e-05
8 *1262:A *981:B 7.86466e-06
9 *1262:A *40:27 1.32074e-05
10 *8:8 *1286:A 1.48593e-05
11 *8:10 *1228:A 5.2059e-06
12 *8:10 *1286:A 5.63702e-07
13 *8:10 *183:19 4.83654e-06
14 *8:10 *593:8 2.32031e-05
15 *8:10 *597:8 4.99685e-06
*RES
1 *1022:Y *8:8 38.1438 
2 *8:8 *8:10 33.2268 
3 *8:10 *8:12 17.2 
4 *8:12 *1262:A 33.7796 
5 *8:12 *981:A 17.2 
*END

*D_NET *9 3.84455e-05
*CONN
*I *980:B I *D HAxp5_ASAP7_75t_R
*I *1021:Y O *D BUFx2_ASAP7_75t_R
*CAP
1 *980:B 3.89297e-06
2 *1021:Y 3.46514e-06
3 *9:8 7.35811e-06
4 *9:8 *230:13 7.02842e-06
5 *9:8 *504:8 1.67009e-05
*RES
1 *1021:Y *9:8 40.0317 
2 *9:8 *980:B 36.0045 
*END

*D_NET *10 0.000214513
*CONN
*I *979:A I *D HAxp5_ASAP7_75t_R
*I *1020:Y O *D BUFx2_ASAP7_75t_R
*CAP
1 *979:A 0
2 *1020:Y 0
3 *10:6 9.16764e-05
4 *10:4 9.16764e-05
5 *10:6 *1226:A 5.85387e-06
6 *10:6 *181:6 3.90258e-06
7 *10:6 *341:14 2.14035e-05
8 *10:6 *595:10 0
*RES
1 *1020:Y *10:4 17.2 
2 *10:4 *10:6 35.8333 
3 *10:6 *979:A 17.2 
*END

*D_NET *11 1.5245e-05
*CONN
*I *997:A I *D HAxp5_ASAP7_75t_R
*I *1019:Y O *D BUFx2_ASAP7_75t_R
*CAP
1 *997:A 0
2 *1019:Y 5.08285e-06
3 *11:8 5.08285e-06
4 *11:8 *217:14 5.07932e-06
*RES
1 *1019:Y *11:8 38.9053 
2 *11:8 *997:A 34.4 
*END

*D_NET *12 1.17102e-05
*CONN
*I *978:A I *D HAxp5_ASAP7_75t_R
*I *1018:Y O *D BUFx2_ASAP7_75t_R
*CAP
1 *978:A 0
2 *1018:Y 4.00055e-06
3 *12:8 4.00055e-06
4 *12:8 *44:10 3.70913e-06
*RES
1 *1018:Y *12:8 37.779 
2 *12:8 *978:A 34.4 
*END

*D_NET *13 2.98707e-05
*CONN
*I *977:A I *D HAxp5_ASAP7_75t_R
*I *1271:A I *D BUFx3_ASAP7_75t_R
*I *1017:Y O *D BUFx2_ASAP7_75t_R
*CAP
1 *977:A 6.3233e-06
2 *1271:A 7.06162e-06
3 *1017:Y 0
4 *13:6 1.33849e-05
5 *1271:A *1017:A 3.10081e-06
*RES
1 *1017:Y *13:6 34.4 
2 *13:6 *1271:A 38.7636 
3 *13:6 *977:A 38.9053 
*END

*D_NET *14 8.05723e-05
*CONN
*I *976:A I *D HAxp5_ASAP7_75t_R
*I *1016:Y O *D BUFx2_ASAP7_75t_R
*CAP
1 *976:A 2.45423e-05
2 *1016:Y 2.45423e-05
3 *976:A *1016:A 2.11853e-06
4 *976:A *46:14 2.96818e-06
5 *976:A *175:8 2.6401e-05
*RES
1 *1016:Y *976:A 47.7706 
*END

*D_NET *15 9.63827e-05
*CONN
*I *975:A I *D HAxp5_ASAP7_75t_R
*I *1015:Y O *D BUFx2_ASAP7_75t_R
*CAP
1 *975:A 1.36476e-05
2 *1015:Y 3.02245e-05
3 *15:8 4.38721e-05
4 *975:A *975:B 6.86929e-06
5 *975:A *172:10 0
6 *15:8 *1015:A 1.76928e-06
*RES
1 *1015:Y *15:8 48.8403 
2 *15:8 *975:A 43.7188 
*END

*D_NET *16 5.08568e-05
*CONN
*I *974:A I *D HAxp5_ASAP7_75t_R
*I *1014:Y O *D BUFx2_ASAP7_75t_R
*CAP
1 *974:A 2.77008e-06
2 *1014:Y 1.38826e-05
3 *16:10 1.66526e-05
4 *974:A *48:8 1.04475e-06
5 *16:10 *1014:A 1.25483e-05
6 *16:10 *171:8 3.95845e-06
*RES
1 *1014:Y *16:10 42.6491 
2 *16:10 *974:A 36.0045 
*END

*D_NET *17 0.00015713
*CONN
*I *973:A I *D HAxp5_ASAP7_75t_R
*I *964:A I *D FAx1_ASAP7_75t_R
*I *1013:Y O *D BUFx2_ASAP7_75t_R
*CAP
1 *973:A 0
2 *964:A 8.34291e-06
3 *1013:Y 3.18002e-05
4 *17:10 1.48971e-05
5 *17:6 3.83544e-05
6 *964:A *964:CI 5.37866e-07
7 *964:A *149:8 5.48826e-06
8 *964:A *603:62 6.62106e-06
9 *17:6 *49:22 1.07377e-06
10 *17:6 *169:10 5.09299e-06
11 *17:6 *480:13 3.98264e-05
12 *17:10 *49:30 7.79286e-08
13 *17:10 *168:27 0
14 *17:10 *169:10 2.78959e-06
15 *17:10 *603:62 2.22736e-06
*RES
1 *1013:Y *17:6 34.8492 
2 *17:6 *17:10 22.2685 
3 *17:10 *964:A 26.2107 
4 *17:10 *973:A 34.4 
*END

*D_NET *18 4.28069e-05
*CONN
*I *972:A I *D HAxp5_ASAP7_75t_R
*I *1012:Y O *D BUFx2_ASAP7_75t_R
*CAP
1 *972:A 1.8008e-05
2 *1012:Y 1.8008e-05
3 *972:A *80:13 6.79089e-06
*RES
1 *1012:Y *972:A 46.701 
*END

*D_NET *19 0.000151213
*CONN
*I *971:A I *D HAxp5_ASAP7_75t_R
*I *1011:Y O *D BUFx2_ASAP7_75t_R
*CAP
1 *971:A 0
2 *1011:Y 7.25807e-06
3 *19:12 2.90654e-05
4 *19:8 3.63235e-05
5 *19:8 *79:19 1.51111e-06
6 *19:12 *51:10 4.0152e-05
7 *19:12 *164:6 4.18905e-06
8 *19:12 *482:13 3.27135e-05
*RES
1 *1011:Y *19:8 39.4685 
2 *19:8 *19:12 41.2671 
3 *19:12 *971:A 17.2 
*END

*D_NET *20 2.51978e-05
*CONN
*I *970:A I *D HAxp5_ASAP7_75t_R
*I *1010:Y O *D BUFx2_ASAP7_75t_R
*CAP
1 *970:A 6.72187e-06
2 *1010:Y 5.87704e-06
3 *20:8 1.25989e-05
4 *20:8 *970:B 0
*RES
1 *1010:Y *20:8 37.779 
2 *20:8 *970:A 37.0741 
*END

*D_NET *21 0.000113349
*CONN
*I *969:A I *D HAxp5_ASAP7_75t_R
*I *965:CI I *D FAx1_ASAP7_75t_R
*I *1009:Y O *D BUFx2_ASAP7_75t_R
*CAP
1 *969:A 5.49113e-06
2 *965:CI 0
3 *1009:Y 3.34374e-05
4 *21:10 1.12358e-05
5 *21:8 3.91821e-05
6 *969:A *152:8 5.37866e-07
7 *969:A *159:16 7.24542e-06
8 *21:8 *77:13 4.70139e-06
9 *21:10 *152:8 2.70427e-06
10 *21:10 *159:16 8.8135e-06
*RES
1 *1009:Y *21:8 48.8403 
2 *21:8 *21:10 6.75799 
3 *21:10 *965:CI 17.2 
4 *21:10 *969:A 40.0317 
*END

*D_NET *22 7.9188e-05
*CONN
*I *996:B I *D HAxp5_ASAP7_75t_R
*I *1270:A I *D BUFx3_ASAP7_75t_R
*I *1008:Y O *D BUFx6f_ASAP7_75t_R
*CAP
1 *996:B 9.9996e-06
2 *1270:A 1.5159e-05
3 *1008:Y 0
4 *22:6 2.51586e-05
5 *996:B *54:21 1.34329e-05
6 *1270:A *54:21 1.54378e-05
*RES
1 *1008:Y *22:6 34.4 
2 *22:6 *1270:A 45.3516 
3 *22:6 *996:B 41.5795 
*END

*D_NET *23 4.07948e-05
*CONN
*I *968:A I *D HAxp5_ASAP7_75t_R
*I *1007:Y O *D BUFx2_ASAP7_75t_R
*CAP
1 *968:A 2.82162e-06
2 *1007:Y 1.10881e-05
3 *23:8 1.39097e-05
4 *968:A *968:B 5.34278e-06
5 *968:A *158:10 6.86929e-06
6 *968:A *158:53 7.63254e-07
7 *23:8 *55:8 0
*RES
1 *1007:Y *23:8 41.158 
2 *23:8 *968:A 39.2134 
*END

*D_NET *24 5.10355e-05
*CONN
*I *967:A I *D HAxp5_ASAP7_75t_R
*I *1006:Y O *D BUFx2_ASAP7_75t_R
*CAP
1 *967:A 0
2 *1006:Y 0
3 *24:10 1.85915e-05
4 *24:6 1.85915e-05
5 *24:10 *888:A 1.22048e-05
6 *24:10 *56:10 1.64764e-06
7 *24:10 *487:15 0
*RES
1 *1006:Y *24:6 34.4 
2 *24:6 *24:10 33.5318 
3 *24:10 *967:A 17.2 
*END

*D_NET *25 2.57656e-05
*CONN
*I *966:A I *D HAxp5_ASAP7_75t_R
*I *1005:Y O *D BUFx2_ASAP7_75t_R
*CAP
1 *966:A 4.43397e-06
2 *1005:Y 8.06722e-06
3 *25:8 1.25012e-05
4 *966:A *890:A 7.63254e-07
*RES
1 *1005:Y *25:8 38.9053 
2 *25:8 *966:A 37.0741 
*END

*D_NET *26 1.23135e-05
*CONN
*I *995:A I *D HAxp5_ASAP7_75t_R
*I *1004:Y O *D BUFx2_ASAP7_75t_R
*CAP
1 *995:A 6.15674e-06
2 *1004:Y 6.15674e-06
*RES
1 *1004:Y *995:A 37.0741 
*END

*D_NET *27 2.02152e-05
*CONN
*I *994:B I *D HAxp5_ASAP7_75t_R
*I *1003:Y O *D BUFx2_ASAP7_75t_R
*CAP
1 *994:B 9.96443e-06
2 *1003:Y 9.96443e-06
3 *994:B *994:A 2.86376e-07
*RES
1 *1003:Y *994:B 39.2134 
*END

*D_NET *28 0.000231237
*CONN
*I *1237:A I *D BUFx3_ASAP7_75t_R
*I *993:A I *D HAxp5_ASAP7_75t_R
*I *1002:Y O *D BUFx2_ASAP7_75t_R
*CAP
1 *1237:A 4.8702e-06
2 *993:A 0
3 *1002:Y 4.83885e-06
4 *28:36 2.09731e-05
5 *28:28 3.55895e-05
6 *28:18 3.4382e-05
7 *28:12 3.97381e-05
8 *28:8 1.99411e-05
9 *28:8 *134:9 1.27939e-05
10 *28:18 *134:9 0
11 *28:18 *208:8 0
12 *28:18 *606:8 0
13 *28:28 *862:A 1.4311e-05
14 *28:28 *60:8 1.65979e-06
15 *28:28 *60:16 1.83517e-05
16 *28:36 *993:B 0
17 *28:36 *1155:A 2.23748e-05
18 *28:36 *125:8 0
19 *28:36 *524:8 1.41313e-06
*RES
1 *1002:Y *28:8 38.9053 
2 *28:8 *28:12 24.1527 
3 *28:12 *28:18 48.4791 
4 *28:18 *28:28 44.7601 
5 *28:28 *28:36 44.7884 
6 *28:36 *993:A 17.2 
7 *28:12 *1237:A 19.8741 
*END

*D_NET *29 1.47739e-05
*CONN
*I *992:B I *D HAxp5_ASAP7_75t_R
*I *1001:Y O *D BUFx2_ASAP7_75t_R
*CAP
1 *992:B 0
2 *1001:Y 7.38695e-06
3 *29:8 7.38695e-06
4 *29:8 *492:9 0
*RES
1 *1001:Y *29:8 38.9053 
2 *29:8 *992:B 34.4 
*END

*D_NET *30 2.43587e-05
*CONN
*I *991:A I *D HAxp5_ASAP7_75t_R
*I *1000:Y O *D BUFx2_ASAP7_75t_R
*CAP
1 *991:A 0
2 *1000:Y 1.19428e-05
3 *30:10 1.19428e-05
4 *30:10 *204:18 4.73164e-07
*RES
1 *1000:Y *30:10 40.4531 
2 *30:10 *991:A 34.4 
*END

*D_NET *31 2.90767e-05
*CONN
*I *990:A I *D HAxp5_ASAP7_75t_R
*I *999:Y O *D BUFx2_ASAP7_75t_R
*CAP
1 *990:A 0
2 *999:Y 7.30702e-06
3 *31:8 7.30702e-06
4 *31:8 *63:8 2.25787e-06
5 *31:8 *202:8 1.22048e-05
*RES
1 *999:Y *31:8 42.2843 
2 *31:8 *990:A 34.4 
*END

*D_NET *32 0.000201536
*CONN
*I *989:A I *D HAxp5_ASAP7_75t_R
*I *1269:A I *D BUFx3_ASAP7_75t_R
*I *998:Y O *D BUFx2_ASAP7_75t_R
*CAP
1 *989:A 5.56175e-06
2 *1269:A 5.5637e-06
3 *998:Y 9.83168e-06
4 *32:23 2.13835e-05
5 *32:12 3.81131e-05
6 *32:8 2.65593e-05
7 *989:A *989:B 9.08513e-06
8 *1269:A *64:8 6.7842e-07
9 *32:8 *34:12 0
10 *32:8 *129:10 1.37455e-06
11 *32:23 *960:CI 1.78077e-05
12 *32:23 *989:B 3.16603e-06
13 *32:23 *34:12 5.90857e-05
14 *32:23 *632:8 0
15 *32:23 *638:8 3.32579e-06
*RES
1 *998:Y *32:8 41.158 
2 *32:8 *32:12 27.3617 
3 *32:12 *1269:A 19.8741 
4 *32:12 *32:23 39.7266 
5 *32:23 *989:A 37.0741 
*END

*D_NET *33 6.20969e-05
*CONN
*I *988:A I *D HAxp5_ASAP7_75t_R
*I *850:Y O *D BUFx2_ASAP7_75t_R
*CAP
1 *988:A 0
2 *850:Y 0
3 *33:12 2.96888e-05
4 *33:6 2.96888e-05
5 *33:12 *97:17 0
6 *33:12 *98:8 1.09067e-06
7 *33:12 *199:10 0
8 *33:12 *497:10 0
9 *1:8 *33:12 1.62854e-06
*RES
1 *850:Y *33:6 34.4 
2 *33:6 *33:12 37.3323 
3 *33:12 *988:A 17.2 
*END

*D_NET *34 0.000215629
*CONN
*I *987:A I *D HAxp5_ASAP7_75t_R
*I *832:Y O *D BUFx6f_ASAP7_75t_R
*CAP
1 *987:A 0
2 *832:Y 0
3 *34:20 1.22234e-05
4 *34:12 4.54201e-05
5 *34:6 3.31967e-05
6 *34:12 *989:B 1.50458e-05
7 *34:12 *64:10 3.86713e-05
8 *34:12 *495:17 5.22486e-06
9 *34:20 *960:CI 0
10 *34:20 *989:B 1.07573e-06
11 *34:20 *196:10 0
12 *2:8 *34:20 5.68573e-06
13 *32:8 *34:12 0
14 *32:23 *34:12 5.90857e-05
*RES
1 *832:Y *34:6 34.4 
2 *34:6 *34:12 48.9887 
3 *34:12 *34:20 43.8888 
4 *34:20 *987:A 17.2 
*END

*D_NET *35 9.2704e-05
*CONN
*I *986:B I *D HAxp5_ASAP7_75t_R
*I *784:Y O *D BUFx2_ASAP7_75t_R
*CAP
1 *986:B 6.67699e-06
2 *784:Y 3.9675e-05
3 *35:8 4.6352e-05
4 *986:B *209:12 0
*RES
1 *784:Y *35:8 49.9099 
2 *35:8 *986:B 38.9053 
*END

*D_NET *36 0.000183418
*CONN
*I *1268:A I *D BUFx3_ASAP7_75t_R
*I *985:A I *D HAxp5_ASAP7_75t_R
*I *731:Y O *D BUFx3_ASAP7_75t_R
*CAP
1 *1268:A 0
2 *985:A 2.36913e-05
3 *731:Y 0
4 *36:12 5.08713e-05
5 *36:6 2.71799e-05
6 *985:A *193:6 1.70643e-05
7 *36:12 *94:15 1.18518e-05
8 *36:12 *102:10 0
9 *36:12 *139:18 1.43633e-05
10 *36:12 *141:8 9.5466e-06
11 *36:12 *503:8 6.95676e-06
12 *36:12 *586:12 2.18926e-05
*RES
1 *731:Y *36:6 34.4 
2 *36:6 *36:12 49.2154 
3 *36:12 *985:A 29.501 
4 *36:12 *1268:A 17.2 
*END

*D_NET *37 4.69589e-05
*CONN
*I *984:A I *D HAxp5_ASAP7_75t_R
*I *707:Y O *D BUFx6f_ASAP7_75t_R
*CAP
1 *984:A 0
2 *707:Y 1.2911e-05
3 *37:8 1.2911e-05
4 *37:8 *93:17 2.01389e-05
5 *5:10 *37:8 9.97906e-07
*RES
1 *707:Y *37:8 46.2265 
2 *37:8 *984:A 34.4 
*END

*D_NET *38 3.5731e-05
*CONN
*I *983:B I *D HAxp5_ASAP7_75t_R
*I *693:Y O *D BUFx2_ASAP7_75t_R
*CAP
1 *983:B 0
2 *693:Y 1.62706e-05
3 *38:10 1.62706e-05
4 *38:10 *231:13 3.18977e-06
*RES
1 *693:Y *38:10 43.7754 
2 *38:10 *983:B 34.4 
*END

*D_NET *39 1.16931e-05
*CONN
*I *982:A I *D HAxp5_ASAP7_75t_R
*I *678:Y O *D BUFx6f_ASAP7_75t_R
*CAP
1 *982:A 0
2 *678:Y 5.22216e-06
3 *39:8 5.22216e-06
4 *39:8 *189:10 4.84697e-07
5 *39:8 *660:14 7.64042e-07
*RES
1 *678:Y *39:8 37.779 
2 *39:8 *982:A 34.4 
*END

*D_NET *40 0.000223326
*CONN
*I *1266:A I *D BUFx3_ASAP7_75t_R
*I *981:B I *D HAxp5_ASAP7_75t_R
*I *677:Y O *D BUFx2_ASAP7_75t_R
*CAP
1 *1266:A 0
2 *981:B 1.30457e-05
3 *677:Y 0
4 *40:35 1.43186e-05
5 *40:27 3.12512e-05
6 *40:8 4.7553e-05
7 *40:6 1.75746e-05
8 *40:8 *143:6 1.84217e-05
9 *40:8 *504:8 3.50295e-05
10 *40:27 *143:6 2.25882e-05
11 *40:27 *502:8 0
12 *40:27 *631:8 0
13 *40:35 *142:8 0
14 *40:35 *631:8 2.47188e-06
15 *40:35 *635:8 0
16 *1262:A *981:B 7.86466e-06
17 *1262:A *40:27 1.32074e-05
*RES
1 *677:Y *40:6 34.4 
2 *40:6 *40:8 21.4003 
3 *40:8 *981:B 43.492 
4 *40:8 *40:27 49.6887 
5 *40:27 *40:35 43.8204 
6 *40:35 *1266:A 34.4 
*END

*D_NET *41 1.12199e-05
*CONN
*I *980:A I *D HAxp5_ASAP7_75t_R
*I *673:Y O *D BUFx2_ASAP7_75t_R
*CAP
1 *980:A 5.60995e-06
2 *673:Y 5.60995e-06
3 *980:A *230:21 0
*RES
1 *673:Y *980:A 37.0741 
*END

*D_NET *42 7.94255e-05
*CONN
*I *979:B I *D HAxp5_ASAP7_75t_R
*I *1104:Y O *D BUFx2_ASAP7_75t_R
*CAP
1 *979:B 9.48648e-06
2 *1104:Y 2.33524e-05
3 *42:10 3.28389e-05
4 *979:B *341:14 1.19785e-05
5 *42:10 *1104:A 1.76928e-06
*RES
1 *1104:Y *42:10 49.3504 
2 *42:10 *979:B 41.3527 
*END

*D_NET *43 5.89773e-05
*CONN
*I *997:B I *D HAxp5_ASAP7_75t_R
*I *1105:Y O *D BUFx2_ASAP7_75t_R
*CAP
1 *997:B 0
2 *1105:Y 2.00499e-05
3 *43:10 2.00499e-05
4 *43:10 *87:15 5.94347e-06
5 *43:10 *217:14 1.2934e-05
*RES
1 *1105:Y *43:10 48.9573 
2 *43:10 *997:B 34.4 
*END

*D_NET *44 5.24499e-05
*CONN
*I *978:B I *D HAxp5_ASAP7_75t_R
*I *1106:Y O *D BUFx2_ASAP7_75t_R
*CAP
1 *978:B 0
2 *1106:Y 0
3 *44:10 1.7163e-05
4 *44:6 1.7163e-05
5 *44:10 *86:15 1.36506e-05
6 *44:10 *178:12 7.64042e-07
7 *12:8 *44:10 3.70913e-06
*RES
1 *1106:Y *44:6 34.4 
2 *44:6 *44:10 33.5318 
3 *44:10 *978:B 17.2 
*END

*D_NET *45 0.00012223
*CONN
*I *1265:A I *D BUFx3_ASAP7_75t_R
*I *977:B I *D HAxp5_ASAP7_75t_R
*I *1107:Y O *D BUFx2_ASAP7_75t_R
*CAP
1 *1265:A 0
2 *977:B 0
3 *1107:Y 0
4 *45:25 1.72534e-05
5 *45:10 4.18244e-05
6 *45:4 5.90778e-05
7 *45:10 *85:15 0
8 *45:10 *109:10 0
9 *45:25 *85:15 4.07394e-06
*RES
1 *1107:Y *45:4 17.2 
2 *45:4 *45:10 40.3145 
3 *45:10 *977:B 34.4 
4 *45:4 *45:25 44.2819 
5 *45:25 *1265:A 17.2 
*END

*D_NET *46 0.000142859
*CONN
*I *976:B I *D HAxp5_ASAP7_75t_R
*I *1108:Y O *D BUFx2_ASAP7_75t_R
*CAP
1 *976:B 0
2 *1108:Y 2.44635e-05
3 *46:14 2.10645e-05
4 *46:8 4.5528e-05
5 *46:8 *1016:A 1.87514e-05
6 *46:14 *1016:A 3.68287e-06
7 *46:14 *174:8 0
8 *46:14 *175:8 2.6401e-05
9 *46:14 *175:14 0
10 *976:A *46:14 2.96818e-06
*RES
1 *1108:Y *46:8 47.7706 
2 *46:8 *46:14 33.4431 
3 *46:14 *976:B 17.2 
*END

*D_NET *47 6.35754e-05
*CONN
*I *975:B I *D HAxp5_ASAP7_75t_R
*I *1109:Y O *D BUFx2_ASAP7_75t_R
*CAP
1 *975:B 2.02325e-05
2 *1109:Y 3.32146e-06
3 *47:8 2.3554e-05
4 *975:B *1109:A 5.25794e-06
5 *975:B *172:10 2.28976e-06
6 *47:8 *173:8 0
7 *47:8 *478:17 2.05045e-06
8 *975:A *975:B 6.86929e-06
*RES
1 *1109:Y *47:8 37.2158 
2 *47:8 *975:B 49.9099 
*END

*D_NET *48 7.79859e-05
*CONN
*I *974:B I *D HAxp5_ASAP7_75t_R
*I *1110:Y O *D BUFx2_ASAP7_75t_R
*CAP
1 *974:B 1.25963e-05
2 *1110:Y 2.05211e-05
3 *48:8 3.31174e-05
4 *974:B *170:8 7.84037e-07
5 *48:8 *479:13 9.9223e-06
6 *974:A *48:8 1.04475e-06
*RES
1 *1110:Y *48:8 48.8403 
2 *48:8 *974:B 43.1556 
*END

*D_NET *49 0.000127715
*CONN
*I *973:B I *D HAxp5_ASAP7_75t_R
*I *964:B I *D FAx1_ASAP7_75t_R
*I *1111:Y O *D BUFx2_ASAP7_75t_R
*CAP
1 *973:B 0
2 *964:B 1.55271e-05
3 *1111:Y 0
4 *49:30 9.89479e-06
5 *49:22 3.21221e-05
6 *49:6 3.77544e-05
7 *964:B *867:A 2.87307e-06
8 *964:B *603:62 0
9 *49:22 *169:10 1.62312e-05
10 *49:22 *480:13 8.31096e-06
11 *49:22 *603:62 0
12 *49:30 *964:CI 2.52755e-07
13 *49:30 *168:6 2.28976e-06
14 *49:30 *168:27 0
15 *49:30 *169:10 1.30746e-06
16 *17:6 *49:22 1.07377e-06
17 *17:10 *49:30 7.79286e-08
*RES
1 *1111:Y *49:6 34.4 
2 *49:6 *964:B 27.4344 
3 *49:6 *49:22 34.4561 
4 *49:22 *49:30 40.9596 
5 *49:30 *973:B 17.2 
*END

*D_NET *50 9.6771e-05
*CONN
*I *972:B I *D HAxp5_ASAP7_75t_R
*I *1112:Y O *D BUFx2_ASAP7_75t_R
*CAP
1 *972:B 3.17775e-06
2 *1112:Y 2.75475e-05
3 *50:8 3.07253e-05
4 *972:B *943:B 4.10928e-06
5 *972:B *166:16 2.20128e-06
6 *972:B *464:12 1.34257e-05
7 *50:8 *461:10 0
8 *50:8 *481:13 1.55843e-05
*RES
1 *1112:Y *50:8 47.7706 
2 *50:8 *972:B 38.9053 
*END

*D_NET *51 0.000148852
*CONN
*I *971:B I *D HAxp5_ASAP7_75t_R
*I *1113:Y O *D BUFx2_ASAP7_75t_R
*CAP
1 *971:B 9.33549e-06
2 *1113:Y 3.12516e-05
3 *51:10 4.05871e-05
4 *971:B *164:6 2.75254e-05
5 *19:12 *51:10 4.0152e-05
*RES
1 *1113:Y *51:10 49.6302 
2 *51:10 *971:B 41.3527 
*END

*D_NET *52 7.83285e-05
*CONN
*I *970:B I *D HAxp5_ASAP7_75t_R
*I *1114:Y O *D BUFx2_ASAP7_75t_R
*CAP
1 *970:B 1.86609e-05
2 *1114:Y 1.98458e-05
3 *52:8 3.85068e-05
4 *970:B *78:21 0
5 *970:B *198:10 0
6 *52:8 *1114:A 1.3149e-06
7 *20:8 *970:B 0
*RES
1 *1114:Y *52:8 43.492 
2 *52:8 *970:B 47.3528 
*END

*D_NET *53 0.00013864
*CONN
*I *969:B I *D HAxp5_ASAP7_75t_R
*I *965:B I *D FAx1_ASAP7_75t_R
*I *1115:Y O *D BUFx2_ASAP7_75t_R
*CAP
1 *969:B 0
2 *965:B 5.46878e-06
3 *1115:Y 1.49397e-05
4 *53:24 2.69244e-05
5 *53:10 4.73328e-05
6 *53:10 *153:12 0
7 *53:10 *484:13 1.76928e-06
8 *53:24 *160:8 8.87763e-06
9 *53:24 *161:6 3.15957e-05
10 *53:24 *161:12 1.73158e-06
*RES
1 *1115:Y *53:10 42.0293 
2 *53:10 *965:B 20.6764 
3 *53:10 *53:24 39.6946 
4 *53:24 *969:B 17.2 
*END

*D_NET *54 0.000156502
*CONN
*I *996:A I *D HAxp5_ASAP7_75t_R
*I *1264:A I *D BUFx3_ASAP7_75t_R
*I *1116:Y O *D BUFx6f_ASAP7_75t_R
*CAP
1 *996:A 0
2 *1264:A 0
3 *1116:Y 0
4 *54:21 1.76925e-05
5 *54:12 3.40764e-05
6 *54:6 5.17689e-05
7 *54:12 *958:B 2.20519e-06
8 *54:12 *131:10 2.02432e-06
9 *54:12 *213:14 3.81627e-06
10 *54:12 *650:10 1.60475e-05
11 *54:21 *213:10 0
12 *996:B *54:21 1.34329e-05
13 *1270:A *54:21 1.54378e-05
*RES
1 *1116:Y *54:6 34.4 
2 *54:6 *54:12 46.9061 
3 *54:12 *1264:A 17.2 
4 *54:6 *54:21 33.5318 
5 *54:21 *996:A 17.2 
*END

*D_NET *55 4.01132e-05
*CONN
*I *968:B I *D HAxp5_ASAP7_75t_R
*I *1117:Y O *D BUFx2_ASAP7_75t_R
*CAP
1 *968:B 8.55972e-06
2 *1117:Y 8.06722e-06
3 *55:8 1.66269e-05
4 *968:B *158:10 1.51653e-06
5 *968:A *968:B 5.34278e-06
6 *23:8 *55:8 0
*RES
1 *1117:Y *55:8 38.9053 
2 *55:8 *968:B 41.3527 
*END

*D_NET *56 2.25924e-05
*CONN
*I *967:B I *D HAxp5_ASAP7_75t_R
*I *1118:Y O *D BUFx2_ASAP7_75t_R
*CAP
1 *967:B 0
2 *1118:Y 1.00803e-05
3 *56:10 1.00803e-05
4 *56:10 *888:A 7.84037e-07
5 *24:10 *56:10 1.64764e-06
*RES
1 *1118:Y *56:10 40.5098 
2 *56:10 *967:B 34.4 
*END

*D_NET *57 0.000118511
*CONN
*I *966:B I *D HAxp5_ASAP7_75t_R
*I *1119:Y O *D BUFx2_ASAP7_75t_R
*CAP
1 *966:B 1.20973e-05
2 *1119:Y 1.42079e-05
3 *57:18 2.44652e-05
4 *57:10 2.65758e-05
5 *966:B *483:17 3.85895e-06
6 *57:10 *97:17 0
7 *57:10 *99:22 9.37746e-06
8 *57:18 *97:17 0
9 *57:18 *99:22 2.13481e-05
10 *57:18 *483:17 2.47759e-06
11 *57:18 *498:8 4.10256e-06
*RES
1 *1119:Y *57:10 43.1556 
2 *57:10 *57:18 46.0281 
3 *57:18 *966:B 40.2831 
*END

*D_NET *58 3.53619e-05
*CONN
*I *995:B I *D HAxp5_ASAP7_75t_R
*I *1120:Y O *D BUFx2_ASAP7_75t_R
*CAP
1 *995:B 7.24911e-06
2 *1120:Y 6.29745e-06
3 *58:8 1.35466e-05
4 *995:B *212:10 2.28976e-06
5 *58:8 *213:10 4.41094e-06
6 *58:8 *213:25 1.56807e-06
*RES
1 *1120:Y *58:8 40.0317 
2 *58:8 *995:B 39.2134 
*END

*D_NET *59 4.75992e-05
*CONN
*I *994:A I *D HAxp5_ASAP7_75t_R
*I *1121:Y O *D BUFx2_ASAP7_75t_R
*CAP
1 *994:A 4.84249e-06
2 *1121:Y 1.88139e-05
3 *59:10 2.36564e-05
4 *994:B *994:A 2.86376e-07
*RES
1 *1121:Y *59:10 45.0151 
2 *59:10 *994:A 36.0045 
*END

*D_NET *60 9.17023e-05
*CONN
*I *1250:A I *D BUFx3_ASAP7_75t_R
*I *993:B I *D HAxp5_ASAP7_75t_R
*I *1122:Y O *D BUFx2_ASAP7_75t_R
*CAP
1 *1250:A 0
2 *993:B 1.08106e-05
3 *1122:Y 3.61503e-06
4 *60:16 2.77946e-05
5 *60:8 2.0599e-05
6 *993:B *125:8 5.37569e-06
7 *993:B *208:8 0
8 *60:16 *862:A 3.49596e-06
9 *60:16 *208:8 0
10 *28:28 *60:8 1.65979e-06
11 *28:28 *60:16 1.83517e-05
12 *28:36 *993:B 0
*RES
1 *1122:Y *60:8 37.2158 
2 *60:8 *60:16 45.2382 
3 *60:16 *993:B 41.6361 
4 *60:16 *1250:A 34.4 
*END

*D_NET *61 1.24181e-05
*CONN
*I *992:A I *D HAxp5_ASAP7_75t_R
*I *1123:Y O *D BUFx2_ASAP7_75t_R
*CAP
1 *992:A 6.20907e-06
2 *1123:Y 6.20907e-06
*RES
1 *1123:Y *992:A 37.0741 
*END

*D_NET *62 1.82656e-05
*CONN
*I *991:B I *D HAxp5_ASAP7_75t_R
*I *1124:Y O *D BUFx2_ASAP7_75t_R
*CAP
1 *991:B 9.13282e-06
2 *1124:Y 9.13282e-06
*RES
1 *1124:Y *991:B 39.2134 
*END

*D_NET *63 5.46404e-05
*CONN
*I *990:B I *D HAxp5_ASAP7_75t_R
*I *1125:Y O *D BUFx2_ASAP7_75t_R
*CAP
1 *990:B 6.58198e-06
2 *1125:Y 1.6386e-05
3 *63:8 2.2968e-05
4 *63:8 *67:15 5.81334e-06
5 *63:8 *128:8 0
6 *63:8 *202:8 6.33206e-07
7 *63:8 *527:12 0
8 *31:8 *63:8 2.25787e-06
*RES
1 *1125:Y *63:8 47.3528 
2 *63:8 *990:B 38.1438 
*END

*D_NET *64 0.000155816
*CONN
*I *1263:A I *D BUFx3_ASAP7_75t_R
*I *989:B I *D HAxp5_ASAP7_75t_R
*I *1126:Y O *D BUFx2_ASAP7_75t_R
*CAP
1 *1263:A 8.77714e-06
2 *989:B 1.37776e-05
3 *1126:Y 5.55626e-06
4 *64:10 3.50179e-05
5 *64:8 1.80194e-05
6 *989:B *196:8 5.41446e-06
7 *989:B *197:8 7.72307e-07
8 *64:8 *495:17 7.58265e-07
9 *989:A *989:B 9.08513e-06
10 *1269:A *64:8 6.7842e-07
11 *32:23 *989:B 3.16603e-06
12 *34:12 *989:B 1.50458e-05
13 *34:12 *64:10 3.86713e-05
14 *34:20 *989:B 1.07573e-06
*RES
1 *1126:Y *64:8 37.0741 
2 *64:8 *64:10 12.9528 
3 *64:10 *989:B 47.1544 
4 *64:10 *1263:A 38.1438 
*END

*D_NET *65 6.94153e-05
*CONN
*I *1127:A I *D BUFx2_ASAP7_75t_R
*I *890:Y O *D XNOR2x1_ASAP7_75t_R
*CAP
1 *1127:A 1.9387e-05
2 *890:Y 1.05106e-05
3 *65:8 2.98975e-05
4 *65:8 *122:12 8.8135e-06
5 *65:8 *426:8 8.06799e-07
*RES
1 *890:Y *65:8 44.537 
2 *65:8 *1127:A 45.6313 
*END

*D_NET *66 0.000117774
*CONN
*P A[9] I
*I *998:A I *D BUFx2_ASAP7_75t_R
*CAP
1 A[9] 1.93818e-05
2 *998:A 1.63702e-05
3 *66:11 3.5752e-05
4 *998:A *495:17 0
5 *66:11 S[10] 1.53468e-05
6 *66:11 S[9] 0
7 *66:11 *495:11 3.09231e-05
*RES
1 A[9] *66:11 44.0443 
2 *66:11 *998:A 48.9485 
*END

*D_NET *67 0.00012907
*CONN
*P A[8] I
*I *999:A I *D BUFx2_ASAP7_75t_R
*CAP
1 A[8] 4.61527e-05
2 *999:A 0
3 *67:15 1.59466e-06
4 *67:9 4.77474e-05
5 *67:9 S[8] 1.42423e-06
6 *67:9 *494:11 2.60686e-05
7 *67:15 *527:12 2.68933e-07
8 *63:8 *67:15 5.81334e-06
*RES
1 A[8] *67:9 37.9846 
2 *67:9 *67:15 36.3711 
3 *67:15 *999:A 17.2 
*END

*D_NET *68 0.000116171
*CONN
*P A[7] I
*I *1000:A I *D BUFx2_ASAP7_75t_R
*CAP
1 A[7] 4.57819e-05
2 *1000:A 0
3 *68:9 4.57819e-05
4 *68:9 *493:9 2.46074e-05
*RES
1 A[7] *68:9 39.6212 
2 *68:9 *1000:A 34.4 
*END

*D_NET *69 0.000124586
*CONN
*P A[6] I
*I *1001:A I *D BUFx2_ASAP7_75t_R
*CAP
1 A[6] 1.53322e-05
2 *1001:A 3.46573e-05
3 *69:11 4.99895e-05
4 *69:11 *492:9 2.46074e-05
*RES
1 A[6] *69:11 45.0319 
2 *69:11 *1001:A 41.2671 
*END

*D_NET *70 0.000120857
*CONN
*P A[5] I
*I *1002:A I *D BUFx2_ASAP7_75t_R
*CAP
1 A[5] 3.41187e-05
2 *1002:A 5.51798e-06
3 *70:9 3.96366e-05
4 *70:9 S[12] 1.69761e-05
5 *70:9 *491:11 2.46074e-05
*RES
1 A[5] *70:9 40.372 
2 *70:9 *1002:A 37.0741 
*END

*D_NET *71 0.000114921
*CONN
*P A[4] I
*I *1003:A I *D BUFx2_ASAP7_75t_R
*CAP
1 A[4] 2.1959e-05
2 *1003:A 0
3 *71:13 2.21452e-05
4 *71:9 4.41042e-05
5 *71:9 *490:9 2.6712e-05
*RES
1 A[4] *71:9 33.9252 
2 *71:9 *71:13 34.8492 
3 *71:13 *1003:A 17.2 
*END

*D_NET *72 0.000125732
*CONN
*P A[3] I
*I *1004:A I *D BUFx2_ASAP7_75t_R
*CAP
1 A[3] 2.46351e-05
2 *1004:A 0
3 *72:13 2.43568e-05
4 *72:9 4.89918e-05
5 *72:9 *489:11 2.77482e-05
6 *72:13 *1120:A 0
*RES
1 A[3] *72:9 34.9499 
2 *72:9 *72:13 35.9189 
3 *72:13 *1004:A 17.2 
*END

*D_NET *73 9.96749e-05
*CONN
*P A[32] I
*I *1005:A I *D BUFx2_ASAP7_75t_R
*CAP
1 A[32] 1.92362e-05
2 *1005:A 1.75669e-05
3 *73:11 3.68032e-05
4 *1005:A *483:17 0
5 *73:11 C32 0
6 *73:11 *78:11 0
7 *73:11 *488:9 2.60686e-05
*RES
1 A[32] *73:11 41.3389 
2 *73:11 *1005:A 48.9485 
*END

*D_NET *74 9.80165e-05
*CONN
*P A[31] I
*I *1006:A I *D BUFx2_ASAP7_75t_R
*CAP
1 A[31] 1.63836e-05
2 *1006:A 0
3 *74:15 1.80613e-05
4 *74:11 3.44449e-05
5 *74:11 *487:9 2.91268e-05
6 *74:15 *521:8 0
*RES
1 A[31] *74:11 40.5354 
2 *74:11 *74:15 33.2502 
3 *74:15 *1006:A 17.2 
*END

*D_NET *75 0.000112575
*CONN
*P A[30] I
*I *1007:A I *D BUFx2_ASAP7_75t_R
*CAP
1 A[30] 2.44559e-05
2 *1007:A 1.63702e-05
3 *75:11 4.08261e-05
4 *1007:A *1117:A 0
5 *75:11 *486:11 3.09231e-05
*RES
1 A[30] *75:11 44.4772 
2 *75:11 *1007:A 48.9485 
*END

*D_NET *76 0.000131395
*CONN
*P A[2] I
*I *1008:A I *D BUFx6f_ASAP7_75t_R
*CAP
1 A[2] 3.31119e-05
2 *1008:A 5.31689e-06
3 *76:9 3.84288e-05
4 *76:9 *485:9 5.45373e-05
*RES
1 A[2] *76:9 40.372 
2 *76:9 *1008:A 36.5393 
*END

*D_NET *77 0.000159501
*CONN
*P A[29] I
*I *1009:A I *D BUFx2_ASAP7_75t_R
*CAP
1 A[29] 2.24871e-05
2 *1009:A 0
3 *77:13 3.49335e-05
4 *77:9 5.74206e-05
5 *77:9 S[30] 0
6 *77:9 *484:9 3.9958e-05
7 *77:13 *484:13 0
8 *77:13 *519:6 0
9 *21:8 *77:13 4.70139e-06
*RES
1 A[29] *77:9 34.9279 
2 *77:9 *77:13 43.4064 
3 *77:13 *1009:A 17.2 
*END

*D_NET *78 0.000342453
*CONN
*P A[28] I
*I *1010:A I *D BUFx2_ASAP7_75t_R
*CAP
1 A[28] 2.23882e-05
2 *1010:A 0
3 *78:21 1.47578e-05
4 *78:13 0.000122584
5 *78:11 0.000130215
6 *78:11 S[11] 2.96343e-05
7 *78:11 *97:9 0
8 *78:11 *483:11 5.44054e-06
9 *78:11 *488:9 1.47513e-05
10 *78:13 *97:9 0
11 *78:21 *198:10 1.70708e-06
12 *78:21 *198:18 9.74162e-07
13 *970:B *78:21 0
14 *73:11 *78:11 0
*RES
1 A[28] *78:11 39.3937 
2 *78:11 *78:13 38.7465 
3 *78:13 *78:21 35.471 
4 *78:21 *1010:A 34.4 
*END

*D_NET *79 0.000194093
*CONN
*P A[27] I
*I *1011:A I *D BUFx2_ASAP7_75t_R
*CAP
1 A[27] 1.53896e-05
2 *1011:A 0
3 *79:19 9.10133e-06
4 *79:13 3.09123e-05
5 *79:9 3.72005e-05
6 *79:9 S[27] 0
7 *79:9 *80:9 2.89338e-05
8 *79:9 *481:9 3.84706e-05
9 *79:13 *481:13 0
10 *79:13 *515:6 3.25743e-05
11 *19:8 *79:19 1.51111e-06
*RES
1 A[27] *79:9 33.4261 
2 *79:9 *79:13 38.0582 
3 *79:13 *79:19 41.158 
4 *79:19 *1011:A 17.2 
*END

*D_NET *80 0.000171035
*CONN
*P A[26] I
*I *1012:A I *D BUFx2_ASAP7_75t_R
*CAP
1 A[26] 2.63848e-05
2 *1012:A 0
3 *80:13 3.61364e-05
4 *80:9 6.25211e-05
5 *80:9 *481:9 1.02678e-05
6 *80:13 *481:13 0
7 *972:A *80:13 6.79089e-06
8 *79:9 *80:9 2.89338e-05
*RES
1 A[26] *80:9 36.6174 
2 *80:9 *80:13 43.4064 
3 *80:13 *1012:A 17.2 
*END

*D_NET *81 0.000190816
*CONN
*P A[25] I
*I *1013:A I *D BUFx2_ASAP7_75t_R
*CAP
1 A[25] 1.56639e-05
2 *1013:A 0
3 *81:13 2.81992e-05
4 *81:9 4.38631e-05
5 *81:9 S[25] 2.76812e-05
6 *81:9 *480:9 3.80942e-05
7 *81:13 *480:13 3.73146e-05
*RES
1 A[25] *81:9 33.9031 
2 *81:9 *81:13 44.4761 
3 *81:13 *1013:A 17.2 
*END

*D_NET *82 0.000193189
*CONN
*P A[24] I
*I *1014:A I *D BUFx2_ASAP7_75t_R
*CAP
1 A[24] 1.60206e-05
2 *1014:A 2.36628e-05
3 *82:11 3.96834e-05
4 *1014:A *171:12 8.87763e-06
5 *1014:A *479:13 0
6 *1014:A *512:6 3.50249e-05
7 *82:11 *83:11 2.89487e-05
8 *82:11 *479:9 2.71131e-05
9 *82:11 *512:12 1.30997e-06
10 *16:10 *1014:A 1.25483e-05
*RES
1 A[24] *82:11 47.8103 
2 *82:11 *1014:A 44.4761 
*END

*D_NET *83 0.000130216
*CONN
*P A[23] I
*I *1015:A I *D BUFx2_ASAP7_75t_R
*CAP
1 A[23] 2.07442e-05
2 *1015:A 2.76423e-05
3 *83:11 4.83865e-05
4 *1015:A *512:6 0
5 *83:11 *478:11 2.72524e-06
6 *15:8 *1015:A 1.76928e-06
7 *82:11 *83:11 2.89487e-05
*RES
1 A[23] *83:11 49.312 
2 *83:11 *1015:A 38.0582 
*END

*D_NET *84 0.000176407
*CONN
*P A[22] I
*I *1016:A I *D BUFx2_ASAP7_75t_R
*CAP
1 A[22] 1.87695e-05
2 *1016:A 2.84336e-05
3 *84:11 4.72031e-05
4 *1016:A *1108:A 2.97669e-05
5 *84:11 *477:11 2.76812e-05
6 *976:A *1016:A 2.11853e-06
7 *46:8 *1016:A 1.87514e-05
8 *46:14 *1016:A 3.68287e-06
*RES
1 A[22] *84:11 47.1609 
2 *84:11 *1016:A 49.2895 
*END

*D_NET *85 0.000179674
*CONN
*P A[21] I
*I *1017:A I *D BUFx2_ASAP7_75t_R
*CAP
1 A[21] 1.61067e-05
2 *1017:A 2.21512e-05
3 *85:15 5.67521e-05
4 *85:11 5.07076e-05
5 *85:11 S[20] 0
6 *85:11 *476:9 2.67819e-05
7 *1271:A *1017:A 3.10081e-06
8 *45:10 *85:15 0
9 *45:25 *85:15 4.07394e-06
*RES
1 A[21] *85:11 40.1003 
2 *85:11 *85:15 45.6399 
3 *85:15 *1017:A 29.501 
*END

*D_NET *86 0.000156385
*CONN
*P A[20] I
*I *1018:A I *D BUFx2_ASAP7_75t_R
*CAP
1 A[20] 3.41933e-05
2 *1018:A 0
3 *86:15 7.90238e-06
4 *86:9 4.20957e-05
5 *86:9 S[19] 0
6 *86:9 *88:9 1.71377e-05
7 *86:9 *475:11 2.67819e-05
8 *86:15 *88:15 0
9 *86:15 *107:10 1.46234e-05
10 *44:10 *86:15 1.36506e-05
*RES
1 A[20] *86:9 34.8604 
2 *86:9 *86:15 43.3168 
3 *86:15 *1018:A 17.2 
*END

*D_NET *87 0.000194491
*CONN
*P A[1] I
*I *1019:A I *D BUFx2_ASAP7_75t_R
*CAP
1 A[1] 3.79043e-05
2 *1019:A 0
3 *87:15 6.82577e-06
4 *87:9 4.47301e-05
5 *87:9 S[1] 0
6 *87:9 S[2] 3.0992e-05
7 *87:9 *93:9 1.57716e-05
8 *87:9 *259:11 2.92092e-05
9 *87:9 *474:9 2.31142e-05
10 *87:15 *119:10 0
11 *43:10 *87:15 5.94347e-06
*RES
1 A[1] *87:9 42.8523 
2 *87:9 *87:15 40.3132 
3 *87:15 *1019:A 17.2 
*END

*D_NET *88 0.000151962
*CONN
*P A[19] I
*I *1020:A I *D BUFx2_ASAP7_75t_R
*CAP
1 A[19] 3.21133e-05
2 *1020:A 0
3 *88:15 1.08983e-05
4 *88:9 4.30116e-05
5 *88:9 *473:11 1.95002e-05
6 *88:9 *475:11 2.71041e-05
7 *88:15 *107:10 0
8 *88:15 *473:15 0
9 *88:15 *529:12 0
10 *88:15 *595:10 2.19685e-06
11 *86:9 *88:9 1.71377e-05
12 *86:15 *88:15 0
*RES
1 A[19] *88:9 36.0508 
2 *88:9 *88:15 43.3168 
3 *88:15 *1020:A 17.2 
*END

*D_NET *89 0.000139287
*CONN
*P A[18] I
*I *1021:A I *D BUFx2_ASAP7_75t_R
*CAP
1 A[18] 2.57183e-05
2 *1021:A 0
3 *89:15 8.99648e-07
4 *89:9 2.66179e-05
5 *89:9 S[17] 2.71041e-05
6 *89:9 S[18] 0
7 *89:9 *90:9 0
8 *89:9 *227:9 5.84496e-05
9 *89:15 *504:8 4.97876e-07
*RES
1 A[18] *89:9 34.7522 
2 *89:9 *89:15 35.057 
3 *89:15 *1021:A 17.2 
*END

*D_NET *90 0.000142261
*CONN
*P A[17] I
*I *1022:A I *D BUFx2_ASAP7_75t_R
*CAP
1 A[17] 4.19995e-05
2 *1022:A 0
3 *90:15 1.18888e-05
4 *90:9 5.38883e-05
5 *90:9 S[18] 2.92092e-05
6 *90:15 *106:12 1.49407e-08
7 *90:15 *182:10 5.26051e-06
8 *90:15 *230:13 0
9 *89:9 *90:9 0
*RES
1 A[17] *90:9 35.9426 
2 *90:9 *90:15 43.3168 
3 *90:15 *1022:A 17.2 
*END

*D_NET *91 0.000103601
*CONN
*P A[16] I
*I *1023:A I *D BUFx6f_ASAP7_75t_R
*CAP
1 A[16] 1.59007e-05
2 *1023:A 0
3 *91:15 2.23477e-05
4 *91:11 3.82484e-05
5 *91:11 *231:9 2.71041e-05
*RES
1 A[16] *91:11 39.9921 
2 *91:11 *91:15 36.0661 
3 *91:15 *1023:A 17.2 
*END

*D_NET *92 0.000160478
*CONN
*P A[15] I
*I *1024:A I *D BUFx2_ASAP7_75t_R
*CAP
1 A[15] 3.32303e-05
2 *1024:A 0
3 *92:15 2.61654e-06
4 *92:9 3.58469e-05
5 *92:9 *231:9 6.06965e-05
6 *92:9 *246:11 2.67819e-05
7 *92:15 *231:13 6.72332e-07
8 *92:15 *246:17 6.33206e-07
*RES
1 A[15] *92:9 37.8283 
2 *92:9 *92:15 36.5588 
3 *92:15 *1024:A 17.2 
*END

*D_NET *93 0.000182768
*CONN
*P A[14] I
*I *1025:A I *D BUFx6f_ASAP7_75t_R
*CAP
1 A[14] 2.29407e-05
2 *1025:A 0
3 *93:17 1.29372e-05
4 *93:9 3.58779e-05
5 *93:9 S[1] 3.2717e-05
6 *93:9 *259:11 2.92092e-05
7 *93:9 *507:14 4.98627e-06
8 *93:17 *507:8 8.18955e-06
9 *37:8 *93:17 2.01389e-05
10 *87:9 *93:9 1.57716e-05
*RES
1 A[14] *93:9 34.7522 
2 *93:9 *93:17 46.6391 
3 *93:17 *1025:A 17.2 
*END

*D_NET *94 0.000219287
*CONN
*P A[13] I
*I *1026:A I *D BUFx3_ASAP7_75t_R
*CAP
1 A[13] 1.01158e-05
2 *1026:A 3.40974e-05
3 *94:15 5.42556e-05
4 *94:11 3.0274e-05
5 *94:11 S[16] 2.46769e-05
6 *94:11 *282:9 2.43547e-05
7 *94:15 *503:8 2.96606e-05
8 *36:12 *94:15 1.18518e-05
*RES
1 A[13] *94:11 39.1886 
2 *94:11 *94:15 40.9468 
3 *94:15 *1026:A 36.9885 
*END

*D_NET *95 0.000130732
*CONN
*P A[12] I
*I *1027:A I *D BUFx2_ASAP7_75t_R
*CAP
1 A[12] 3.90212e-05
2 *1027:A 5.53905e-06
3 *95:9 4.45602e-05
4 *95:9 S[5] 1.70039e-05
5 *95:9 *334:9 2.46074e-05
*RES
1 A[12] *95:9 42.8986 
2 *95:9 *1027:A 37.0741 
*END

*D_NET *96 0.000174836
*CONN
*P A[11] I
*I *1028:A I *D BUFx6f_ASAP7_75t_R
*CAP
1 A[11] 6.71246e-05
2 *1028:A 0
3 *96:15 4.83164e-06
4 *96:9 7.19563e-05
5 *96:9 *380:11 3.09231e-05
*RES
1 A[11] *96:9 49.2658 
2 *96:9 *96:15 37.122 
3 *96:15 *1028:A 17.2 
*END

*D_NET *97 0.000165902
*CONN
*P A[10] I
*I *1029:A I *D BUFx2_ASAP7_75t_R
*CAP
1 A[10] 2.98061e-05
2 *1029:A 0
3 *97:17 2.30536e-05
4 *97:9 5.28597e-05
5 *97:9 S[11] 1.39517e-06
6 *97:9 *398:11 3.02921e-05
7 *97:9 *483:11 2.84958e-05
8 *97:17 *497:10 0
9 *33:12 *97:17 0
10 *57:10 *97:17 0
11 *57:18 *97:17 0
12 *78:11 *97:9 0
13 *78:13 *97:9 0
*RES
1 A[10] *97:9 33.2557 
2 *97:9 *97:17 48.2613 
3 *97:17 *1029:A 17.2 
*END

*D_NET *98 3.64242e-05
*CONN
*I *1128:A I *D BUFx3_ASAP7_75t_R
*I *901:Y O *D XOR2x2_ASAP7_75t_R
*CAP
1 *1128:A 1.12819e-05
2 *901:Y 6.38484e-06
3 *98:8 1.76668e-05
4 *33:12 *98:8 1.09067e-06
*RES
1 *901:Y *98:8 38.9053 
2 *98:8 *1128:A 41.3527 
*END

*D_NET *99 0.000219588
*CONN
*I *1129:A I *D BUFx3_ASAP7_75t_R
*I *907:Y O *D XNOR2x2_ASAP7_75t_R
*CAP
1 *1129:A 0
2 *907:Y 1.92335e-05
3 *99:22 2.32127e-05
4 *99:16 3.14351e-05
5 *99:10 2.7456e-05
6 *99:10 *483:21 2.71199e-05
7 *99:10 *641:12 2.71199e-05
8 *99:16 *198:8 6.7842e-07
9 *99:22 *483:17 2.2267e-05
10 *99:22 *483:21 5.00998e-07
11 *99:22 *498:8 5.30528e-07
12 *99:22 *641:12 9.30798e-06
13 *57:10 *99:22 9.37746e-06
14 *57:18 *99:22 2.13481e-05
*RES
1 *907:Y *99:10 48.2241 
2 *99:10 *99:16 37.0741 
3 *99:16 *99:22 37.1055 
4 *99:22 *1129:A 17.2 
*END

*D_NET *100 0.000319521
*CONN
*I *1130:A I *D BUFx3_ASAP7_75t_R
*I *910:Y O *D XNOR2x2_ASAP7_75t_R
*CAP
1 *1130:A 0
2 *910:Y 5.01095e-06
3 *100:18 5.50753e-06
4 *100:12 8.99018e-05
5 *100:10 8.43943e-05
6 *100:8 5.01095e-06
7 *100:8 *274:16 2.25787e-06
8 *100:8 *289:17 6.33206e-07
9 *100:8 *308:26 2.25787e-06
10 *100:12 *691:A1 3.65131e-06
11 *100:12 *691:A2 2.12481e-06
12 *100:12 *209:23 3.0471e-06
13 *100:12 *229:14 5.19552e-07
14 *100:12 *229:24 8.66084e-06
15 *100:12 *612:8 3.31198e-05
16 *100:12 *612:40 7.98105e-06
17 *100:12 *620:16 1.4007e-05
18 *100:12 *644:6 9.08513e-06
19 *100:12 *644:25 2.5536e-05
20 *100:18 *576:21 1.68138e-05
*RES
1 *910:Y *100:8 38.9053 
2 *100:8 *100:10 17.2 
3 *100:10 *100:12 62.5745 
4 *100:12 *100:18 40.0317 
5 *100:18 *1130:A 17.2 
*END

*D_NET *101 3.20045e-05
*CONN
*I *1131:A I *D BUFx3_ASAP7_75t_R
*I *864:Y O *D INVx1_ASAP7_75t_R
*CAP
1 *1131:A 0
2 *864:Y 1.03333e-05
3 *101:10 1.03333e-05
4 *101:10 *227:15 5.66897e-06
5 *101:10 *502:8 5.66897e-06
*RES
1 *864:Y *101:10 41.5795 
2 *101:10 *1131:A 34.4 
*END

*D_NET *102 2.47961e-05
*CONN
*I *1132:A I *D BUFx3_ASAP7_75t_R
*I *911:Y O *D XOR2x2_ASAP7_75t_R
*CAP
1 *1132:A 0
2 *911:Y 1.2398e-05
3 *102:10 1.2398e-05
4 *102:10 *864:A 0
5 *102:10 *502:8 0
6 *36:12 *102:10 0
*RES
1 *911:Y *102:10 41.5795 
2 *102:10 *1132:A 34.4 
*END

*D_NET *103 4.55671e-05
*CONN
*I *1133:A I *D BUFx3_ASAP7_75t_R
*I *919:Y O *D XNOR2x2_ASAP7_75t_R
*CAP
1 *1133:A 4.38249e-06
2 *919:Y 1.80845e-05
3 *103:10 2.2467e-05
4 *103:10 *139:18 0
5 *103:10 *502:8 6.33206e-07
*RES
1 *919:Y *103:10 45.2382 
2 *103:10 *1133:A 40.2831 
*END

*D_NET *104 7.46943e-05
*CONN
*I *1134:A I *D BUFx3_ASAP7_75t_R
*I *922:Y O *D XNOR2x2_ASAP7_75t_R
*CAP
1 *1134:A 0
2 *922:Y 9.68586e-06
3 *104:8 9.68586e-06
4 *104:8 *283:26 3.9332e-05
5 *104:8 *446:10 5.52807e-07
6 *104:8 *590:38 1.54378e-05
*RES
1 *922:Y *104:8 47.3528 
2 *104:8 *1134:A 34.4 
*END

*D_NET *105 4.29731e-05
*CONN
*I *1135:A I *D BUFx2_ASAP7_75t_R
*I *865:Y O *D INVx1_ASAP7_75t_R
*CAP
1 *1135:A 1.46819e-05
2 *865:Y 5.14179e-06
3 *105:8 1.98236e-05
4 *105:8 *143:6 0
5 *105:8 *502:8 3.32579e-06
*RES
1 *865:Y *105:8 38.9053 
2 *105:8 *1135:A 42.4224 
*END

*D_NET *106 7.8379e-05
*CONN
*I *1136:A I *D BUFx3_ASAP7_75t_R
*I *923:Y O *D XOR2x2_ASAP7_75t_R
*CAP
1 *1136:A 0
2 *923:Y 0
3 *106:12 2.67363e-05
4 *106:6 2.67363e-05
5 *106:12 *1228:A 8.98366e-06
6 *106:12 *1286:A 2.24968e-06
7 *106:12 *182:10 5.56217e-06
8 *106:12 *183:19 4.51562e-06
9 *106:12 *230:13 3.58041e-06
10 *90:15 *106:12 1.49407e-08
*RES
1 *923:Y *106:6 34.4 
2 *106:6 *106:12 41.2744 
3 *106:12 *1136:A 17.2 
*END

*D_NET *107 7.55795e-05
*CONN
*I *1137:A I *D BUFx3_ASAP7_75t_R
*I *928:Y O *D XNOR2x2_ASAP7_75t_R
*CAP
1 *1137:A 8.96312e-06
2 *928:Y 2.06928e-05
3 *107:10 2.96559e-05
4 *107:10 *475:17 1.64423e-06
5 *86:15 *107:10 1.46234e-05
6 *88:15 *107:10 0
*RES
1 *928:Y *107:10 46.4212 
2 *107:10 *1137:A 39.2134 
*END

*D_NET *108 4.23316e-05
*CONN
*I *1138:A I *D BUFx2_ASAP7_75t_R
*I *860:Y O *D INVx1_ASAP7_75t_R
*CAP
1 *1138:A 1.62488e-05
2 *860:Y 1.62488e-05
3 *1138:A *217:14 9.83409e-06
*RES
1 *860:Y *1138:A 44.5617 
*END

*D_NET *109 5.41936e-05
*CONN
*I *1139:A I *D BUFx3_ASAP7_75t_R
*I *931:Y O *D XNOR2x2_ASAP7_75t_R
*CAP
1 *1139:A 0
2 *931:Y 0
3 *109:10 2.60846e-05
4 *109:6 2.60846e-05
5 *109:10 *179:12 2.02432e-06
6 *45:10 *109:10 0
*RES
1 *931:Y *109:6 34.4 
2 *109:6 *109:10 38.6003 
3 *109:10 *1139:A 17.2 
*END

*D_NET *110 6.66336e-06
*CONN
*I *1140:A I *D BUFx3_ASAP7_75t_R
*I *866:Y O *D INVx1_ASAP7_75t_R
*CAP
1 *1140:A 3.33168e-06
2 *866:Y 3.33168e-06
*RES
1 *866:Y *1140:A 36.5393 
*END

*D_NET *111 2.57008e-05
*CONN
*I *1141:A I *D BUFx3_ASAP7_75t_R
*I *932:Y O *D XOR2x2_ASAP7_75t_R
*CAP
1 *1141:A 1.28504e-05
2 *932:Y 1.28504e-05
*RES
1 *932:Y *1141:A 41.3527 
*END

*D_NET *112 4.03265e-05
*CONN
*I *1142:A I *D BUFx3_ASAP7_75t_R
*I *938:Y O *D XNOR2x2_ASAP7_75t_R
*CAP
1 *1142:A 0
2 *938:Y 1.98241e-05
3 *112:10 1.98241e-05
4 *112:10 *938:B 6.7842e-07
*RES
1 *938:Y *112:10 44.7884 
2 *112:10 *1142:A 34.4 
*END

*D_NET *113 0.000103956
*CONN
*I *1143:A I *D BUFx3_ASAP7_75t_R
*I *941:Y O *D XNOR2x2_ASAP7_75t_R
*CAP
1 *1143:A 1.10351e-05
2 *941:Y 1.67733e-05
3 *113:10 2.78084e-05
4 *1143:A *171:12 3.33273e-05
5 *113:10 *941:B 1.06925e-05
6 *113:10 *171:12 2.6409e-06
7 *113:10 *460:8 1.67815e-06
8 *113:10 *543:8 0
*RES
1 *941:Y *113:10 44.2819 
2 *113:10 *1143:A 44.5617 
*END

*D_NET *114 4.73332e-05
*CONN
*I *1144:A I *D BUFx3_ASAP7_75t_R
*I *867:Y O *D INVx1_ASAP7_75t_R
*CAP
1 *1144:A 5.01913e-06
2 *867:Y 1.86475e-05
3 *114:8 2.36666e-05
4 *114:8 *603:62 0
*RES
1 *867:Y *114:8 47.3528 
2 *114:8 *1144:A 37.0741 
*END

*D_NET *115 6.64577e-05
*CONN
*I *1145:A I *D BUFx3_ASAP7_75t_R
*I *942:Y O *D XOR2x2_ASAP7_75t_R
*CAP
1 *1145:A 1.13033e-05
2 *942:Y 1.32581e-05
3 *115:10 2.45614e-05
4 *1145:A *942:A 2.03526e-06
5 *115:10 *942:A 5.62196e-06
6 *115:10 *149:8 1.34466e-06
7 *115:10 *603:62 8.33296e-06
*RES
1 *942:Y *115:10 43.1556 
2 *115:10 *1145:A 42.4224 
*END

*D_NET *116 2.35551e-05
*CONN
*I *1146:A I *D BUFx2_ASAP7_75t_R
*I *947:Y O *D XNOR2x2_ASAP7_75t_R
*CAP
1 *1146:A 8.32491e-06
2 *947:Y 3.45263e-06
3 *116:8 1.17775e-05
*RES
1 *947:Y *116:8 37.2158 
2 *116:8 *1146:A 38.6786 
*END

*D_NET *117 5.03148e-05
*CONN
*I *1147:A I *D BUFx3_ASAP7_75t_R
*I *950:Y O *D XNOR2x2_ASAP7_75t_R
*CAP
1 *1147:A 2.51574e-05
2 *950:Y 2.51574e-05
*RES
1 *950:Y *1147:A 49.9099 
*END

*D_NET *118 8.3292e-06
*CONN
*I *1148:A I *D BUFx3_ASAP7_75t_R
*I *868:Y O *D INVx1_ASAP7_75t_R
*CAP
1 *1148:A 4.1646e-06
2 *868:Y 4.1646e-06
*RES
1 *868:Y *1148:A 37.0741 
*END

*D_NET *119 2.40616e-05
*CONN
*I *1149:A I *D BUFx2_ASAP7_75t_R
*I *861:Y O *D INVx1_ASAP7_75t_R
*CAP
1 *1149:A 0
2 *861:Y 1.20308e-05
3 *119:10 1.20308e-05
4 *119:10 *123:8 0
5 *87:15 *119:10 0
*RES
1 *861:Y *119:10 41.5795 
2 *119:10 *1149:A 34.4 
*END

*D_NET *120 2.19711e-05
*CONN
*I *1150:A I *D BUFx3_ASAP7_75t_R
*I *951:Y O *D XOR2x2_ASAP7_75t_R
*CAP
1 *1150:A 3.21236e-06
2 *951:Y 6.65954e-06
3 *120:8 9.87189e-06
4 *120:8 *153:12 2.22736e-06
*RES
1 *951:Y *120:8 38.9053 
2 *120:8 *1150:A 36.0045 
*END

*D_NET *121 4.1878e-05
*CONN
*I *1151:A I *D BUFx2_ASAP7_75t_R
*I *956:Y O *D XNOR2x1_ASAP7_75t_R
*CAP
1 *1151:A 1.00488e-05
2 *956:Y 7.26753e-06
3 *121:8 1.73163e-05
4 *121:8 *159:10 0
5 *121:8 *409:8 7.24542e-06
*RES
1 *956:Y *121:8 41.158 
2 *121:8 *1151:A 40.2831 
*END

*D_NET *122 7.93419e-05
*CONN
*I *1152:A I *D BUFx3_ASAP7_75t_R
*I *957:Y O *D XNOR2x2_ASAP7_75t_R
*CAP
1 *1152:A 0
2 *957:Y 7.72577e-06
3 *122:12 2.31065e-05
4 *122:8 3.08322e-05
5 *122:8 *425:12 1.76928e-06
6 *122:12 *425:18 7.09459e-06
7 *122:12 *426:8 0
8 *65:8 *122:12 8.8135e-06
*RES
1 *957:Y *122:8 38.1438 
2 *122:8 *122:12 38.6003 
3 *122:12 *1152:A 17.2 
*END

*D_NET *123 1.42776e-05
*CONN
*I *1153:A I *D BUFx2_ASAP7_75t_R
*I *891:Y O *D XOR2x2_ASAP7_75t_R
*CAP
1 *1153:A 0
2 *891:Y 4.14928e-06
3 *123:8 4.14928e-06
4 *123:8 *213:10 5.97901e-06
5 *119:10 *123:8 0
*RES
1 *891:Y *123:8 38.9053 
2 *123:8 *1153:A 34.4 
*END

*D_NET *124 9.59762e-05
*CONN
*I *1154:A I *D BUFx2_ASAP7_75t_R
*I *893:Y O *D XNOR2x2_ASAP7_75t_R
*CAP
1 *1154:A 0
2 *893:Y 5.97942e-06
3 *124:12 3.36538e-05
4 *124:8 3.96332e-05
5 *124:8 *427:12 7.2538e-06
6 *124:8 *610:8 0
7 *124:12 *212:25 2.03526e-06
8 *124:12 *523:6 7.4208e-06
*RES
1 *893:Y *124:8 40.0317 
2 *124:8 *124:12 35.9189 
3 *124:12 *1154:A 17.2 
*END

*D_NET *125 8.00775e-05
*CONN
*I *1155:A I *D BUFx2_ASAP7_75t_R
*I *862:Y O *D INVx1_ASAP7_75t_R
*CAP
1 *1155:A 2.02009e-05
2 *862:Y 5.96263e-06
3 *125:8 2.61635e-05
4 *993:B *125:8 5.37569e-06
5 *28:36 *1155:A 2.23748e-05
6 *28:36 *125:8 0
*RES
1 *862:Y *125:8 38.9053 
2 *125:8 *1155:A 45.6313 
*END

*D_NET *126 3.50458e-05
*CONN
*I *1156:A I *D BUFx2_ASAP7_75t_R
*I *894:Y O *D XOR2x2_ASAP7_75t_R
*CAP
1 *1156:A 8.9981e-06
2 *894:Y 6.06385e-06
3 *126:8 1.50619e-05
4 *1156:A *1282:A 1.59615e-06
5 *126:8 *208:8 2.22736e-06
6 *126:8 *651:10 1.09842e-06
*RES
1 *894:Y *126:8 38.9053 
2 *126:8 *1156:A 39.2134 
*END

*D_NET *127 1.31477e-05
*CONN
*I *1157:A I *D BUFx3_ASAP7_75t_R
*I *897:Y O *D XNOR2x2_ASAP7_75t_R
*CAP
1 *1157:A 0
2 *897:Y 6.57385e-06
3 *127:8 6.57385e-06
*RES
1 *897:Y *127:8 38.9053 
2 *127:8 *1157:A 34.4 
*END

*D_NET *128 1.90532e-05
*CONN
*I *1158:A I *D BUFx3_ASAP7_75t_R
*I *900:Y O *D XNOR2x2_ASAP7_75t_R
*CAP
1 *1158:A 2.95274e-06
2 *900:Y 6.57385e-06
3 *128:8 9.52658e-06
4 *63:8 *128:8 0
*RES
1 *900:Y *128:8 38.9053 
2 *128:8 *1158:A 36.0045 
*END

*D_NET *129 5.7405e-05
*CONN
*I *1159:A I *D BUFx3_ASAP7_75t_R
*I *863:Y O *D INVx1_ASAP7_75t_R
*CAP
1 *1159:A 0
2 *863:Y 0
3 *129:10 2.80152e-05
4 *129:6 2.80152e-05
5 *129:10 *137:9 0
6 *129:10 *138:8 0
7 *129:10 *583:12 0
8 *129:10 *632:8 0
9 *129:10 *638:8 0
10 *32:8 *129:10 1.37455e-06
*RES
1 *863:Y *129:6 34.4 
2 *129:6 *129:10 38.6003 
3 *129:10 *1159:A 17.2 
*END

*D_NET *130 6.57899e-05
*CONN
*I *958:CI I *D FAx1_ASAP7_75t_R
*I *859:Y O *D INVx1_ASAP7_75t_R
*CAP
1 *958:CI 0
2 *859:Y 1.67328e-05
3 *130:10 1.67328e-05
4 *130:10 *859:A 0
5 *130:10 *213:10 2.05284e-06
6 *130:10 *216:20 4.84697e-07
7 *130:10 *639:8 2.97868e-05
*RES
1 *859:Y *130:10 48.3941 
2 *130:10 *958:CI 17.2 
*END

*D_NET *131 3.35735e-05
*CONN
*I *891:B I *D XOR2x2_ASAP7_75t_R
*I *958:CON O *D FAx1_ASAP7_75t_R
*CAP
1 *891:B 0
2 *958:CON 9.30761e-06
3 *131:10 9.30761e-06
4 *131:10 *958:B 1.2934e-05
5 *54:12 *131:10 2.02432e-06
*RES
1 *958:CON *131:10 40.5098 
2 *131:10 *891:B 17.2 
*END

*D_NET *132 3.34051e-05
*CONN
*I *861:A I *D INVx1_ASAP7_75t_R
*I *958:SN O *D FAx1_ASAP7_75t_R
*CAP
1 *861:A 1.06615e-05
2 *958:SN 4.18652e-06
3 *132:8 1.4848e-05
4 *132:8 *213:10 3.70913e-06
*RES
1 *958:SN *132:8 37.779 
2 *132:8 *861:A 38.1438 
*END

*D_NET *133 0.000192731
*CONN
*I *959:CI I *D FAx1_ASAP7_75t_R
*I *676:Y O *D AND2x2_ASAP7_75t_R
*CAP
1 *959:CI 1.10346e-05
2 *676:Y 7.64284e-05
3 *133:6 8.7463e-05
4 *959:CI *208:8 0
5 *959:CI *619:8 0
6 *133:6 *1215:A 2.30405e-06
7 *133:6 *243:10 6.1962e-06
8 *133:6 *243:18 9.30483e-06
9 *133:6 *576:21 0
*RES
1 *676:Y *133:6 45.5457 
2 *133:6 *959:CI 41.8185 
*END

*D_NET *134 8.0493e-05
*CONN
*I *894:B I *D XOR2x2_ASAP7_75t_R
*I *959:CON O *D FAx1_ASAP7_75t_R
*CAP
1 *894:B 0
2 *959:CON 3.38495e-05
3 *134:9 3.38495e-05
4 *134:9 *651:10 0
5 *28:8 *134:9 1.27939e-05
6 *28:18 *134:9 0
*RES
1 *959:CON *134:9 40.2738 
2 *134:9 *894:B 34.4 
*END

*D_NET *135 8.79354e-05
*CONN
*I *862:A I *D INVx1_ASAP7_75t_R
*I *959:SN O *D FAx1_ASAP7_75t_R
*CAP
1 *862:A 2.62167e-05
2 *959:SN 4.09959e-06
3 *135:8 3.03163e-05
4 *135:8 *208:8 9.49598e-06
5 *28:28 *862:A 1.4311e-05
6 *60:16 *862:A 3.49596e-06
*RES
1 *959:SN *135:8 37.779 
2 *135:8 *862:A 44.5617 
*END

*D_NET *136 0.000110137
*CONN
*I *1165:A I *D BUFx3_ASAP7_75t_R
*I *904:B I *D NAND2x1_ASAP7_75t_R
*I *705:Y O *D XNOR2x2_ASAP7_75t_R
*CAP
1 *1165:A 3.94301e-06
2 *904:B 1.14869e-05
3 *705:Y 2.90546e-05
4 *136:8 4.44845e-05
5 *904:B *904:A 1.04475e-06
6 *904:B *196:10 1.89962e-06
7 *904:B *310:10 2.20128e-06
8 *904:B *434:8 6.92634e-06
9 *1165:A *196:10 5.67735e-06
10 *1165:A *310:10 3.16603e-06
11 *136:8 *904:A 2.52755e-07
*RES
1 *705:Y *136:8 46.701 
2 *136:8 *904:B 42.5074 
3 *136:8 *1165:A 38.9053 
*END

*D_NET *137 7.42445e-05
*CONN
*I *901:A I *D XOR2x2_ASAP7_75t_R
*I *960:CON O *D FAx1_ASAP7_75t_R
*CAP
1 *901:A 8.50349e-06
2 *960:CON 2.86188e-05
3 *137:9 3.71222e-05
4 *129:10 *137:9 0
*RES
1 *960:CON *137:9 35.2583 
2 *137:9 *901:A 39.2134 
*END

*D_NET *138 4.09816e-05
*CONN
*I *863:A I *D INVx1_ASAP7_75t_R
*I *960:SN O *D FAx1_ASAP7_75t_R
*CAP
1 *863:A 1.16672e-05
2 *960:SN 3.85067e-06
3 *138:8 1.55179e-05
4 *138:8 *632:8 9.94583e-06
5 *129:10 *138:8 0
*RES
1 *960:SN *138:8 37.779 
2 *138:8 *863:A 39.2134 
*END

*D_NET *139 0.000402293
*CONN
*I *961:CI I *D FAx1_ASAP7_75t_R
*I *725:Y O *D XNOR2x2_ASAP7_75t_R
*CAP
1 *961:CI 0
2 *725:Y 4.15964e-05
3 *139:18 6.69859e-05
4 *139:16 7.21217e-05
5 *139:10 3.25738e-05
6 *139:6 6.90343e-05
7 *139:10 *751:A 0
8 *139:10 *752:A2 2.66045e-05
9 *139:10 *762:B 1.07573e-06
10 *139:10 *186:19 0
11 *139:10 *283:26 0
12 *139:10 *297:27 1.47844e-05
13 *139:10 *301:25 3.35641e-06
14 *139:10 *303:12 2.36144e-05
15 *139:10 *310:24 0
16 *139:10 *315:8 5.49212e-07
17 *139:10 *315:16 0
18 *139:10 *556:8 1.67893e-05
19 *139:16 *297:27 9.30483e-06
20 *139:18 *919:B 4.31787e-06
21 *139:18 *186:10 0
22 *139:18 *315:8 0
23 *139:18 *315:16 1.12894e-06
24 *139:18 *502:8 0
25 *139:18 *503:8 0
26 *139:18 *586:12 1.49407e-08
27 *139:18 *604:12 0
28 *139:18 *637:8 4.07716e-06
29 *36:12 *139:18 1.43633e-05
30 *103:10 *139:18 0
*RES
1 *725:Y *139:6 33.7796 
2 *139:6 *139:10 48.7373 
3 *139:10 *139:16 37.0741 
4 *139:16 *139:18 57.4429 
5 *139:18 *961:CI 17.2 
*END

*D_NET *140 2.73841e-05
*CONN
*I *911:B I *D XOR2x2_ASAP7_75t_R
*I *961:CON O *D FAx1_ASAP7_75t_R
*CAP
1 *911:B 0
2 *961:CON 5.48078e-06
3 *140:8 5.48078e-06
4 *140:8 *186:10 1.64226e-05
*RES
1 *961:CON *140:8 40.0317 
2 *140:8 *911:B 17.2 
*END

*D_NET *141 7.30136e-05
*CONN
*I *864:A I *D INVx1_ASAP7_75t_R
*I *961:SN O *D FAx1_ASAP7_75t_R
*CAP
1 *864:A 2.77676e-05
2 *961:SN 3.96593e-06
3 *141:8 3.17335e-05
4 *36:12 *141:8 9.5466e-06
5 *102:10 *864:A 0
*RES
1 *961:SN *141:8 37.779 
2 *141:8 *864:A 44.5617 
*END

*D_NET *142 5.39977e-05
*CONN
*I *962:CI I *D FAx1_ASAP7_75t_R
*I *782:Y O *D INVx3_ASAP7_75t_R
*CAP
1 *962:CI 5.75245e-06
2 *782:Y 1.83524e-05
3 *142:8 2.41049e-05
4 *142:8 *185:37 0
5 *142:8 *332:23 7.84037e-07
6 *142:8 *631:8 0
7 *142:8 *635:8 4.42421e-06
8 *142:8 *663:12 5.79724e-07
9 *40:35 *142:8 0
*RES
1 *782:Y *142:8 49.6055 
2 *142:8 *962:CI 20.6764 
*END

*D_NET *143 8.73639e-05
*CONN
*I *923:B I *D XOR2x2_ASAP7_75t_R
*I *962:CON O *D FAx1_ASAP7_75t_R
*CAP
1 *923:B 0
2 *962:CON 2.09288e-05
3 *143:6 2.09288e-05
4 *143:6 *144:10 3.95845e-06
5 *143:6 *631:8 5.37866e-07
6 *40:8 *143:6 1.84217e-05
7 *40:27 *143:6 2.25882e-05
8 *105:8 *143:6 0
*RES
1 *962:CON *143:6 39.7266 
2 *143:6 *923:B 34.4 
*END

*D_NET *144 9.79814e-05
*CONN
*I *865:A I *D INVx1_ASAP7_75t_R
*I *962:SN O *D FAx1_ASAP7_75t_R
*CAP
1 *865:A 3.08201e-05
2 *962:SN 7.7979e-06
3 *144:10 3.8618e-05
4 *144:10 *631:8 3.79923e-06
5 *1262:A *865:A 1.29877e-05
6 *143:6 *144:10 3.95845e-06
*RES
1 *962:SN *144:10 39.3835 
2 *144:10 *865:A 47.7706 
*END

*D_NET *145 8.05994e-05
*CONN
*I *963:A I *D FAx1_ASAP7_75t_R
*I *798:Y O *D INVx2_ASAP7_75t_R
*CAP
1 *963:A 1.89743e-05
2 *798:Y 9.63241e-06
3 *145:8 2.86067e-05
4 *963:A *598:14 2.3386e-05
*RES
1 *798:Y *145:8 38.1438 
2 *145:8 *963:A 33.5318 
*END

*D_NET *146 3.53571e-05
*CONN
*I *932:A I *D XOR2x2_ASAP7_75t_R
*I *963:CON O *D FAx1_ASAP7_75t_R
*CAP
1 *932:A 0
2 *963:CON 1.6754e-05
3 *146:10 1.6754e-05
4 *146:10 *640:10 1.849e-06
*RES
1 *963:CON *146:10 44.8451 
2 *146:10 *932:A 17.2 
*END

*D_NET *147 1.01953e-05
*CONN
*I *866:A I *D INVx1_ASAP7_75t_R
*I *963:SN O *D FAx1_ASAP7_75t_R
*CAP
1 *866:A 0
2 *963:SN 4.82125e-06
3 *147:8 4.82125e-06
4 *147:8 *634:10 5.52807e-07
*RES
1 *963:SN *147:8 37.779 
2 *147:8 *866:A 34.4 
*END

*D_NET *148 0.000156411
*CONN
*I *845:B2 I *D AO33x2_ASAP7_75t_R
*I *852:A1 I *D AO21x1_ASAP7_75t_R
*I *840:B2 I *D AO33x2_ASAP7_75t_R
*I *1290:A I *D BUFx3_ASAP7_75t_R
*I *828:Y O *D INVx2_ASAP7_75t_R
*CAP
1 *845:B2 1.31864e-05
2 *852:A1 0
3 *840:B2 1.00385e-05
4 *1290:A 0
5 *828:Y 9.37098e-06
6 *148:42 2.0984e-05
7 *148:31 1.98407e-05
8 *148:27 1.04331e-05
9 *148:12 8.42844e-06
10 *148:10 9.37098e-06
11 *840:B2 *840:B3 4.06202e-06
12 *840:B2 *378:29 1.62683e-05
13 *845:B2 *845:B3 1.61096e-06
14 *845:B2 *165:22 1.09169e-05
15 *845:B2 *378:29 1.53963e-06
16 *845:B2 *397:10 4.40777e-06
17 *845:B2 *399:10 3.05118e-08
18 *148:10 *382:6 1.56713e-06
19 *148:10 *397:10 1.62854e-06
20 *148:10 *659:8 0
21 *148:27 *378:29 5.12159e-06
22 *148:27 *397:10 0
23 *148:31 *397:10 1.849e-06
24 *148:42 *378:29 5.13209e-07
25 *148:42 *397:10 5.24234e-06
*RES
1 *828:Y *148:10 40.5098 
2 *148:10 *148:12 17.2 
3 *148:12 *1290:A 17.2 
4 *148:12 *148:27 41.4377 
5 *148:27 *148:31 18.8895 
6 *148:31 *840:B2 41.3527 
7 *148:31 *148:42 5.63166 
8 *148:42 *852:A1 34.4 
9 *148:42 *845:B2 45.2949 
*END

*D_NET *149 3.33263e-05
*CONN
*I *942:B I *D XOR2x2_ASAP7_75t_R
*I *964:CON O *D FAx1_ASAP7_75t_R
*CAP
1 *942:B 0
2 *964:CON 1.20706e-05
3 *149:8 1.20706e-05
4 *149:8 *964:CI 2.35211e-06
5 *149:8 *603:62 0
6 *964:A *149:8 5.48826e-06
7 *115:10 *149:8 1.34466e-06
*RES
1 *964:CON *149:8 46.7897 
2 *149:8 *942:B 17.2 
*END

*D_NET *150 5.04212e-05
*CONN
*I *867:A I *D INVx1_ASAP7_75t_R
*I *964:SN O *D FAx1_ASAP7_75t_R
*CAP
1 *867:A 2.37741e-05
2 *964:SN 2.37741e-05
3 *964:B *867:A 2.87307e-06
*RES
1 *964:SN *867:A 44.5617 
*END

*D_NET *151 4.74764e-05
*CONN
*I *965:A I *D FAx1_ASAP7_75t_R
*I *858:Y O *D AND3x1_ASAP7_75t_R
*CAP
1 *965:A 2.37382e-05
2 *858:Y 2.37382e-05
*RES
1 *858:Y *965:A 32.4425 
*END

*D_NET *152 2.94758e-05
*CONN
*I *951:B I *D XOR2x2_ASAP7_75t_R
*I *965:CON O *D FAx1_ASAP7_75t_R
*CAP
1 *951:B 0
2 *965:CON 1.31168e-05
3 *152:8 1.31168e-05
4 *152:8 *159:16 0
5 *969:A *152:8 5.37866e-07
6 *21:10 *152:8 2.70427e-06
*RES
1 *965:CON *152:8 46.7897 
2 *152:8 *951:B 17.2 
*END

*D_NET *153 6.74802e-05
*CONN
*I *868:A I *D INVx1_ASAP7_75t_R
*I *965:SN O *D FAx1_ASAP7_75t_R
*CAP
1 *868:A 0
2 *965:SN 0
3 *153:12 2.74356e-05
4 *153:6 2.74356e-05
5 *153:12 *159:16 1.03816e-05
6 *53:10 *153:12 0
7 *120:8 *153:12 2.22736e-06
*RES
1 *965:SN *153:6 34.4 
2 *153:6 *153:12 39.0784 
3 *153:12 *868:A 17.2 
*END

*D_NET *154 2.26262e-05
*CONN
*I *890:A I *D XNOR2x1_ASAP7_75t_R
*I *966:CON O *D HAxp5_ASAP7_75t_R
*CAP
1 *890:A 1.09315e-05
2 *966:CON 1.09315e-05
3 *966:A *890:A 7.63254e-07
*RES
1 *966:CON *890:A 41.3527 
*END

*D_NET *155 7.67549e-05
*CONN
*I *869:A I *D INVx1_ASAP7_75t_R
*I *957:A I *D XNOR2x2_ASAP7_75t_R
*I *966:SN O *D HAxp5_ASAP7_75t_R
*CAP
1 *869:A 3.57659e-06
2 *957:A 1.85426e-05
3 *966:SN 1.49523e-05
4 *155:8 3.70715e-05
5 *957:A *406:10 2.61188e-06
6 *957:A *483:21 0
7 *155:8 *406:10 0
8 *155:8 *426:8 0
9 *155:8 *483:21 0
*RES
1 *966:SN *155:8 46.2265 
2 *155:8 *957:A 47.4342 
3 *155:8 *869:A 36.0045 
*END

*D_NET *156 7.94824e-05
*CONN
*I *888:A I *D XOR2x1_ASAP7_75t_R
*I *967:CON O *D HAxp5_ASAP7_75t_R
*CAP
1 *888:A 2.6661e-05
2 *967:CON 0
3 *156:6 2.6661e-05
4 *888:A *157:10 0
5 *888:A *408:10 0
6 *888:A *415:10 1.31716e-05
7 *24:10 *888:A 1.22048e-05
8 *56:10 *888:A 7.84037e-07
*RES
1 *967:CON *156:6 34.4 
2 *156:6 *888:A 38.1345 
*END

*D_NET *157 0.000287585
*CONN
*I *872:A I *D NOR2x1_ASAP7_75t_R
*I *956:A I *D XNOR2x1_ASAP7_75t_R
*I *881:A I *D OR5x1_ASAP7_75t_R
*I *871:A I *D OR4x1_ASAP7_75t_R
*I *878:A I *D OR4x1_ASAP7_75t_R
*I *967:SN O *D HAxp5_ASAP7_75t_R
*CAP
1 *872:A 8.52807e-06
2 *956:A 2.94549e-06
3 *881:A 0
4 *871:A 0
5 *878:A 0
6 *967:SN 1.04049e-05
7 *157:45 4.49288e-05
8 *157:36 3.42262e-05
9 *157:29 1.03134e-05
10 *157:21 1.31526e-05
11 *157:14 1.60709e-05
12 *157:10 2.44076e-05
13 *872:A *159:10 1.68025e-06
14 *872:A *159:12 3.47607e-06
15 *872:A *470:8 0
16 *956:A *159:12 3.61852e-06
17 *157:10 *408:10 6.6421e-06
18 *157:14 *878:C 1.06092e-05
19 *157:14 *878:D 1.56713e-06
20 *157:14 *160:49 3.89037e-06
21 *157:14 *415:8 1.56713e-06
22 *157:21 *881:B 5.41446e-06
23 *157:21 *159:54 3.05302e-06
24 *157:21 *160:49 1.21211e-05
25 *157:29 *880:A 5.79724e-07
26 *157:29 *881:B 1.6528e-05
27 *157:29 *158:18 1.35684e-06
28 *157:36 *881:B 5.62196e-06
29 *157:36 *160:49 3.46317e-06
30 *157:45 *881:B 6.92634e-06
31 *157:45 *881:D 3.90258e-06
32 *157:45 *956:B 5.34278e-06
33 *157:45 *159:42 3.05302e-06
34 *157:45 *159:44 1.04358e-05
35 *157:45 *159:54 3.56648e-06
36 *157:45 *159:67 1.04475e-06
37 *157:45 *160:49 7.14604e-06
38 *888:A *157:10 0
*RES
1 *967:SN *157:10 41.6361 
2 *157:10 *157:14 26.8269 
3 *157:14 *878:A 17.2 
4 *157:14 *157:21 4.2786 
5 *157:21 *157:29 42.2276 
6 *157:29 *871:A 17.2 
7 *157:21 *157:36 1.60448 
8 *157:36 *881:A 17.2 
9 *157:36 *157:45 43.4064 
10 *157:45 *956:A 20.0158 
11 *157:45 *872:A 40.0317 
*END

*D_NET *158 0.000286064
*CONN
*I *872:B I *D NOR2x1_ASAP7_75t_R
*I *955:A I *D XNOR2x1_ASAP7_75t_R
*I *870:A I *D INVx1_ASAP7_75t_R
*I *878:B I *D OR4x1_ASAP7_75t_R
*I *968:CON O *D HAxp5_ASAP7_75t_R
*CAP
1 *872:B 0
2 *955:A 2.68031e-06
3 *870:A 0
4 *878:B 0
5 *968:CON 0
6 *158:53 1.61204e-05
7 *158:26 1.94179e-05
8 *158:20 1.94179e-05
9 *158:18 2.66453e-05
10 *158:12 2.93256e-05
11 *158:10 4.0148e-05
12 *158:4 5.62684e-05
13 *158:10 *881:B 0
14 *158:10 *407:8 0
15 *158:18 *871:B 2.20493e-06
16 *158:18 *881:B 3.6269e-06
17 *158:18 *159:54 6.7842e-07
18 *158:18 *160:64 8.58704e-06
19 *158:18 *407:8 3.31686e-06
20 *158:18 *417:10 1.04475e-06
21 *158:26 *160:64 3.06142e-05
22 *158:26 *408:10 0
23 *158:53 *159:8 2.03526e-06
24 *158:53 *159:10 1.34257e-05
25 *968:A *158:10 6.86929e-06
26 *968:A *158:53 7.63254e-07
27 *968:B *158:10 1.51653e-06
28 *157:29 *158:18 1.35684e-06
*RES
1 *968:CON *158:4 17.2 
2 *158:4 *158:10 38.3416 
3 *158:10 *158:12 17.2 
4 *158:12 *158:18 36.2023 
5 *158:18 *158:20 17.2 
6 *158:20 *158:26 32.8269 
7 *158:26 *878:B 34.4 
8 *158:20 *870:A 17.2 
9 *158:12 *955:A 18.8045 
10 *158:4 *158:53 44.7884 
11 *158:53 *872:B 17.2 
*END

*D_NET *159 0.000508557
*CONN
*I *954:A I *D NOR2x1_ASAP7_75t_R
*I *881:C I *D OR5x1_ASAP7_75t_R
*I *871:C I *D OR4x1_ASAP7_75t_R
*I *885:A1 I *D OAI21x1_ASAP7_75t_R
*I *951:A I *D XOR2x2_ASAP7_75t_R
*I *968:SN O *D HAxp5_ASAP7_75t_R
*CAP
1 *954:A 0
2 *881:C 0
3 *871:C 0
4 *885:A1 3.0796e-06
5 *951:A 0
6 *968:SN 8.01611e-06
7 *159:67 8.53863e-06
8 *159:54 2.47932e-05
9 *159:44 4.87232e-05
10 *159:42 2.00701e-05
11 *159:38 3.57728e-05
12 *159:16 2.47163e-05
13 *159:12 4.96162e-05
14 *159:10 6.97479e-05
15 *159:8 2.48497e-05
16 *885:A1 *409:27 2.03526e-06
17 *159:10 *409:8 0
18 *159:10 *470:8 0
19 *159:12 *161:51 1.62666e-05
20 *159:12 *409:8 0
21 *159:12 *409:27 6.71283e-06
22 *159:12 *421:10 3.32579e-06
23 *159:16 *160:10 1.07573e-06
24 *159:16 *161:51 2.01457e-05
25 *159:16 *409:27 8.33296e-06
26 *159:38 *469:8 6.41585e-07
27 *159:54 *881:B 2.0095e-05
28 *159:54 *160:64 1.34329e-05
29 *159:67 *880:A 4.43244e-06
30 *159:67 *953:A 8.33296e-06
31 *159:67 *160:45 3.61852e-06
32 *159:67 *417:10 9.67723e-06
33 *872:A *159:10 1.68025e-06
34 *872:A *159:12 3.47607e-06
35 *956:A *159:12 3.61852e-06
36 *969:A *159:16 7.24542e-06
37 *21:10 *159:16 8.8135e-06
38 *121:8 *159:10 0
39 *152:8 *159:16 0
40 *153:12 *159:16 1.03816e-05
41 *157:21 *159:54 3.05302e-06
42 *157:45 *159:42 3.05302e-06
43 *157:45 *159:44 1.04358e-05
44 *157:45 *159:54 3.56648e-06
45 *157:45 *159:67 1.04475e-06
46 *158:18 *159:54 6.7842e-07
47 *158:53 *159:8 2.03526e-06
48 *158:53 *159:10 1.34257e-05
*RES
1 *968:SN *159:8 39.2134 
2 *159:8 *159:10 13.4221 
3 *159:10 *159:12 20.3678 
4 *159:12 *159:16 45.3583 
5 *159:16 *951:A 17.2 
6 *159:12 *885:A1 36.0045 
7 *159:10 *159:38 44.4942 
8 *159:38 *159:42 19.8741 
9 *159:42 *159:44 8.02238 
10 *159:44 *159:54 49.067 
11 *159:54 *871:C 17.2 
12 *159:44 *159:67 42.1993 
13 *159:67 *881:C 17.2 
14 *159:42 *954:A 17.2 
*END

*D_NET *160 0.00051504
*CONN
*I *873:A I *D NAND2x1_ASAP7_75t_R
*I *880:A I *D INVx1_ASAP7_75t_R
*I *871:D I *D OR4x1_ASAP7_75t_R
*I *878:C I *D OR4x1_ASAP7_75t_R
*I *884:A I *D AND2x2_ASAP7_75t_R
*I *969:CON O *D HAxp5_ASAP7_75t_R
*CAP
1 *873:A 0
2 *880:A 9.52131e-06
3 *871:D 0
4 *878:C 1.61005e-06
5 *884:A 0
6 *969:CON 2.94854e-06
7 *160:64 1.34094e-05
8 *160:49 2.38522e-05
9 *160:45 2.56686e-05
10 *160:41 3.45398e-05
11 *160:35 3.48298e-05
12 *160:27 1.69259e-05
13 *160:23 3.85299e-05
14 *160:10 4.35726e-05
15 *160:8 1.73125e-05
16 *878:C *878:D 4.49469e-06
17 *880:A *417:10 5.79724e-07
18 *160:10 *885:B 4.96929e-06
19 *160:10 *161:51 3.32579e-06
20 *160:10 *409:8 1.16894e-05
21 *160:10 *421:10 2.01457e-05
22 *160:23 *409:8 5.09995e-06
23 *160:23 *421:10 5.39167e-06
24 *160:27 *409:27 0
25 *160:27 *418:8 0
26 *160:35 *409:27 0
27 *160:35 *410:8 1.14488e-05
28 *160:35 *422:6 2.66207e-05
29 *160:41 *881:E 1.51539e-05
30 *160:41 *953:B 1.16548e-06
31 *160:41 *161:12 6.33206e-07
32 *160:41 *418:8 3.03456e-05
33 *160:45 *953:A 5.79724e-07
34 *160:45 *161:29 0
35 *160:64 *881:B 2.22736e-06
36 *160:64 *408:10 0
37 *53:24 *160:8 8.87763e-06
38 *157:14 *878:C 1.06092e-05
39 *157:14 *160:49 3.89037e-06
40 *157:21 *160:49 1.21211e-05
41 *157:29 *880:A 5.79724e-07
42 *157:36 *160:49 3.46317e-06
43 *157:45 *160:49 7.14604e-06
44 *158:18 *160:64 8.58704e-06
45 *158:26 *160:64 3.06142e-05
46 *159:16 *160:10 1.07573e-06
47 *159:54 *160:64 1.34329e-05
48 *159:67 *880:A 4.43244e-06
49 *159:67 *160:45 3.61852e-06
*RES
1 *969:CON *160:8 37.0741 
2 *160:8 *160:10 15.2055 
3 *160:10 *884:A 34.4 
4 *160:10 *160:23 35.4691 
5 *160:23 *160:27 23.958 
6 *160:27 *160:35 45.2382 
7 *160:35 *160:41 36.5424 
8 *160:41 *160:45 22.8317 
9 *160:45 *160:49 25.2224 
10 *160:49 *878:C 20.409 
11 *160:49 *160:64 48.3941 
12 *160:64 *871:D 17.2 
13 *160:45 *880:A 41.158 
14 *160:27 *873:A 34.4 
*END

*D_NET *161 0.000478339
*CONN
*I *884:B I *D AND2x2_ASAP7_75t_R
*I *881:E I *D OR5x1_ASAP7_75t_R
*I *878:D I *D OR4x1_ASAP7_75t_R
*I *883:A I *D INVx1_ASAP7_75t_R
*I *969:SN O *D HAxp5_ASAP7_75t_R
*CAP
1 *884:B 0
2 *881:E 1.60229e-05
3 *878:D 8.98258e-06
4 *883:A 1.88978e-06
5 *969:SN 1.7983e-05
6 *161:51 9.73022e-06
7 *161:29 3.07331e-05
8 *161:16 3.55416e-05
9 *161:12 9.07382e-05
10 *161:6 9.05272e-05
11 *881:E *953:A 1.34329e-05
12 *881:E *418:8 1.12894e-06
13 *881:E *467:8 1.12894e-06
14 *883:A *408:27 5.41446e-06
15 *161:12 *410:16 4.1009e-06
16 *161:12 *467:8 1.09842e-06
17 *161:16 *886:A1 2.88806e-06
18 *161:16 *886:A2 3.89037e-06
19 *161:16 *408:27 2.31575e-05
20 *161:16 *410:8 3.56648e-06
21 *161:16 *418:12 2.20964e-06
22 *161:16 *422:6 1.2768e-05
23 *161:29 *953:A 0
24 *161:29 *408:10 0
25 *161:29 *418:18 0
26 *161:29 *467:8 0
27 *161:51 *421:10 6.49127e-06
28 *878:C *878:D 4.49469e-06
29 *53:24 *161:6 3.15957e-05
30 *53:24 *161:12 1.73158e-06
31 *157:14 *878:D 1.56713e-06
32 *159:12 *161:51 1.62666e-05
33 *159:16 *161:51 2.01457e-05
34 *160:10 *161:51 3.32579e-06
35 *160:41 *881:E 1.51539e-05
36 *160:41 *161:12 6.33206e-07
37 *160:45 *161:29 0
*RES
1 *969:SN *161:6 27.3617 
2 *161:6 *161:12 45.8291 
3 *161:12 *161:16 29.501 
4 *161:16 *883:A 18.8045 
5 *161:16 *161:29 49.6055 
6 *161:29 *878:D 22.0134 
7 *161:12 *881:E 49.6055 
8 *161:6 *161:51 46.2265 
9 *161:51 *884:B 17.2 
*END

*D_NET *162 0.000256316
*CONN
*I *853:B I *D OR3x1_ASAP7_75t_R
*I *856:B I *D OR3x1_ASAP7_75t_R
*I *847:B I *D OAI21x1_ASAP7_75t_R
*I *970:CON O *D HAxp5_ASAP7_75t_R
*CAP
1 *853:B 2.56023e-06
2 *856:B 8.78492e-06
3 *847:B 1.25211e-05
4 *970:CON 3.67935e-05
5 *162:12 2.69435e-05
6 *162:10 3.0303e-05
7 *162:6 5.88987e-05
8 *847:B *165:53 2.12481e-06
9 *847:B *385:39 8.2174e-07
10 *847:B *605:48 8.33296e-06
11 *847:B *630:44 2.71272e-05
12 *856:B *856:C 6.70433e-06
13 *856:B *605:40 2.03526e-06
14 *162:10 *397:48 0
15 *162:10 *400:42 0
16 *162:10 *402:10 0
17 *162:12 *605:48 1.69273e-05
18 *162:12 *630:44 1.54378e-05
*RES
1 *970:CON *162:6 40.1975 
2 *162:6 *162:10 33.5318 
3 *162:10 *162:12 7.88432 
4 *162:12 *847:B 46.0848 
5 *162:12 *856:B 40.2831 
6 *162:10 *853:B 35.4697 
*END

*D_NET *163 0.000226261
*CONN
*I *1236:A I *D BUFx3_ASAP7_75t_R
*I *838:C I *D OR3x1_ASAP7_75t_R
*I *835:B I *D OR3x1_ASAP7_75t_R
*I *843:B I *D OR3x1_ASAP7_75t_R
*I *970:SN O *D HAxp5_ASAP7_75t_R
*CAP
1 *1236:A 5.33313e-06
2 *838:C 4.33025e-06
3 *835:B 0
4 *843:B 0
5 *970:SN 1.76795e-05
6 *163:35 1.08906e-05
7 *163:20 1.08906e-05
8 *163:18 2.3691e-05
9 *163:12 5.97172e-05
10 *163:8 5.47085e-05
11 *838:C *838:A 4.57952e-06
12 *163:12 *286:8 0
13 *163:12 *395:8 0
14 *163:12 *605:8 0
15 *163:12 *605:10 0
16 *163:12 *605:16 0
17 *163:18 *838:A 7.63254e-07
18 *163:18 *838:B 0
19 *163:18 *843:A 2.31831e-05
20 *163:18 *286:8 0
21 *163:18 *382:20 1.83109e-06
22 *163:18 *630:20 2.24085e-06
23 *163:35 *382:20 6.4228e-06
*RES
1 *970:SN *163:8 47.3528 
2 *163:8 *163:12 43.1056 
3 *163:12 *163:18 38.4019 
4 *163:18 *163:20 17.2 
5 *163:20 *843:B 17.2 
6 *163:20 *163:35 43.2406 
7 *163:35 *835:B 17.2 
8 *163:12 *838:C 20.9438 
9 *163:8 *1236:A 37.0741 
*END

*D_NET *164 0.000208566
*CONN
*I *1261:A I *D BUFx3_ASAP7_75t_R
*I *837:A I *D INVx1_ASAP7_75t_R
*I *971:CON O *D HAxp5_ASAP7_75t_R
*CAP
1 *1261:A 0
2 *837:A 0
3 *971:CON 0
4 *164:14 1.90114e-05
5 *164:6 7.43257e-05
6 *164:4 5.53143e-05
7 *164:6 *396:6 5.61049e-06
8 *164:6 *630:12 6.75247e-06
9 *164:6 *630:57 8.20846e-06
10 *164:14 *396:6 3.74457e-06
11 *164:14 *397:10 8.86799e-07
12 *164:14 *399:10 2.30405e-06
13 *164:14 *400:12 0
14 *164:14 *630:12 6.93361e-07
15 *971:B *164:6 2.75254e-05
16 *19:12 *164:6 4.18905e-06
*RES
1 *971:CON *164:4 17.2 
2 *164:4 *164:6 35.8333 
3 *164:6 *164:14 45.9714 
4 *164:14 *837:A 17.2 
5 *164:6 *1261:A 17.2 
*END

*D_NET *165 0.000779857
*CONN
*I *943:A I *D XNOR2x2_ASAP7_75t_R
*I *851:A I *D OR2x2_ASAP7_75t_R
*I *846:B I *D NAND2x1_ASAP7_75t_R
*I *838:B I *D OR3x1_ASAP7_75t_R
*I *849:A I *D OR5x1_ASAP7_75t_R
*I *971:SN O *D HAxp5_ASAP7_75t_R
*CAP
1 *943:A 0
2 *851:A 8.70664e-06
3 *846:B 0
4 *838:B 8.43484e-06
5 *849:A 0
6 *971:SN 7.2487e-06
7 *165:88 1.15404e-05
8 *165:59 4.02762e-05
9 *165:53 5.89664e-05
10 *165:47 4.75615e-05
11 *165:41 4.19583e-05
12 *165:30 2.49226e-05
13 *165:24 3.77378e-05
14 *165:22 4.03071e-05
15 *165:16 0.000100998
16 *165:12 8.38073e-05
17 *165:8 1.88252e-05
18 *838:B *838:A 7.14604e-06
19 *838:B *386:8 3.79307e-06
20 *838:B *630:44 0
21 *851:A *396:6 2.69558e-05
22 *165:8 *461:10 4.97295e-06
23 *165:8 *464:12 1.17229e-05
24 *165:22 *852:B 3.23659e-06
25 *165:22 *378:29 7.64042e-07
26 *165:22 *399:10 3.35647e-06
27 *165:22 *400:12 5.63702e-07
28 *165:30 *840:B1 4.78365e-06
29 *165:30 *845:B1 1.49733e-05
30 *165:30 *845:B3 2.02632e-06
31 *165:30 *849:B 1.06925e-05
32 *165:30 *849:C 1.34271e-05
33 *165:30 *851:B 1.23111e-06
34 *165:30 *377:10 1.16013e-05
35 *165:30 *378:12 4.41323e-06
36 *165:30 *382:10 7.63254e-07
37 *165:41 *845:B1 7.91499e-06
38 *165:41 *851:B 9.80084e-07
39 *165:41 *393:10 0
40 *165:41 *395:23 1.49407e-08
41 *165:41 *396:6 5.85387e-06
42 *165:41 *397:10 0
43 *165:47 *395:23 0
44 *165:47 *397:10 1.12055e-06
45 *165:47 *397:16 1.13572e-05
46 *165:53 *385:14 1.23408e-05
47 *165:53 *385:16 5.62196e-06
48 *165:53 *385:24 3.54455e-05
49 *165:53 *388:23 8.49729e-06
50 *165:53 *395:23 0
51 *165:53 *630:44 7.71325e-06
52 *165:59 *836:A 2.92476e-07
53 *165:59 *384:8 9.91718e-06
54 *165:88 *943:B 5.49212e-07
55 *165:88 *461:10 1.4826e-06
56 *165:88 *464:12 0
57 *845:B2 *165:22 1.09169e-05
58 *847:B *165:53 2.12481e-06
59 *163:18 *838:B 0
*RES
1 *971:SN *165:8 42.2843 
2 *165:8 *165:12 23.0831 
3 *165:12 *165:16 49.8243 
4 *165:16 *165:22 35.6391 
5 *165:22 *165:24 17.2 
6 *165:24 *165:30 40.0631 
7 *165:30 *849:A 17.2 
8 *165:24 *165:41 26.6888 
9 *165:41 *165:47 49.6055 
10 *165:47 *165:53 42.5105 
11 *165:53 *165:59 46.701 
12 *165:59 *838:B 41.0446 
13 *165:47 *846:B 17.2 
14 *165:41 *851:A 24.1527 
15 *165:12 *165:88 43.4107 
16 *165:88 *943:A 17.2 
*END

*D_NET *166 0.000229674
*CONN
*I *943:B I *D XNOR2x2_ASAP7_75t_R
*I *841:A I *D XNOR2x2_ASAP7_75t_R
*I *834:A I *D XOR2x2_ASAP7_75t_R
*I *972:CON O *D HAxp5_ASAP7_75t_R
*CAP
1 *943:B 4.9406e-06
2 *841:A 5.12691e-06
3 *834:A 1.21571e-05
4 *972:CON 2.56947e-06
5 *166:22 1.7284e-05
6 *166:20 4.35115e-05
7 *166:16 6.20382e-05
8 *166:8 1.61556e-05
9 *834:A *381:14 2.19685e-06
10 *834:A *382:6 1.60115e-05
11 *834:A *659:8 0
12 *841:A *381:14 2.22736e-06
13 *841:A *659:8 0
14 *943:B *464:12 1.09842e-06
15 *166:8 *464:12 8.46363e-06
16 *166:16 *464:12 1.12894e-06
17 *166:20 *381:6 2.06079e-05
18 *166:20 *381:14 5.17782e-06
19 *166:20 *382:6 2.11853e-06
20 *972:B *943:B 4.10928e-06
21 *972:B *166:16 2.20128e-06
22 *165:88 *943:B 5.49212e-07
*RES
1 *972:CON *166:8 37.2158 
2 *166:8 *166:16 43.1556 
3 *166:16 *166:20 40.1975 
4 *166:20 *166:22 17.2 
5 *166:22 *834:A 44.2819 
6 *166:22 *841:A 38.9053 
7 *166:16 *943:B 38.9053 
*END

*D_NET *167 0.000129108
*CONN
*I *1234:A I *D BUFx3_ASAP7_75t_R
*I *833:A I *D OR2x2_ASAP7_75t_R
*I *972:SN O *D HAxp5_ASAP7_75t_R
*CAP
1 *1234:A 0
2 *833:A 0
3 *972:SN 8.06722e-06
4 *167:20 9.1975e-06
5 *167:12 2.93427e-05
6 *167:8 2.82124e-05
7 *167:8 *464:12 0
8 *167:12 *464:8 2.94369e-05
9 *167:12 *603:12 3.53857e-06
10 *167:12 *603:62 1.01102e-06
11 *167:20 *168:27 5.5349e-06
12 *167:20 *464:8 9.08513e-06
13 *167:20 *464:12 0
14 *167:20 *603:12 2.66797e-07
15 *167:20 *603:14 5.41446e-06
*RES
1 *972:SN *167:8 38.9053 
2 *167:8 *167:12 34.8492 
3 *167:12 *167:20 42.7058 
4 *167:20 *833:A 17.2 
5 *167:12 *1234:A 17.2 
*END

*D_NET *168 0.000142174
*CONN
*I *833:B I *D OR2x2_ASAP7_75t_R
*I *945:A I *D XNOR2x2_ASAP7_75t_R
*I *973:CON O *D HAxp5_ASAP7_75t_R
*CAP
1 *833:B 0
2 *945:A 0
3 *973:CON 4.79144e-06
4 *168:27 1.445e-05
5 *168:16 2.0499e-05
6 *168:6 3.97405e-05
7 *168:6 *964:CI 7.63254e-06
8 *168:16 *945:B 4.57952e-06
9 *168:16 *964:CI 2.12481e-06
10 *168:16 *659:18 9.41947e-07
11 *168:27 *603:12 2.74606e-06
12 *168:27 *659:18 3.68435e-05
13 *17:10 *168:27 0
14 *49:30 *168:6 2.28976e-06
15 *49:30 *168:27 0
16 *167:20 *168:27 5.5349e-06
*RES
1 *973:CON *168:6 23.0831 
2 *168:6 *168:16 47.9123 
3 *168:16 *945:A 17.2 
4 *168:6 *168:27 49.6055 
5 *168:27 *833:B 17.2 
*END

*D_NET *169 0.000413873
*CONN
*I *944:A I *D OR2x4_ASAP7_75t_R
*I *830:B I *D NOR2x1_ASAP7_75t_R
*I *849:C I *D OR5x1_ASAP7_75t_R
*I *829:B I *D OR4x2_ASAP7_75t_R
*I *973:SN O *D HAxp5_ASAP7_75t_R
*CAP
1 *944:A 0
2 *830:B 0
3 *849:C 1.98207e-05
4 *829:B 7.29796e-06
5 *973:SN 5.09928e-06
6 *169:53 4.19989e-05
7 *169:34 3.29269e-05
8 *169:30 2.35825e-05
9 *169:22 4.26544e-05
10 *169:18 6.52783e-05
11 *169:10 4.78549e-05
12 *829:B *376:25 1.35961e-06
13 *829:B *378:51 1.95389e-05
14 *829:B *536:25 8.27368e-06
15 *829:B *537:25 5.85387e-06
16 *849:C *379:10 3.3563e-06
17 *849:C *382:10 2.25122e-05
18 *169:22 *945:B 9.9223e-06
19 *169:30 *829:A 0
20 *169:30 *378:6 2.66797e-07
21 *169:30 *603:18 8.146e-06
22 *169:53 *376:25 5.37866e-07
23 *169:53 *378:12 6.7842e-07
24 *169:53 *378:51 8.06436e-06
25 *17:6 *169:10 5.09299e-06
26 *17:10 *169:10 2.78959e-06
27 *49:22 *169:10 1.62312e-05
28 *49:30 *169:10 1.30746e-06
29 *165:30 *849:C 1.34271e-05
*RES
1 *973:SN *169:10 40.2459 
2 *169:10 *169:18 49.0393 
3 *169:18 *169:22 32.7099 
4 *169:22 *169:30 48.054 
5 *169:30 *169:34 18.8045 
6 *169:34 *829:B 42.7625 
7 *169:34 *169:53 47.3775 
8 *169:53 *849:C 49.8286 
9 *169:30 *830:B 17.2 
10 *169:22 *944:A 17.2 
*END

*D_NET *170 0.000203401
*CONN
*I *812:A I *D XNOR2x2_ASAP7_75t_R
*I *974:CON O *D HAxp5_ASAP7_75t_R
*CAP
1 *812:A 0
2 *974:CON 9.86488e-06
3 *170:18 3.87704e-06
4 *170:12 7.10761e-05
5 *170:10 6.71991e-05
6 *170:8 9.86488e-06
7 *170:12 *812:B 2.7925e-05
8 *170:12 *361:8 1.28104e-05
9 *170:18 *360:8 0
10 *974:B *170:8 7.84037e-07
*RES
1 *974:CON *170:8 42.2843 
2 *170:8 *170:10 17.2 
3 *170:10 *170:12 46.5298 
4 *170:12 *170:18 37.2158 
5 *170:18 *812:A 17.2 
*END

*D_NET *171 0.000439832
*CONN
*I *1232:A I *D BUFx3_ASAP7_75t_R
*I *813:A I *D OR3x1_ASAP7_75t_R
*I *974:SN O *D HAxp5_ASAP7_75t_R
*CAP
1 *1232:A 0
2 *813:A 0
3 *974:SN 8.97291e-06
4 *171:30 1.80893e-05
5 *171:22 7.11456e-05
6 *171:18 7.14988e-05
7 *171:12 7.88412e-05
8 *171:10 6.03987e-05
9 *171:8 8.97291e-06
10 *171:12 *941:B 2.03526e-06
11 *171:12 *512:6 1.55843e-05
12 *171:18 *357:31 7.32245e-06
13 *171:18 *358:8 2.04071e-05
14 *171:18 *359:10 1.83664e-05
15 *171:18 *601:18 8.06799e-07
16 *171:30 *345:18 8.33296e-06
17 *171:30 *362:6 2.52755e-07
18 *1014:A *171:12 8.87763e-06
19 *1143:A *171:12 3.33273e-05
20 *16:10 *171:8 3.95845e-06
21 *113:10 *171:12 2.6409e-06
*RES
1 *974:SN *171:8 40.0317 
2 *171:8 *171:10 17.2 
3 *171:10 *171:12 43.3208 
4 *171:12 *171:18 34.2897 
5 *171:18 *171:22 47.685 
6 *171:22 *171:30 47.8593 
7 *171:30 *813:A 17.2 
8 *171:12 *1232:A 17.2 
*END

*D_NET *172 3.62407e-05
*CONN
*I *808:A I *D XOR2x2_ASAP7_75t_R
*I *975:CON O *D HAxp5_ASAP7_75t_R
*CAP
1 *808:A 0
2 *975:CON 1.60019e-05
3 *172:10 1.60019e-05
4 *172:10 *941:B 1.67815e-06
5 *172:10 *356:8 2.68933e-07
6 *975:A *172:10 0
7 *975:B *172:10 2.28976e-06
*RES
1 *975:CON *172:10 44.8451 
2 *172:10 *808:A 34.4 
*END

*D_NET *173 0.000188603
*CONN
*I *1230:A I *D BUFx3_ASAP7_75t_R
*I *799:A I *D OR3x1_ASAP7_75t_R
*I *804:A I *D INVx1_ASAP7_75t_R
*I *975:SN O *D HAxp5_ASAP7_75t_R
*CAP
1 *1230:A 3.7703e-06
2 *799:A 0
3 *804:A 1.33275e-05
4 *975:SN 6.58872e-06
5 *173:29 8.30596e-06
6 *173:14 7.96901e-05
7 *173:8 6.84157e-05
8 *804:A *807:A 5.19552e-07
9 *173:14 *807:A 2.66797e-07
10 *173:14 *354:12 1.56713e-06
11 *173:14 *599:8 6.33206e-07
12 *173:29 *347:53 5.51814e-06
13 *47:8 *173:8 0
*RES
1 *975:SN *173:8 38.9053 
2 *173:8 *173:14 46.3356 
3 *173:14 *804:A 23.0831 
4 *173:14 *173:29 39.975 
5 *173:29 *799:A 17.2 
6 *173:8 *1230:A 38.1438 
*END

*D_NET *174 0.000201846
*CONN
*I *806:B I *D OAI21x1_ASAP7_75t_R
*I *805:A I *D OR3x1_ASAP7_75t_R
*I *1253:A I *D BUFx3_ASAP7_75t_R
*I *976:CON O *D HAxp5_ASAP7_75t_R
*CAP
1 *806:B 5.0734e-06
2 *805:A 7.42952e-06
3 *1253:A 1.54186e-05
4 *976:CON 1.25559e-05
5 *174:25 1.25029e-05
6 *174:23 4.10019e-05
7 *174:8 6.89764e-05
8 *805:A *806:A2 4.7341e-06
9 *805:A *176:19 1.908e-06
10 *805:A *347:12 0
11 *805:A *347:53 9.81516e-06
12 *806:B *806:A2 3.47607e-06
13 *806:B *347:53 6.8435e-06
14 *174:8 *175:14 2.18135e-06
15 *174:8 *599:8 0
16 *174:8 *622:8 0
17 *174:23 *806:A2 2.03526e-06
18 *174:23 *175:14 7.34229e-06
19 *174:23 *175:18 5.51397e-07
20 *46:14 *174:8 0
*RES
1 *976:CON *174:8 44.537 
2 *174:8 *1253:A 42.6491 
3 *174:8 *174:23 35.9189 
4 *174:23 *174:25 17.2 
5 *174:25 *805:A 41.1013 
6 *174:25 *806:B 38.8203 
*END

*D_NET *175 0.000321651
*CONN
*I *806:A1 I *D OAI21x1_ASAP7_75t_R
*I *799:B I *D OR3x1_ASAP7_75t_R
*I *1229:A I *D BUFx3_ASAP7_75t_R
*I *805:B I *D OR3x1_ASAP7_75t_R
*I *976:SN O *D HAxp5_ASAP7_75t_R
*CAP
1 *806:A1 0
2 *799:B 7.84349e-06
3 *1229:A 5.0148e-06
4 *805:B 3.82896e-06
5 *976:SN 3.13421e-06
6 *175:37 2.32552e-05
7 *175:22 2.89987e-05
8 *175:18 1.99865e-05
9 *175:14 2.96971e-05
10 *175:8 2.76176e-05
11 *799:B *177:44 2.0153e-05
12 *799:B *347:53 2.43534e-06
13 *1229:A *456:10 6.78445e-06
14 *175:14 *354:12 0
15 *175:14 *355:10 2.20493e-06
16 *175:18 *806:A2 1.95129e-06
17 *175:18 *355:10 7.63254e-07
18 *175:22 *806:A2 1.96231e-05
19 *175:22 *176:19 1.15587e-05
20 *175:22 *177:44 3.27946e-05
21 *175:22 *347:53 2.83874e-07
22 *175:37 *177:44 2.25787e-06
23 *175:37 *624:23 8.58704e-06
24 *976:A *175:8 2.6401e-05
25 *46:14 *175:8 2.6401e-05
26 *46:14 *175:14 0
27 *174:8 *175:14 2.18135e-06
28 *174:23 *175:14 7.34229e-06
29 *174:23 *175:18 5.51397e-07
*RES
1 *976:SN *175:8 42.4224 
2 *175:8 *175:14 36.429 
3 *175:14 *175:18 19.8741 
4 *175:18 *175:22 28.4633 
5 *175:22 *805:B 18.8045 
6 *175:22 *175:37 47.0977 
7 *175:37 *1229:A 22.0134 
8 *175:18 *799:B 42.7625 
9 *175:14 *806:A1 17.2 
*END

*D_NET *176 0.000256774
*CONN
*I *806:A2 I *D OAI21x1_ASAP7_75t_R
*I *805:C I *D OR3x1_ASAP7_75t_R
*I *1255:A I *D BUFx3_ASAP7_75t_R
*I *977:CON O *D HAxp5_ASAP7_75t_R
*CAP
1 *806:A2 7.76316e-06
2 *805:C 6.21051e-06
3 *1255:A 7.32391e-06
4 *977:CON 1.80808e-05
5 *176:19 3.8951e-05
6 *176:8 5.0382e-05
7 *176:8 *177:10 0
8 *176:8 *347:24 1.65126e-05
9 *176:19 *177:10 0
10 *176:19 *177:29 8.36938e-06
11 *176:19 *177:44 7.10297e-06
12 *176:19 *347:12 0
13 *176:19 *347:18 1.96231e-05
14 *176:19 *347:24 2.90014e-05
15 *176:19 *624:8 2.1664e-06
16 *805:A *806:A2 4.7341e-06
17 *805:A *176:19 1.908e-06
18 *806:B *806:A2 3.47607e-06
19 *174:23 *806:A2 2.03526e-06
20 *175:18 *806:A2 1.95129e-06
21 *175:22 *806:A2 1.96231e-05
22 *175:22 *176:19 1.15587e-05
*RES
1 *977:CON *176:8 49.6055 
2 *176:8 *1255:A 38.1438 
3 *176:8 *176:19 28.1583 
4 *176:19 *805:C 36.5393 
5 *176:19 *806:A2 42.7625 
*END

*D_NET *177 0.000320901
*CONN
*I *799:C I *D OR3x1_ASAP7_75t_R
*I *935:B I *D OR3x1_ASAP7_75t_R
*I *936:A1 I *D OAI21x1_ASAP7_75t_R
*I *977:SN O *D HAxp5_ASAP7_75t_R
*CAP
1 *799:C 0
2 *935:B 8.63469e-07
3 *936:A1 2.75748e-06
4 *977:SN 4.56906e-06
5 *177:44 2.3078e-05
6 *177:29 4.42433e-05
7 *177:10 5.02746e-05
8 *177:8 3.17843e-05
9 *935:B *935:C 1.44167e-06
10 *935:B *624:23 3.68287e-06
11 *936:A1 *936:B 5.85387e-06
12 *177:10 *598:10 0
13 *177:10 *598:14 0
14 *177:10 *624:8 1.34329e-05
15 *177:29 *937:A 1.27802e-05
16 *177:29 *624:8 3.22574e-06
17 *177:29 *624:23 1.95087e-05
18 *177:44 *347:53 0
19 *177:44 *354:12 1.04198e-05
20 *177:44 *355:10 2.04071e-05
21 *177:44 *624:23 1.89962e-06
22 *799:B *177:44 2.0153e-05
23 *175:22 *177:44 3.27946e-05
24 *175:37 *177:44 2.25787e-06
25 *176:8 *177:10 0
26 *176:19 *177:10 0
27 *176:19 *177:29 8.36938e-06
28 *176:19 *177:44 7.10297e-06
*RES
1 *977:SN *177:8 36.0045 
2 *177:8 *177:10 21.4003 
3 *177:10 *936:A1 36.0045 
4 *177:10 *177:29 49.9703 
5 *177:29 *935:B 35.4697 
6 *177:29 *177:44 44.1753 
7 *177:44 *799:C 17.2 
*END

*D_NET *178 0.00041609
*CONN
*I *1260:A I *D BUFx3_ASAP7_75t_R
*I *800:A I *D NOR2x1_ASAP7_75t_R
*I *802:A I *D INVx1_ASAP7_75t_R
*I *978:CON O *D HAxp5_ASAP7_75t_R
*CAP
1 *1260:A 0
2 *800:A 0
3 *802:A 1.53558e-05
4 *978:CON 0
5 *178:41 2.56049e-05
6 *178:26 6.09013e-05
7 *178:18 6.67363e-05
8 *178:16 5.0561e-05
9 *178:12 4.21761e-05
10 *178:6 3.84109e-05
11 *802:A *348:25 1.04405e-05
12 *802:A *348:33 6.7842e-07
13 *178:12 *179:20 8.21855e-06
14 *178:12 *452:6 1.4417e-05
15 *178:12 *452:10 0
16 *178:12 *453:10 5.2006e-06
17 *178:16 *452:6 3.65131e-06
18 *178:18 *338:10 6.65157e-06
19 *178:18 *338:25 1.64764e-06
20 *178:18 *342:10 0
21 *178:18 *342:18 1.09067e-06
22 *178:18 *342:33 7.75e-06
23 *178:18 *550:8 1.22048e-05
24 *178:18 *629:8 0
25 *178:26 *338:25 0
26 *178:26 *338:27 0
27 *178:26 *342:33 0
28 *178:26 *349:8 5.68573e-06
29 *178:26 *350:10 1.00799e-05
30 *178:41 *1175:A 4.55339e-06
31 *178:41 *348:33 2.68933e-07
32 *178:41 *348:41 0
33 *178:41 *349:8 1.05707e-05
34 *178:41 *350:10 1.24703e-05
35 *44:10 *178:12 7.64042e-07
*RES
1 *978:CON *178:6 34.4 
2 *178:6 *178:12 49.8883 
3 *178:12 *178:16 19.8741 
4 *178:16 *178:18 38.8585 
5 *178:18 *178:26 48.9006 
6 *178:26 *802:A 42.4224 
7 *178:26 *178:41 37.6687 
8 *178:41 *800:A 17.2 
9 *178:12 *1260:A 17.2 
*END

*D_NET *179 0.000428137
*CONN
*I *1227:A I *D BUFx3_ASAP7_75t_R
*I *792:C I *D OR5x1_ASAP7_75t_R
*I *795:D I *D OR4x1_ASAP7_75t_R
*I *787:B I *D OR2x2_ASAP7_75t_R
*I *978:SN O *D HAxp5_ASAP7_75t_R
*CAP
1 *1227:A 0
2 *792:C 0
3 *795:D 9.21995e-06
4 *787:B 3.19142e-06
5 *978:SN 0
6 *179:50 1.41181e-05
7 *179:26 1.60353e-05
8 *179:22 6.44469e-05
9 *179:20 5.76721e-05
10 *179:12 3.75548e-05
11 *179:6 2.65876e-05
12 *787:B *655:23 0
13 *795:D *788:B 5.36731e-06
14 *795:D *795:B 3.68287e-06
15 *795:D *185:28 3.68287e-06
16 *795:D *594:8 0
17 *795:D *655:23 0
18 *179:12 *452:6 5.25794e-06
19 *179:12 *452:10 5.2081e-05
20 *179:12 *596:8 4.45472e-06
21 *179:20 *452:6 2.12481e-06
22 *179:20 *452:10 1.10561e-06
23 *179:22 *930:A 1.4252e-05
24 *179:22 *1259:A 2.60541e-05
25 *179:22 *337:8 5.34278e-06
26 *179:50 *180:23 4.7771e-05
27 *179:50 *181:22 1.58381e-05
28 *179:50 *340:10 2.05284e-06
29 *179:50 *594:8 0
30 *109:10 *179:12 2.02432e-06
31 *178:12 *179:20 8.21855e-06
*RES
1 *978:SN *179:6 34.4 
2 *179:6 *179:12 43.4137 
3 *179:12 *179:20 42.7625 
4 *179:20 *179:22 36.9029 
5 *179:22 *179:26 18.8045 
6 *179:26 *787:B 38.3422 
7 *179:26 *795:D 42.2276 
8 *179:22 *179:50 35.7845 
9 *179:50 *792:C 34.4 
10 *179:12 *1227:A 17.2 
*END

*D_NET *180 0.00028459
*CONN
*I *1259:A I *D BUFx3_ASAP7_75t_R
*I *787:A I *D OR2x2_ASAP7_75t_R
*I *789:A I *D INVx1_ASAP7_75t_R
*I *979:CON O *D HAxp5_ASAP7_75t_R
*CAP
1 *1259:A 2.64306e-05
2 *787:A 0
3 *789:A 2.69067e-05
4 *979:CON 1.15176e-05
5 *180:23 4.20093e-05
6 *180:10 5.4003e-05
7 *789:A *792:D 0
8 *789:A *181:22 5.84952e-07
9 *180:10 *792:E 1.1274e-06
10 *180:10 *181:12 1.2583e-05
11 *180:10 *341:14 6.19506e-06
12 *180:23 *181:12 2.94072e-05
13 *180:23 *594:8 0
14 *179:22 *1259:A 2.60541e-05
15 *179:50 *180:23 4.7771e-05
*RES
1 *979:CON *180:10 42.7625 
2 *180:10 *789:A 45.6313 
3 *180:10 *180:23 35.7845 
4 *180:23 *787:A 17.2 
5 *180:23 *1259:A 35.9189 
*END

*D_NET *181 0.000165414
*CONN
*I *1226:A I *D BUFx3_ASAP7_75t_R
*I *1225:A I *D BUFx3_ASAP7_75t_R
*I *792:B I *D OR5x1_ASAP7_75t_R
*I *979:SN O *D HAxp5_ASAP7_75t_R
*CAP
1 *1226:A 1.22602e-06
2 *1225:A 0
3 *792:B 0
4 *979:SN 9.47564e-07
5 *181:22 1.47467e-05
6 *181:12 2.74304e-05
7 *181:6 1.48573e-05
8 *1226:A *341:14 4.06202e-06
9 *181:6 *341:14 4.07212e-06
10 *181:12 *792:E 1.95177e-05
11 *181:22 *792:D 4.06202e-06
12 *181:22 *340:10 6.32217e-06
13 *789:A *181:22 5.84952e-07
14 *10:6 *1226:A 5.85387e-06
15 *10:6 *181:6 3.90258e-06
16 *179:50 *181:22 1.58381e-05
17 *180:10 *181:12 1.2583e-05
18 *180:23 *181:12 2.94072e-05
*RES
1 *979:SN *181:6 18.2696 
2 *181:6 *181:12 48.4791 
3 *181:12 *181:22 44.8451 
4 *181:22 *792:B 17.2 
5 *181:12 *1225:A 17.2 
6 *181:6 *1226:A 18.8045 
*END

*D_NET *182 0.000284166
*CONN
*I *1258:A I *D BUFx3_ASAP7_75t_R
*I *790:A I *D NOR3x1_ASAP7_75t_R
*I *791:B I *D OA21x2_ASAP7_75t_R
*I *980:CON O *D HAxp5_ASAP7_75t_R
*CAP
1 *1258:A 8.2104e-06
2 *790:A 1.29593e-05
3 *791:B 0
4 *980:CON 9.60935e-06
5 *182:27 2.9892e-05
6 *182:18 2.51303e-05
7 *182:14 6.04725e-05
8 *182:10 5.36739e-05
9 *790:A *655:12 1.02895e-05
10 *790:A *655:23 6.19506e-06
11 *1258:A *184:10 1.50299e-06
12 *1258:A *627:10 1.64764e-06
13 *1258:A *655:23 2.98814e-08
14 *182:18 *341:8 9.80084e-07
15 *182:18 *655:8 1.64226e-05
16 *182:27 *791:A2 5.9563e-06
17 *182:27 *655:8 3.03713e-05
18 *90:15 *182:10 5.26051e-06
19 *106:12 *182:10 5.56217e-06
*RES
1 *980:CON *182:10 41.5795 
2 *182:10 *182:14 33.7796 
3 *182:14 *182:18 31.2792 
4 *182:18 *791:B 34.4 
5 *182:18 *182:27 11.2633 
6 *182:27 *790:A 41.3527 
7 *182:27 *1258:A 40.0317 
*END

*D_NET *183 0.000169551
*CONN
*I *1228:A I *D BUFx3_ASAP7_75t_R
*I *791:A1 I *D OA21x2_ASAP7_75t_R
*I *1286:A I *D BUFx3_ASAP7_75t_R
*I *980:SN O *D HAxp5_ASAP7_75t_R
*CAP
1 *1228:A 5.89218e-06
2 *791:A1 2.42897e-05
3 *1286:A 2.21419e-05
4 *980:SN 0
5 *183:19 3.38619e-05
6 *183:6 2.58219e-05
7 *791:A1 *1224:A 3.05245e-06
8 *1228:A *593:8 1.32768e-05
9 *8:8 *1286:A 1.48593e-05
10 *8:10 *1228:A 5.2059e-06
11 *8:10 *1286:A 5.63702e-07
12 *8:10 *183:19 4.83654e-06
13 *106:12 *1228:A 8.98366e-06
14 *106:12 *1286:A 2.24968e-06
15 *106:12 *183:19 4.51562e-06
*RES
1 *980:SN *183:6 34.4 
2 *183:6 *1286:A 46.2512 
3 *183:6 *183:19 4.50533 
4 *183:19 *791:A1 46.1661 
5 *183:19 *1228:A 43.4107 
*END

*D_NET *184 0.000251957
*CONN
*I *1257:A I *D BUFx3_ASAP7_75t_R
*I *790:C I *D NOR3x1_ASAP7_75t_R
*I *791:A2 I *D OA21x2_ASAP7_75t_R
*I *981:CON O *D HAxp5_ASAP7_75t_R
*CAP
1 *1257:A 0
2 *790:C 5.04798e-06
3 *791:A2 1.75936e-05
4 *981:CON 1.04922e-05
5 *184:36 3.66215e-05
6 *184:10 4.38771e-05
7 *184:8 6.83492e-05
8 *184:8 *185:12 9.34096e-06
9 *184:8 *655:50 1.16945e-06
10 *184:10 *185:20 4.64191e-07
11 *184:36 *591:8 8.58188e-06
12 *184:36 *626:6 9.34096e-06
13 *184:36 *626:10 7.75665e-06
14 *184:36 *655:50 4.64191e-07
15 *184:36 *655:58 1.59919e-05
16 *184:36 *663:6 9.406e-06
17 *1258:A *184:10 1.50299e-06
18 *182:27 *791:A2 5.9563e-06
*RES
1 *981:CON *184:8 41.3527 
2 *184:8 *184:10 14.0792 
3 *184:10 *791:A2 46.6763 
4 *184:10 *790:C 36.0045 
5 *184:8 *184:36 44.8198 
6 *184:36 *1257:A 17.2 
*END

*D_NET *185 0.000251542
*CONN
*I *924:A I *D OR2x2_ASAP7_75t_R
*I *795:C I *D OR4x1_ASAP7_75t_R
*I *981:SN O *D HAxp5_ASAP7_75t_R
*CAP
1 *924:A 0
2 *795:C 0
3 *981:SN 0
4 *185:37 3.20527e-05
5 *185:28 1.6798e-05
6 *185:20 4.05563e-05
7 *185:12 5.59149e-05
8 *185:6 6.42093e-05
9 *185:12 *655:50 6.7842e-07
10 *185:12 *655:58 2.25464e-07
11 *185:20 *627:10 3.79923e-06
12 *185:28 *795:B 1.12037e-05
13 *185:28 *335:8 1.14488e-05
14 *185:37 *655:58 1.16711e-06
15 *795:D *185:28 3.68287e-06
16 *142:8 *185:37 0
17 *184:8 *185:12 9.34096e-06
18 *184:10 *185:20 4.64191e-07
*RES
1 *981:SN *185:6 34.4 
2 *185:6 *185:12 33.5565 
3 *185:12 *185:20 44.7317 
4 *185:20 *185:28 49.1237 
5 *185:28 *795:C 17.2 
6 *185:6 *185:37 38.6003 
7 *185:37 *924:A 17.2 
*END

*D_NET *186 0.000499374
*CONN
*I *751:A I *D NAND3x1_ASAP7_75t_R
*I *752:B I *D AO21x1_ASAP7_75t_R
*I *764:A I *D INVx1_ASAP7_75t_R
*I *982:CON O *D HAxp5_ASAP7_75t_R
*CAP
1 *751:A 1.02187e-05
2 *752:B 1.3222e-05
3 *764:A 0
4 *982:CON 4.0238e-05
5 *186:19 2.6989e-05
6 *186:10 5.55322e-05
7 *186:8 5.19839e-05
8 *186:6 4.0238e-05
9 *751:A *283:26 1.82715e-05
10 *751:A *301:25 2.03526e-06
11 *752:B *752:A2 5.62196e-06
12 *752:B *297:19 1.62312e-05
13 *752:B *297:27 1.59615e-06
14 *752:B *303:8 6.92634e-06
15 *186:10 *919:B 8.81791e-06
16 *186:10 *192:10 0
17 *186:10 *283:26 0.000123226
18 *186:10 *315:8 5.97901e-06
19 *186:10 *503:8 3.97462e-05
20 *186:19 *283:26 1.39483e-05
21 *186:19 *297:27 1.34466e-06
22 *186:19 *315:8 7.84037e-07
23 *139:10 *751:A 0
24 *139:10 *186:19 0
25 *139:18 *186:10 0
26 *140:8 *186:10 1.64226e-05
*RES
1 *982:CON *186:6 39.1278 
2 *186:6 *186:8 17.2 
3 *186:8 *186:10 65.8904 
4 *186:10 *764:A 34.4 
5 *186:10 *186:19 5.06849 
6 *186:19 *752:B 44.0269 
7 *186:19 *751:A 42.7625 
*END

*D_NET *187 0.000226099
*CONN
*I *1223:A I *D BUFx3_ASAP7_75t_R
*I *732:D I *D OR4x2_ASAP7_75t_R
*I *982:SN O *D HAxp5_ASAP7_75t_R
*CAP
1 *1223:A 0
2 *732:D 0
3 *982:SN 8.59109e-06
4 *187:35 6.80856e-06
5 *187:29 5.23039e-05
6 *187:16 5.35219e-05
7 *187:14 2.46233e-05
8 *187:8 2.51878e-05
9 *187:14 *191:23 6.49184e-07
10 *187:14 *660:8 1.65819e-05
11 *187:16 *660:14 2.27635e-05
12 *187:29 *283:10 0
13 *187:29 *660:14 1.50678e-05
14 *187:35 *188:8 0
15 *187:35 *191:10 0
*RES
1 *982:SN *187:8 40.0317 
2 *187:8 *187:14 45.6313 
3 *187:14 *187:16 7.88432 
4 *187:16 *732:D 34.4 
5 *187:16 *187:29 36.7088 
6 *187:29 *187:35 38.9053 
7 *187:35 *1223:A 17.2 
*END

*D_NET *188 0.000149421
*CONN
*I *1256:A I *D BUFx3_ASAP7_75t_R
*I *747:A I *D INVx1_ASAP7_75t_R
*I *983:CON O *D HAxp5_ASAP7_75t_R
*CAP
1 *1256:A 1.07982e-05
2 *747:A 0
3 *983:CON 0
4 *188:8 6.89247e-05
5 *188:6 5.81266e-05
6 *1256:A *298:8 3.05302e-06
7 *1256:A *589:10 0
8 *1256:A *592:23 0
9 *188:8 *1220:A 0
10 *188:8 *231:13 1.51111e-06
11 *188:8 *283:10 2.85858e-07
12 *188:8 *592:10 0
13 *188:8 *592:23 0
14 *188:8 *602:12 0
15 *188:8 *654:10 0
16 *188:8 *654:51 1.37303e-06
17 *188:8 *660:14 0
18 *6:8 *188:8 5.3483e-06
19 *187:35 *188:8 0
*RES
1 *983:CON *188:6 34.4 
2 *188:6 *188:8 41.6743 
3 *188:8 *747:A 34.4 
4 *188:8 *1256:A 42.5641 
*END

*D_NET *189 0.000160848
*CONN
*I *1221:A I *D BUFx3_ASAP7_75t_R
*I *732:C I *D OR4x2_ASAP7_75t_R
*I *983:SN O *D HAxp5_ASAP7_75t_R
*CAP
1 *1221:A 0
2 *732:C 2.11079e-06
3 *983:SN 1.15994e-05
4 *189:29 1.93467e-05
5 *189:10 4.02064e-05
6 *189:8 3.03483e-05
7 *189:10 *191:23 9.56269e-06
8 *189:10 *193:19 1.13115e-06
9 *189:10 *660:14 3.60403e-05
10 *189:29 *732:A 1.885e-06
11 *189:29 *654:59 7.84037e-07
12 *189:29 *660:14 7.34823e-06
13 *39:8 *189:10 4.84697e-07
*RES
1 *983:SN *189:8 40.2831 
2 *189:8 *189:10 17.4581 
3 *189:10 *732:C 35.4697 
4 *189:10 *189:29 45.4649 
5 *189:29 *1221:A 34.4 
*END

*D_NET *190 0.000179935
*CONN
*I *1254:A I *D BUFx3_ASAP7_75t_R
*I *749:B I *D OA21x2_ASAP7_75t_R
*I *748:A I *D NOR3x1_ASAP7_75t_R
*I *984:CON O *D HAxp5_ASAP7_75t_R
*CAP
1 *1254:A 1.92738e-05
2 *749:B 8.46912e-06
3 *748:A 1.24921e-06
4 *984:CON 0
5 *190:19 3.03775e-05
6 *190:8 3.09634e-05
7 *190:6 2.70796e-05
8 *748:A *654:20 2.12481e-06
9 *749:B *192:12 3.05302e-06
10 *749:B *192:20 1.03556e-05
11 *749:B *192:22 5.09299e-06
12 *749:B *299:6 2.29378e-05
13 *749:B *654:20 1.56713e-06
14 *1254:A *1220:A 0
15 *1254:A *192:35 0
16 *190:8 *191:10 1.62617e-05
17 *190:8 *654:10 0
18 *190:8 *654:20 1.12894e-06
*RES
1 *984:CON *190:6 34.4 
2 *190:6 *190:8 23.653 
3 *190:8 *748:A 36.0045 
4 *190:8 *190:19 1.6895 
5 *190:19 *749:B 46.701 
6 *190:19 *1254:A 45.9714 
*END

*D_NET *191 0.000213863
*CONN
*I *732:B I *D OR4x2_ASAP7_75t_R
*I *1285:A I *D BUFx3_ASAP7_75t_R
*I *984:SN O *D HAxp5_ASAP7_75t_R
*CAP
1 *732:B 0
2 *1285:A 9.03638e-06
3 *984:SN 0
4 *191:23 7.1074e-05
5 *191:10 2.21643e-05
6 *191:4 8.42019e-05
7 *191:23 *193:19 9.13141e-07
8 *187:14 *191:23 6.49184e-07
9 *187:35 *191:10 0
10 *189:10 *191:23 9.56269e-06
11 *190:8 *191:10 1.62617e-05
*RES
1 *984:SN *191:4 17.2 
2 *191:4 *191:10 47.3528 
3 *191:10 *1285:A 22.0134 
4 *191:4 *191:23 43.5765 
5 *191:23 *732:B 34.4 
*END

*D_NET *192 0.000355883
*CONN
*I *749:A2 I *D OA21x2_ASAP7_75t_R
*I *1252:A I *D BUFx3_ASAP7_75t_R
*I *748:C I *D NOR3x1_ASAP7_75t_R
*I *985:CON O *D HAxp5_ASAP7_75t_R
*CAP
1 *749:A2 0
2 *1252:A 0
3 *748:C 8.93219e-06
4 *985:CON 0
5 *192:35 1.66839e-05
6 *192:22 5.09175e-05
7 *192:20 4.28247e-05
8 *192:12 6.75838e-05
9 *192:10 7.5831e-05
10 *192:6 2.57705e-05
11 *192:10 *283:22 0
12 *192:10 *283:26 0
13 *192:10 *590:25 0
14 *192:12 *750:A 7.63254e-06
15 *192:12 *750:B 1.1488e-05
16 *192:12 *750:C 5.85387e-06
17 *192:12 *299:6 5.80418e-06
18 *192:12 *301:8 1.26378e-06
19 *192:20 *749:A1 3.89037e-06
20 *192:20 *654:20 1.23408e-05
21 *192:22 *654:20 0
22 *192:35 *623:12 0
23 *749:B *192:12 3.05302e-06
24 *749:B *192:20 1.03556e-05
25 *749:B *192:22 5.09299e-06
26 *985:B *192:10 5.63702e-07
27 *1254:A *192:35 0
28 *186:10 *192:10 0
*RES
1 *985:CON *192:6 34.4 
2 *192:6 *192:10 34.6581 
3 *192:10 *192:12 34.2288 
4 *192:12 *192:20 46.956 
5 *192:20 *192:22 11.2313 
6 *192:22 *748:C 20.9438 
7 *192:22 *192:35 47.3528 
8 *192:35 *1252:A 17.2 
9 *192:12 *749:A2 17.2 
*END

*D_NET *193 0.00013282
*CONN
*I *1291:A I *D BUFx3_ASAP7_75t_R
*I *732:A I *D OR4x2_ASAP7_75t_R
*I *985:SN O *D HAxp5_ASAP7_75t_R
*CAP
1 *1291:A 0
2 *732:A 3.68629e-06
3 *985:SN 3.76342e-05
4 *193:19 1.16926e-05
5 *193:6 5.3013e-05
6 *193:19 *283:22 0
7 *985:A *193:6 1.70643e-05
8 *985:B *193:6 5.80001e-06
9 *189:10 *193:19 1.13115e-06
10 *189:29 *732:A 1.885e-06
11 *191:23 *193:19 9.13141e-07
*RES
1 *985:SN *193:6 38.593 
2 *193:6 *732:A 19.3393 
3 *193:6 *193:19 42.2843 
4 *193:19 *1291:A 17.2 
*END

*D_NET *194 0.000242998
*CONN
*I *1251:A I *D BUFx3_ASAP7_75t_R
*I *738:A I *D INVx1_ASAP7_75t_R
*I *986:CON O *D HAxp5_ASAP7_75t_R
*CAP
1 *1251:A 6.92408e-06
2 *738:A 0
3 *986:CON 7.3123e-06
4 *194:28 3.56149e-05
5 *194:26 2.97342e-05
6 *194:20 1.86648e-05
7 *194:12 3.7926e-05
8 *194:8 2.76169e-05
9 *1251:A *289:6 3.05302e-06
10 *194:8 *209:12 7.54709e-06
11 *194:8 *576:8 0
12 *194:8 *576:34 0
13 *194:12 *689:D 2.29378e-05
14 *194:12 *1178:A 4.57952e-06
15 *194:12 *576:34 8.31096e-06
16 *194:20 *226:27 0
17 *194:20 *240:12 0
18 *194:20 *242:16 8.57803e-06
19 *194:26 *240:12 6.58426e-06
20 *194:26 *548:14 6.33018e-06
21 *194:28 *1179:A 3.3921e-06
22 *194:28 *548:8 7.8915e-06
*RES
1 *986:CON *194:8 41.158 
2 *194:8 *194:12 34.8492 
3 *194:12 *194:20 41.0599 
4 *194:20 *194:26 36.5588 
5 *194:26 *194:28 18.7189 
6 *194:28 *738:A 17.2 
7 *194:28 *1251:A 22.5483 
*END

*D_NET *195 0.000326487
*CONN
*I *1215:A I *D BUFx3_ASAP7_75t_R
*I *986:SN O *D HAxp5_ASAP7_75t_R
*CAP
1 *1215:A 1.13534e-05
2 *986:SN 4.45507e-05
3 *195:10 4.04198e-05
4 *195:6 7.36171e-05
5 *195:6 *548:14 6.16795e-05
6 *195:10 *691:A2 1.67815e-06
7 *195:10 *229:10 8.54172e-06
8 *195:10 *239:10 2.83874e-07
9 *195:10 *242:18 0
10 *195:10 *262:8 0
11 *195:10 *263:8 6.84229e-05
12 *195:10 *548:14 4.83862e-06
13 *195:10 *644:25 8.79717e-06
14 *133:6 *1215:A 2.30405e-06
*RES
1 *986:SN *195:6 41.2671 
2 *195:6 *195:10 46.4846 
3 *195:10 *1215:A 40.2831 
*END

*D_NET *196 0.000405458
*CONN
*I *1293:A I *D BUFx3_ASAP7_75t_R
*I *734:A I *D OR2x2_ASAP7_75t_R
*I *730:A I *D AND5x1_ASAP7_75t_R
*I *728:A I *D NOR2x1_ASAP7_75t_R
*I *1249:A I *D BUFx3_ASAP7_75t_R
*I *987:CON O *D HAxp5_ASAP7_75t_R
*CAP
1 *1293:A 1.4263e-05
2 *734:A 2.05902e-06
3 *730:A 1.0111e-05
4 *728:A 6.55566e-06
5 *1249:A 1.18198e-05
6 *987:CON 5.74377e-06
7 *196:27 2.09011e-05
8 *196:23 2.67432e-05
9 *196:14 3.98154e-05
10 *196:10 8.61514e-05
11 *196:8 7.00864e-05
12 *728:A *258:16 3.32579e-06
13 *728:A *584:29 0
14 *728:A *587:51 7.24542e-06
15 *730:A *730:C 2.68404e-05
16 *730:A *285:6 7.63254e-06
17 *196:8 *197:8 3.13426e-06
18 *196:10 *960:CI 2.77657e-06
19 *196:10 *197:10 8.66562e-06
20 *196:10 *197:16 3.24214e-06
21 *196:10 *310:10 9.20349e-06
22 *196:10 *433:8 1.67893e-05
23 *196:10 *584:29 2.1664e-06
24 *196:14 *310:18 6.6421e-06
25 *196:14 *584:29 5.52807e-07
26 *196:27 *584:29 0
27 *904:B *196:10 1.89962e-06
28 *989:B *196:8 5.41446e-06
29 *1165:A *196:10 5.67735e-06
30 *34:20 *196:10 0
*RES
1 *987:CON *196:8 39.2134 
2 *196:8 *196:10 53.5008 
3 *196:10 *196:14 22.8317 
4 *196:14 *1249:A 23.0831 
5 *196:14 *196:23 11.2313 
6 *196:23 *196:27 20.0158 
7 *196:27 *728:A 41.158 
8 *196:27 *730:A 45.6313 
9 *196:23 *734:A 18.8045 
10 *196:10 *1293:A 42.4224 
*END

*D_NET *197 0.000231191
*CONN
*I *1216:A I *D BUFx3_ASAP7_75t_R
*I *753:A I *D OR4x1_ASAP7_75t_R
*I *987:SN O *D HAxp5_ASAP7_75t_R
*CAP
1 *1216:A 4.15434e-06
2 *753:A 0
3 *987:SN 1.80585e-05
4 *197:16 1.75321e-05
5 *197:10 5.54106e-05
6 *197:8 5.17826e-05
7 *197:10 *960:CI 9.8079e-06
8 *197:10 *200:8 0
9 *197:10 *200:14 0
10 *197:10 *201:12 0
11 *197:10 *201:23 2.66045e-05
12 *197:16 *753:B 3.05302e-06
13 *197:16 *753:D 6.7842e-07
14 *197:16 *201:23 2.67279e-05
15 *197:16 *653:12 1.56713e-06
16 *989:B *197:8 7.72307e-07
17 *196:8 *197:8 3.13426e-06
18 *196:10 *197:10 8.66562e-06
19 *196:10 *197:16 3.24214e-06
*RES
1 *987:SN *197:8 42.4224 
2 *197:8 *197:10 29.8478 
3 *197:10 *197:16 33.2767 
4 *197:16 *753:A 17.2 
5 *197:10 *1216:A 36.0045 
*END

*D_NET *198 0.000280575
*CONN
*I *1248:A I *D BUFx3_ASAP7_75t_R
*I *718:A I *D OR3x1_ASAP7_75t_R
*I *988:CON O *D HAxp5_ASAP7_75t_R
*CAP
1 *1248:A 0
2 *718:A 0
3 *988:CON 7.06441e-06
4 *198:32 1.92031e-05
5 *198:22 4.46867e-05
6 *198:18 4.03991e-05
7 *198:10 5.72039e-05
8 *198:8 4.93528e-05
9 *198:8 *199:10 2.741e-06
10 *198:10 *483:21 4.98214e-06
11 *198:10 *641:12 4.41636e-05
12 *198:18 *432:10 0
13 *198:32 *718:B 3.68287e-06
14 *198:32 *718:C 3.73615e-06
15 *198:32 *432:10 0
16 *970:B *198:10 0
17 *78:21 *198:10 1.70708e-06
18 *78:21 *198:18 9.74162e-07
19 *99:16 *198:8 6.7842e-07
*RES
1 *988:CON *198:8 38.1438 
2 *198:8 *198:10 33.2268 
3 *198:10 *198:18 42.0293 
4 *198:18 *198:22 31.1054 
5 *198:22 *198:32 46.3079 
6 *198:32 *718:A 17.2 
7 *198:22 *1248:A 17.2 
*END

*D_NET *199 5.07906e-05
*CONN
*I *1272:A I *D BUFx3_ASAP7_75t_R
*I *988:SN O *D HAxp5_ASAP7_75t_R
*CAP
1 *1272:A 0
2 *988:SN 2.34794e-05
3 *199:10 2.34794e-05
4 *1:8 *199:10 1.09067e-06
5 *33:12 *199:10 0
6 *198:8 *199:10 2.741e-06
*RES
1 *988:SN *199:10 44.7884 
2 *199:10 *1272:A 34.4 
*END

*D_NET *200 0.00017335
*CONN
*I *905:A I *D XNOR2x2_ASAP7_75t_R
*I *1238:A I *D BUFx3_ASAP7_75t_R
*I *718:C I *D OR3x1_ASAP7_75t_R
*I *989:CON O *D HAxp5_ASAP7_75t_R
*CAP
1 *905:A 3.38542e-06
2 *1238:A 9.62417e-07
3 *718:C 2.42047e-05
4 *989:CON 1.31254e-05
5 *200:20 2.74647e-05
6 *200:14 1.82585e-05
7 *200:8 3.05469e-05
8 *718:C *718:B 3.68287e-06
9 *1238:A *434:8 9.08513e-06
10 *200:8 *960:CI 0
11 *200:8 *201:12 9.93746e-06
12 *200:14 *201:12 6.6421e-06
13 *200:14 *434:8 2.01215e-05
14 *200:20 *201:12 2.19685e-06
15 *197:10 *200:8 0
16 *197:10 *200:14 0
17 *198:32 *718:C 3.73615e-06
*RES
1 *989:CON *200:8 46.7897 
2 *200:8 *200:14 28.7147 
3 *200:14 *200:20 37.2158 
4 *200:20 *718:C 33.7796 
5 *200:14 *1238:A 19.8741 
6 *200:8 *905:A 36.0045 
*END

*D_NET *201 0.00020208
*CONN
*I *753:C I *D OR4x1_ASAP7_75t_R
*I *1212:A I *D BUFx3_ASAP7_75t_R
*I *989:SN O *D HAxp5_ASAP7_75t_R
*CAP
1 *753:C 0
2 *1212:A 8.14277e-06
3 *989:SN 0
4 *201:23 1.50015e-05
5 *201:12 6.16189e-05
6 *201:6 3.84746e-05
7 *1212:A *581:6 1.51653e-06
8 *201:12 *905:B 0
9 *201:12 *607:8 0
10 *201:23 *641:41 0
11 *201:23 *653:12 5.21648e-06
12 *197:10 *201:12 0
13 *197:10 *201:23 2.66045e-05
14 *197:16 *201:23 2.67279e-05
15 *200:8 *201:12 9.93746e-06
16 *200:14 *201:12 6.6421e-06
17 *200:20 *201:12 2.19685e-06
*RES
1 *989:SN *201:6 34.4 
2 *201:6 *201:12 45.553 
3 *201:12 *1212:A 22.0134 
4 *201:12 *201:23 34.6581 
5 *201:23 *753:C 34.4 
*END

*D_NET *202 8.38807e-05
*CONN
*I *714:A I *D INVx1_ASAP7_75t_R
*I *1246:A I *D BUFx3_ASAP7_75t_R
*I *990:CON O *D HAxp5_ASAP7_75t_R
*CAP
1 *714:A 1.11365e-05
2 *1246:A 2.22667e-06
3 *990:CON 0
4 *202:8 3.42962e-05
5 *202:6 2.0933e-05
6 *714:A *266:8 0
7 *202:8 *203:8 2.45028e-06
8 *31:8 *202:8 1.22048e-05
9 *63:8 *202:8 6.33206e-07
*RES
1 *990:CON *202:6 34.4 
2 *202:6 *202:8 16.3318 
3 *202:8 *1246:A 36.0895 
4 *202:8 *714:A 39.2134 
*END

*D_NET *203 0.000422165
*CONN
*I *1211:A I *D BUFx3_ASAP7_75t_R
*I *774:C I *D OR3x1_ASAP7_75t_R
*I *990:SN O *D HAxp5_ASAP7_75t_R
*CAP
1 *1211:A 0
2 *774:C 0
3 *990:SN 1.22318e-05
4 *203:38 3.56424e-06
5 *203:30 4.64266e-05
6 *203:24 5.44308e-05
7 *203:16 1.57152e-05
8 *203:12 7.71142e-05
9 *203:10 7.29674e-05
10 *203:8 1.22318e-05
11 *203:12 *1210:A 9.08513e-06
12 *203:12 *204:20 6.81991e-06
13 *203:16 *1210:A 0
14 *203:16 *428:10 1.19507e-05
15 *203:16 *580:8 0
16 *203:24 *248:44 5.09299e-06
17 *203:24 *428:10 4.97654e-06
18 *203:24 *580:8 0
19 *203:30 *700:C 2.2496e-05
20 *203:30 *702:A 7.84772e-07
21 *203:30 *248:29 2.22736e-06
22 *203:30 *248:44 1.12894e-06
23 *203:30 *251:10 1.32995e-05
24 *203:30 *254:10 2.65203e-05
25 *203:30 *325:14 1.6871e-05
26 *203:30 *428:10 5.52807e-07
27 *203:30 *614:25 0
28 *203:38 *325:8 3.05118e-08
29 *203:38 *658:8 3.19649e-06
30 *202:8 *203:8 2.45028e-06
*RES
1 *990:SN *203:8 43.4107 
2 *203:8 *203:10 17.2 
3 *203:10 *203:12 34.7636 
4 *203:12 *203:16 21.7053 
5 *203:16 *203:24 41.9726 
6 *203:24 *203:30 45.9648 
7 *203:30 *203:38 36.5021 
8 *203:38 *774:C 17.2 
9 *203:16 *1211:A 34.4 
*END

*D_NET *204 0.000320677
*CONN
*I *1245:A I *D BUFx3_ASAP7_75t_R
*I *758:A I *D NOR2x1_ASAP7_75t_R
*I *991:CON O *D HAxp5_ASAP7_75t_R
*CAP
1 *1245:A 7.96069e-06
2 *758:A 0
3 *991:CON 0
4 *204:26 1.14906e-05
5 *204:20 7.1407e-05
6 *204:18 6.33477e-05
7 *204:12 2.2854e-05
8 *204:4 2.73834e-05
9 *1245:A *205:6 6.92634e-06
10 *1245:A *205:15 4.04733e-05
11 *204:20 *896:B 1.5804e-05
12 *204:20 *1210:A 3.65131e-06
13 *204:20 *429:6 3.249e-05
14 *204:20 *614:14 4.75943e-06
15 *204:20 *614:23 2.0895e-06
16 *204:26 *1210:A 1.09842e-06
17 *204:26 *580:8 1.64764e-06
18 *30:10 *204:18 4.73164e-07
19 *203:12 *204:20 6.81991e-06
*RES
1 *991:CON *204:4 17.2 
2 *204:4 *204:12 46.3645 
3 *204:12 *204:18 37.2158 
4 *204:18 *204:20 59.3656 
5 *204:20 *204:26 42.2843 
6 *204:26 *758:A 17.2 
7 *204:4 *1245:A 33.7796 
*END

*D_NET *205 0.000221151
*CONN
*I *774:A I *D OR3x1_ASAP7_75t_R
*I *1209:A I *D BUFx3_ASAP7_75t_R
*I *991:SN O *D HAxp5_ASAP7_75t_R
*CAP
1 *774:A 0
2 *1209:A 0
3 *991:SN 2.43829e-06
4 *205:21 2.66371e-05
5 *205:15 4.10264e-05
6 *205:6 1.68276e-05
7 *205:21 *207:31 2.7922e-05
8 *205:21 *232:17 5.21188e-05
9 *205:21 *578:12 5.52807e-07
10 *205:21 *613:10 2.11853e-06
11 *205:21 *614:14 4.10928e-06
12 *1245:A *205:6 6.92634e-06
13 *1245:A *205:15 4.04733e-05
*RES
1 *991:SN *205:6 19.3393 
2 *205:6 *1209:A 17.2 
3 *205:6 *205:15 29.501 
4 *205:15 *205:21 44.0619 
5 *205:21 *774:A 17.2 
*END

*D_NET *206 0.000162158
*CONN
*I *1244:A I *D BUFx3_ASAP7_75t_R
*I *756:B I *D OAI21x1_ASAP7_75t_R
*I *755:A I *D OR3x1_ASAP7_75t_R
*I *992:CON O *D HAxp5_ASAP7_75t_R
*CAP
1 *1244:A 0
2 *756:B 0
3 *755:A 0
4 *992:CON 7.38128e-06
5 *206:22 1.84153e-05
6 *206:12 1.84153e-05
7 *206:10 2.89941e-05
8 *206:6 3.63754e-05
9 *206:10 *1283:A 5.22486e-06
10 *206:10 *207:23 5.33743e-06
11 *206:10 *652:8 8.87893e-06
12 *206:22 *756:A2 9.75645e-06
13 *206:22 *652:8 6.45149e-06
14 *206:22 *652:10 1.69273e-05
*RES
1 *992:CON *206:6 20.9438 
2 *206:6 *206:10 43.1056 
3 *206:10 *206:12 17.2 
4 *206:12 *206:22 48.1674 
5 *206:22 *755:A 17.2 
6 *206:12 *756:B 17.2 
7 *206:6 *1244:A 17.2 
*END

*D_NET *207 0.000179598
*CONN
*I *1289:A I *D BUFx3_ASAP7_75t_R
*I *774:B I *D OR3x1_ASAP7_75t_R
*I *1283:A I *D BUFx3_ASAP7_75t_R
*I *992:SN O *D HAxp5_ASAP7_75t_R
*CAP
1 *1289:A 3.22539e-06
2 *774:B 0
3 *1283:A 1.67123e-05
4 *992:SN 0
5 *207:31 1.61605e-05
6 *207:23 5.35919e-05
7 *207:6 5.09183e-05
8 *207:31 *613:10 5.0551e-07
9 *205:21 *207:31 2.7922e-05
10 *206:10 *1283:A 5.22486e-06
11 *206:10 *207:23 5.33743e-06
*RES
1 *992:SN *207:6 34.4 
2 *207:6 *1283:A 44.7884 
3 *207:6 *207:23 40.7076 
4 *207:23 *207:31 45.9147 
5 *207:31 *774:B 17.2 
6 *207:23 *1289:A 18.8045 
*END

*D_NET *208 0.00027366
*CONN
*I *1243:A I *D BUFx3_ASAP7_75t_R
*I *756:A2 I *D OAI21x1_ASAP7_75t_R
*I *755:C I *D OR3x1_ASAP7_75t_R
*I *993:CON O *D HAxp5_ASAP7_75t_R
*CAP
1 *1243:A 1.58153e-05
2 *756:A2 9.89014e-06
3 *755:C 2.62297e-06
4 *993:CON 0
5 *208:8 7.28433e-05
6 *208:6 6.03302e-05
7 *208:4 1.58153e-05
8 *756:A2 *756:A1 5.85387e-06
9 *756:A2 *307:8 2.25787e-06
10 *756:A2 *652:8 4.83862e-06
11 *756:A2 *652:10 1.51765e-05
12 *1243:A *209:6 1.01102e-06
13 *1243:A *209:23 2.66797e-07
14 *208:8 *1282:A 2.00151e-05
15 *208:8 *237:29 0
16 *208:8 *307:8 1.09842e-06
17 *208:8 *525:8 1.64348e-06
18 *208:8 *606:8 5.67344e-06
19 *208:8 *619:8 8.31005e-06
20 *208:8 *651:10 0
21 *208:8 *652:10 8.71771e-06
22 *959:CI *208:8 0
23 *993:B *208:8 0
24 *28:18 *208:8 0
25 *60:16 *208:8 0
26 *126:8 *208:8 2.22736e-06
27 *135:8 *208:8 9.49598e-06
28 *206:22 *756:A2 9.75645e-06
*RES
1 *993:CON *208:4 17.2 
2 *208:4 *208:6 17.2 
3 *208:6 *208:8 51.2481 
4 *208:8 *755:C 35.4697 
5 *208:8 *756:A2 43.8321 
6 *208:4 *1243:A 26.292 
*END

*D_NET *209 0.000469176
*CONN
*I *775:A I *D OR5x1_ASAP7_75t_R
*I *778:A I *D OR5x1_ASAP7_75t_R
*I *1207:A I *D BUFx3_ASAP7_75t_R
*I *993:SN O *D HAxp5_ASAP7_75t_R
*CAP
1 *775:A 0
2 *778:A 0
3 *1207:A 0
4 *993:SN 5.75326e-06
5 *209:50 1.65149e-05
6 *209:35 0.000112725
7 *209:33 9.62099e-05
8 *209:31 2.11216e-05
9 *209:23 6.08101e-05
10 *209:12 1.55501e-05
11 *209:6 6.09919e-05
12 *209:12 *576:8 0
13 *209:12 *576:21 0
14 *209:23 *711:B1 9.67723e-06
15 *209:23 *229:24 5.25794e-06
16 *209:23 *576:21 0
17 *209:31 *711:B1 3.65131e-06
18 *209:31 *239:10 8.45637e-06
19 *209:31 *263:8 6.33206e-07
20 *209:31 *548:14 1.78333e-06
21 *209:35 *1180:A 2.12481e-06
22 *209:35 *548:14 6.61478e-06
23 *209:50 *778:B 1.68431e-05
24 *209:50 *210:56 1.04475e-06
25 *209:50 *283:38 5.01287e-06
26 *209:50 *308:26 0
27 *209:50 *328:10 6.52737e-06
28 *986:B *209:12 0
29 *1243:A *209:6 1.01102e-06
30 *1243:A *209:23 2.66797e-07
31 *100:12 *209:23 3.0471e-06
32 *194:8 *209:12 7.54709e-06
*RES
1 *993:SN *209:6 19.8741 
2 *209:6 *209:12 47.3528 
3 *209:12 *1207:A 17.2 
4 *209:6 *209:23 38.2282 
5 *209:23 *209:31 45.2382 
6 *209:31 *209:33 17.2 
7 *209:33 *209:35 55.6218 
8 *209:35 *778:A 17.2 
9 *209:35 *209:50 49.2937 
10 *209:50 *775:A 17.2 
*END

*D_NET *210 0.000605622
*CONN
*I *775:B I *D OR5x1_ASAP7_75t_R
*I *777:A I *D INVx1_ASAP7_75t_R
*I *1242:A I *D BUFx3_ASAP7_75t_R
*I *994:CON O *D HAxp5_ASAP7_75t_R
*CAP
1 *775:B 0
2 *777:A 0
3 *1242:A 4.2038e-06
4 *994:CON 1.05492e-05
5 *210:56 2.24372e-05
6 *210:41 3.31953e-05
7 *210:37 3.26815e-05
8 *210:33 8.73162e-05
9 *210:18 7.11588e-05
10 *210:14 9.62831e-05
11 *210:12 9.47208e-05
12 *210:10 1.05492e-05
13 *1242:A *611:10 0
14 *1242:A *611:25 1.90474e-05
15 *210:10 *211:8 5.04414e-06
16 *210:10 *574:14 5.62196e-06
17 *210:14 *675:A2 2.83523e-05
18 *210:14 *575:10 0
19 *210:14 *611:25 1.77431e-05
20 *210:37 *283:34 0
21 *210:37 *308:26 2.55771e-05
22 *210:37 *321:41 1.10664e-05
23 *210:37 *321:53 0
24 *210:37 *324:39 0
25 *210:37 *562:8 2.22736e-06
26 *210:56 *283:38 2.38044e-05
27 *210:56 *329:14 2.5412e-06
28 *210:56 *563:28 4.57263e-07
29 *209:50 *210:56 1.04475e-06
*RES
1 *994:CON *210:10 42.0859 
2 *210:10 *210:12 17.2 
3 *210:12 *210:14 46.5298 
4 *210:14 *210:18 18.2325 
5 *210:18 *1242:A 41.5033 
6 *210:18 *210:33 37.7616 
7 *210:33 *210:37 37.9433 
8 *210:37 *210:41 22.0134 
9 *210:41 *777:A 17.2 
10 *210:41 *210:56 47.3775 
11 *210:56 *775:B 17.2 
*END

*D_NET *211 5.23249e-05
*CONN
*I *1205:A I *D BUFx3_ASAP7_75t_R
*I *994:SN O *D HAxp5_ASAP7_75t_R
*CAP
1 *1205:A 4.77521e-06
2 *994:SN 1.04015e-05
3 *211:8 1.51767e-05
4 *211:8 *574:14 1.69273e-05
5 *210:10 *211:8 5.04414e-06
*RES
1 *994:SN *211:8 44.537 
2 *211:8 *1205:A 37.0741 
*END

*D_NET *212 0.000128332
*CONN
*I *1241:A I *D BUFx3_ASAP7_75t_R
*I *669:A I *D INVx1_ASAP7_75t_R
*I *995:CON O *D HAxp5_ASAP7_75t_R
*CAP
1 *1241:A 0
2 *669:A 7.21556e-06
3 *995:CON 1.05374e-05
4 *212:25 2.3174e-05
5 *212:10 4.09269e-05
6 *669:A *321:14 5.17782e-06
7 *212:25 *223:12 8.2174e-07
8 *212:25 *321:10 0
9 *212:25 *427:12 3.04763e-05
10 *212:25 *555:8 5.67735e-06
11 *995:B *212:10 2.28976e-06
12 *124:12 *212:25 2.03526e-06
*RES
1 *995:CON *212:10 40.5098 
2 *212:10 *669:A 38.1438 
3 *212:10 *212:25 37.389 
4 *212:25 *1241:A 17.2 
*END

*D_NET *213 0.000482278
*CONN
*I *664:A I *D INVx1_ASAP7_75t_R
*I *672:B I *D OR5x1_ASAP7_75t_R
*I *770:A I *D OR3x1_ASAP7_75t_R
*I *1281:A I *D BUFx3_ASAP7_75t_R
*I *995:SN O *D HAxp5_ASAP7_75t_R
*CAP
1 *664:A 1.36369e-05
2 *672:B 0
3 *770:A 0
4 *1281:A 0
5 *995:SN 6.55245e-06
6 *213:36 2.42132e-05
7 *213:25 2.32825e-05
8 *213:14 2.92065e-05
9 *213:10 0.00010865
10 *213:8 9.8702e-05
11 *664:A *223:12 0
12 *664:A *224:30 6.8435e-06
13 *664:A *225:27 8.71771e-06
14 *664:A *574:33 6.15135e-06
15 *213:10 *958:B 5.54591e-05
16 *213:10 *214:10 0
17 *213:10 *214:21 0
18 *213:10 *215:8 1.33022e-05
19 *213:10 *216:20 0
20 *213:10 *225:12 0
21 *213:10 *573:14 3.79923e-06
22 *213:10 *639:8 1.63726e-05
23 *213:14 *650:10 4.17901e-06
24 *213:25 *225:12 1.07377e-06
25 *213:25 *321:10 1.01102e-06
26 *213:36 *224:30 2.19587e-05
27 *213:36 *225:12 1.1021e-06
28 *213:36 *225:27 1.6528e-05
29 *54:12 *213:14 3.81627e-06
30 *54:21 *213:10 0
31 *58:8 *213:10 4.41094e-06
32 *58:8 *213:25 1.56807e-06
33 *123:8 *213:10 5.97901e-06
34 *130:10 *213:10 2.05284e-06
35 *132:8 *213:10 3.70913e-06
*RES
1 *995:SN *213:8 38.1438 
2 *213:8 *213:10 74.3379 
3 *213:10 *213:14 35.384 
4 *213:14 *1281:A 17.2 
5 *213:8 *213:25 27.4467 
6 *213:25 *770:A 17.2 
7 *213:25 *213:36 28.35 
8 *213:36 *672:B 34.4 
9 *213:36 *664:A 44.9585 
*END

*D_NET *214 0.000159524
*CONN
*I *670:B I *D NOR3x1_ASAP7_75t_R
*I *665:A I *D OR3x1_ASAP7_75t_R
*I *671:B I *D OA21x2_ASAP7_75t_R
*I *1240:A I *D BUFx3_ASAP7_75t_R
*I *996:CON O *D HAxp5_ASAP7_75t_R
*CAP
1 *670:B 7.1508e-06
2 *665:A 0
3 *671:B 4.75213e-06
4 *1240:A 0
5 *996:CON 8.33984e-06
6 *214:38 1.54001e-05
7 *214:21 3.19362e-05
8 *214:10 2.34595e-05
9 *214:6 2.71661e-05
10 *670:B *670:C 3.68287e-06
11 *671:B *671:A2 6.0212e-06
12 *214:6 *670:C 8.65792e-06
13 *214:10 *215:8 8.2174e-07
14 *214:10 *573:25 0
15 *214:21 *573:25 0
16 *214:21 *608:36 2.01457e-05
17 *214:38 *671:A2 1.35684e-06
18 *214:38 *608:36 6.33206e-07
19 *213:10 *214:10 0
20 *213:10 *214:21 0
*RES
1 *996:CON *214:6 23.0831 
2 *214:6 *214:10 25.0843 
3 *214:10 *1240:A 34.4 
4 *214:10 *214:21 28.4633 
5 *214:21 *671:B 21.4786 
6 *214:21 *214:38 44.1686 
7 *214:38 *665:A 17.2 
8 *214:6 *670:B 22.0134 
*END

*D_NET *215 4.47903e-05
*CONN
*I *1204:A I *D BUFx3_ASAP7_75t_R
*I *996:SN O *D HAxp5_ASAP7_75t_R
*CAP
1 *1204:A 1.02755e-05
2 *996:SN 4.55215e-06
3 *215:8 1.48276e-05
4 *1204:A *573:14 7.58265e-07
5 *1204:A *573:25 2.52755e-07
6 *213:10 *215:8 1.33022e-05
7 *214:10 *215:8 8.2174e-07
*RES
1 *996:SN *215:8 38.9053 
2 *215:8 *1204:A 40.2831 
*END

*D_NET *216 0.00018731
*CONN
*I *1239:A I *D BUFx3_ASAP7_75t_R
*I *670:C I *D NOR3x1_ASAP7_75t_R
*I *997:CON O *D HAxp5_ASAP7_75t_R
*CAP
1 *1239:A 0
2 *670:C 4.57244e-06
3 *997:CON 2.62674e-05
4 *216:20 2.28423e-05
5 *216:14 4.72534e-05
6 *216:8 5.52509e-05
7 *216:8 *217:8 1.36141e-05
8 *216:14 *859:A 2.63228e-06
9 *216:14 *608:15 1.75265e-06
10 *216:20 *639:8 2.98814e-07
11 *670:B *670:C 3.68287e-06
12 *130:10 *216:20 4.84697e-07
13 *213:10 *216:20 0
14 *214:6 *670:C 8.65792e-06
*RES
1 *997:CON *216:8 49.9099 
2 *216:8 *216:14 35.3594 
3 *216:14 *216:20 48.4791 
4 *216:20 *670:C 20.9438 
5 *216:14 *1239:A 17.2 
*END

*D_NET *217 0.000148216
*CONN
*I *860:A I *D INVx1_ASAP7_75t_R
*I *997:SN O *D HAxp5_ASAP7_75t_R
*CAP
1 *860:A 0
2 *997:SN 2.1497e-05
3 *217:14 3.18806e-05
4 *217:8 5.33775e-05
5 *1138:A *217:14 9.83409e-06
6 *11:8 *217:14 5.07932e-06
7 *43:10 *217:14 1.2934e-05
8 *216:8 *217:8 1.36141e-05
*RES
1 *997:SN *217:8 43.492 
2 *217:8 *217:14 35.3027 
3 *217:14 *860:A 17.2 
*END

*D_NET *218 0.000151645
*CONN
*I *1200:A I *D BUFx3_ASAP7_75t_R
*I *773:B I *D AND5x1_ASAP7_75t_R
*I *664:Y O *D INVx1_ASAP7_75t_R
*CAP
1 *1200:A 0
2 *773:B 0
3 *664:Y 0
4 *218:23 4.32632e-05
5 *218:12 1.10926e-05
6 *218:4 5.43558e-05
7 *218:12 *773:C 1.40419e-08
8 *218:12 *219:8 3.29527e-06
9 *218:12 *220:8 8.33296e-06
10 *218:12 *574:27 6.33206e-07
11 *218:12 *574:33 1.13463e-05
12 *218:23 *220:12 2.12481e-06
13 *218:23 *220:25 4.41457e-06
14 *218:23 *226:10 1.27719e-05
15 *218:23 *324:12 0
16 *218:23 *568:8 0
*RES
1 *664:Y *218:4 17.2 
2 *218:4 *218:12 44.4803 
3 *218:12 *773:B 17.2 
4 *218:4 *218:23 41.7773 
5 *218:23 *1200:A 34.4 
*END

*D_NET *219 0.000232527
*CONN
*I *668:A2 I *D AO31x2_ASAP7_75t_R
*I *773:D I *D AND5x1_ASAP7_75t_R
*I *665:Y O *D OR3x1_ASAP7_75t_R
*CAP
1 *668:A2 1.02663e-05
2 *773:D 0
3 *665:Y 0
4 *219:25 2.96734e-05
5 *219:12 2.24847e-05
6 *219:8 3.75092e-05
7 *219:6 3.44316e-05
8 *668:A2 *668:B 6.7842e-07
9 *219:8 *668:A3 9.8079e-06
10 *219:8 *220:8 3.92256e-05
11 *219:8 *220:25 4.26011e-06
12 *219:8 *224:20 1.99791e-05
13 *219:8 *226:10 0
14 *219:25 *668:A3 8.33112e-06
15 *219:25 *220:25 1.19507e-05
16 *219:25 *226:10 0
17 *219:25 *324:8 6.33206e-07
18 *219:25 *574:27 0
19 *218:12 *219:8 3.29527e-06
*RES
1 *665:Y *219:6 34.4 
2 *219:6 *219:8 37.169 
3 *219:8 *219:12 18.2696 
4 *219:12 *773:D 17.2 
5 *219:12 *219:25 48.8723 
6 *219:25 *668:A2 23.0831 
*END

*D_NET *220 0.000239751
*CONN
*I *773:E I *D AND5x1_ASAP7_75t_R
*I *1199:A I *D BUFx3_ASAP7_75t_R
*I *666:Y O *D OAI21x1_ASAP7_75t_R
*CAP
1 *773:E 0
2 *1199:A 0
3 *666:Y 0
4 *220:25 1.32982e-05
5 *220:12 1.58341e-05
6 *220:8 4.0743e-05
7 *220:6 3.82071e-05
8 *220:8 *665:B 2.04071e-05
9 *220:8 *224:8 2.84286e-06
10 *220:8 *224:20 8.06799e-07
11 *220:8 *225:12 0
12 *220:8 *225:27 5.52807e-07
13 *220:8 *574:33 2.25787e-06
14 *220:8 *608:53 1.34329e-05
15 *220:25 *668:A3 2.00151e-05
16 *220:25 *226:10 0
17 *220:25 *568:8 1.04475e-06
18 *218:12 *220:8 8.33296e-06
19 *218:23 *220:12 2.12481e-06
20 *218:23 *220:25 4.41457e-06
21 *219:8 *220:8 3.92256e-05
22 *219:8 *220:25 4.26011e-06
23 *219:25 *220:25 1.19507e-05
*RES
1 *666:Y *220:6 34.4 
2 *220:6 *220:8 39.4216 
3 *220:8 *220:12 18.8045 
4 *220:12 *1199:A 17.2 
5 *220:12 *220:25 48.2808 
6 *220:25 *773:E 17.2 
*END

*D_NET *221 1.74494e-05
*CONN
*I *668:B I *D AO31x2_ASAP7_75t_R
*I *667:Y O *D OR2x2_ASAP7_75t_R
*CAP
1 *668:B 8.3855e-06
2 *667:Y 8.3855e-06
3 *668:A2 *668:B 6.7842e-07
*RES
1 *667:Y *668:B 39.2134 
*END

*D_NET *222 0.000538997
*CONN
*I *687:B I *D AND3x1_ASAP7_75t_R
*I *779:A1 I *D AO21x2_ASAP7_75t_R
*I *1191:A I *D BUFx3_ASAP7_75t_R
*I *688:A1 I *D AOI21x1_ASAP7_75t_R
*I *675:A1 I *D AO21x2_ASAP7_75t_R
*I *668:Y O *D AO31x2_ASAP7_75t_R
*CAP
1 *687:B 0
2 *779:A1 0
3 *1191:A 0
4 *688:A1 0
5 *675:A1 2.32303e-06
6 *668:Y 1.94109e-05
7 *222:62 1.80587e-05
8 *222:46 8.63656e-06
9 *222:38 4.73366e-05
10 *222:34 5.78982e-05
11 *222:23 1.91981e-05
12 *222:21 3.26972e-05
13 *222:10 3.44889e-05
14 *222:8 3.69383e-05
15 *675:A1 *611:25 2.20493e-06
16 *222:10 *226:10 0
17 *222:21 *226:10 0
18 *222:21 *229:10 0
19 *222:21 *656:35 8.46363e-06
20 *222:34 *228:8 5.97901e-06
21 *222:34 *229:10 2.22736e-06
22 *222:34 *241:10 2.61188e-06
23 *222:34 *656:27 1.41719e-05
24 *222:38 *779:A2 1.12561e-05
25 *222:38 *226:31 9.28603e-05
26 *222:46 *274:16 1.66659e-05
27 *222:46 *275:16 1.66659e-05
28 *222:46 *560:10 1.29755e-05
29 *222:62 *689:B 9.30097e-06
30 *222:62 *226:10 0
31 *222:62 *226:27 0
32 *222:62 *229:10 0
33 *222:62 *240:8 1.5804e-05
34 *222:62 *241:10 1.34329e-05
35 *222:62 *656:35 1.03306e-05
36 *222:62 *657:8 2.70601e-05
*RES
1 *668:Y *222:8 42.4224 
2 *222:8 *222:10 12.9528 
3 *222:10 *675:A1 36.0045 
4 *222:10 *222:21 10.137 
5 *222:21 *222:23 17.2 
6 *222:23 *688:A1 17.2 
7 *222:23 *222:34 35.246 
8 *222:34 *222:38 48.7547 
9 *222:38 *222:46 43.7754 
10 *222:46 *1191:A 17.2 
11 *222:38 *779:A1 17.2 
12 *222:21 *222:62 37.0205 
13 *222:62 *687:B 17.2 
*END

*D_NET *223 9.21355e-05
*CONN
*I *672:E I *D OR5x1_ASAP7_75t_R
*I *1203:A I *D BUFx3_ASAP7_75t_R
*I *669:Y O *D INVx1_ASAP7_75t_R
*CAP
1 *672:E 3.2197e-05
2 *1203:A 0
3 *669:Y 0
4 *223:12 9.01391e-06
5 *223:4 4.12109e-05
6 *672:E *224:30 1.44167e-06
7 *672:E *225:27 1.35684e-06
8 *672:E *321:14 2.61188e-06
9 *672:E *574:33 2.66797e-07
10 *223:12 *321:14 1.56713e-06
11 *223:12 *427:12 1.64764e-06
12 *664:A *223:12 0
13 *212:25 *223:12 8.2174e-07
*RES
1 *669:Y *223:4 17.2 
2 *223:4 *223:12 40.5098 
3 *223:12 *1203:A 17.2 
4 *223:4 *672:E 31.1054 
*END

*D_NET *224 0.000235138
*CONN
*I *770:B I *D OR3x1_ASAP7_75t_R
*I *672:A I *D OR5x1_ASAP7_75t_R
*I *670:Y O *D NOR3x1_ASAP7_75t_R
*CAP
1 *770:B 0
2 *672:A 0
3 *670:Y 1.74655e-05
4 *224:30 1.16587e-05
5 *224:20 4.19824e-05
6 *224:14 3.57878e-05
7 *224:8 2.29295e-05
8 *224:8 *665:B 1.12894e-06
9 *224:8 *608:17 2.22736e-06
10 *224:8 *608:30 5.49212e-07
11 *224:8 *608:53 2.0153e-05
12 *224:20 *225:12 7.35354e-06
13 *224:20 *321:10 3.81627e-06
14 *224:20 *321:25 7.2178e-06
15 *224:30 *225:12 7.90432e-06
16 *224:30 *321:10 1.09067e-06
17 *664:A *224:30 6.8435e-06
18 *672:E *224:30 1.44167e-06
19 *213:36 *224:30 2.19587e-05
20 *219:8 *224:20 1.99791e-05
21 *220:8 *224:8 2.84286e-06
22 *220:8 *224:20 8.06799e-07
*RES
1 *670:Y *224:8 49.6055 
2 *224:8 *224:14 37.0741 
3 *224:14 *224:20 44.8198 
4 *224:20 *224:30 46.0848 
5 *224:30 *672:A 17.2 
6 *224:20 *770:B 17.2 
*END

*D_NET *225 0.000146151
*CONN
*I *672:C I *D OR5x1_ASAP7_75t_R
*I *770:C I *D OR3x1_ASAP7_75t_R
*I *671:Y O *D OA21x2_ASAP7_75t_R
*CAP
1 *672:C 0
2 *770:C 0
3 *671:Y 0
4 *225:27 8.83905e-06
5 *225:12 3.69631e-05
6 *225:6 2.81241e-05
7 *225:12 *321:10 1.90491e-05
8 *225:27 *574:33 8.58704e-06
9 *664:A *225:27 8.71771e-06
10 *672:E *225:27 1.35684e-06
11 *213:10 *225:12 0
12 *213:25 *225:12 1.07377e-06
13 *213:36 *225:12 1.1021e-06
14 *213:36 *225:27 1.6528e-05
15 *220:8 *225:12 0
16 *220:8 *225:27 5.52807e-07
17 *224:20 *225:12 7.35354e-06
18 *224:30 *225:12 7.90432e-06
*RES
1 *671:Y *225:6 34.4 
2 *225:6 *225:12 38.8801 
3 *225:12 *770:C 17.2 
4 *225:12 *225:27 43.354 
5 *225:27 *672:C 17.2 
*END

*D_NET *226 0.000558973
*CONN
*I *779:A2 I *D AO21x2_ASAP7_75t_R
*I *1190:A I *D BUFx3_ASAP7_75t_R
*I *687:C I *D AND3x1_ASAP7_75t_R
*I *672:Y O *D OR5x1_ASAP7_75t_R
*CAP
1 *779:A2 1.00336e-05
2 *1190:A 0
3 *687:C 0
4 *672:Y 1.99236e-05
5 *226:37 1.02464e-05
6 *226:31 4.72993e-05
7 *226:27 6.07011e-05
8 *226:10 0.000111771
9 *226:8 9.80128e-05
10 *226:10 *687:A 3.3563e-06
11 *226:10 *324:8 5.79724e-07
12 *226:10 *569:8 0
13 *226:10 *611:29 4.42421e-06
14 *226:10 *656:35 0
15 *226:10 *656:41 8.2174e-07
16 *226:27 *1178:A 1.34406e-06
17 *226:27 *228:8 4.84072e-06
18 *226:27 *242:16 5.10393e-06
19 *226:37 *275:16 1.84438e-05
20 *226:37 *570:10 4.51828e-05
21 *194:20 *226:27 0
22 *218:23 *226:10 1.27719e-05
23 *219:8 *226:10 0
24 *219:25 *226:10 0
25 *220:25 *226:10 0
26 *222:10 *226:10 0
27 *222:21 *226:10 0
28 *222:38 *779:A2 1.12561e-05
29 *222:38 *226:31 9.28603e-05
30 *222:62 *226:10 0
31 *222:62 *226:27 0
*RES
1 *672:Y *226:8 43.492 
2 *226:8 *226:10 60.8219 
3 *226:10 *687:C 34.4 
4 *226:10 *226:27 48.2409 
5 *226:27 *226:31 46.6154 
6 *226:31 *226:37 49.6055 
7 *226:37 *1190:A 17.2 
8 *226:31 *779:A2 23.6179 
*END

*D_NET *227 0.000178017
*CONN
*P B[18] I
*I *673:A I *D BUFx2_ASAP7_75t_R
*CAP
1 B[18] 3.31703e-05
2 *673:A 0
3 *227:15 8.39209e-06
4 *227:9 4.15624e-05
5 *227:9 S[13] 2.92092e-05
6 *227:9 S[14] 6.97583e-07
7 *227:15 *502:8 8.66562e-07
8 *227:15 *504:8 0
9 *89:9 *227:9 5.84496e-05
10 *101:10 *227:15 5.66897e-06
*RES
1 B[18] *227:9 38.4776 
2 *227:9 *227:15 41.815 
3 *227:15 *673:A 17.2 
*END

*D_NET *228 0.000175205
*CONN
*I *691:A2 I *D AO31x2_ASAP7_75t_R
*I *1180:A I *D BUFx3_ASAP7_75t_R
*I *674:Y O *D NAND3x2_ASAP7_75t_R
*CAP
1 *691:A2 1.25618e-05
2 *1180:A 2.71613e-06
3 *674:Y 0
4 *228:8 3.2533e-05
5 *228:6 1.7255e-05
6 *691:A2 *229:10 2.14973e-05
7 *691:A2 *242:18 3.3563e-06
8 *228:8 *229:10 6.32232e-05
9 *228:8 *242:18 5.31503e-06
10 *100:12 *691:A2 2.12481e-06
11 *195:10 *691:A2 1.67815e-06
12 *209:35 *1180:A 2.12481e-06
13 *222:34 *228:8 5.97901e-06
14 *226:27 *228:8 4.84072e-06
*RES
1 *674:Y *228:6 34.4 
2 *228:6 *228:8 21.4003 
3 *228:8 *1180:A 36.0045 
4 *228:8 *691:A2 46.1415 
*END

*D_NET *229 0.000324984
*CONN
*I *691:A3 I *D AO31x2_ASAP7_75t_R
*I *1275:A I *D BUFx3_ASAP7_75t_R
*I *675:Y O *D AO21x2_ASAP7_75t_R
*CAP
1 *691:A3 0
2 *1275:A 0
3 *675:Y 2.2016e-06
4 *229:24 1.72068e-05
5 *229:14 3.21747e-05
6 *229:10 6.11148e-05
7 *229:8 4.83486e-05
8 *229:8 *611:16 5.62196e-06
9 *229:10 *689:B 0
10 *229:10 *240:12 3.05118e-08
11 *229:10 *241:10 0
12 *229:10 *548:14 2.97595e-05
13 *229:10 *656:27 0
14 *229:14 *612:40 5.09299e-06
15 *229:24 *711:B1 8.58704e-06
16 *229:24 *239:10 5.52807e-07
17 *229:24 *612:40 4.36464e-06
18 *691:A2 *229:10 2.14973e-05
19 *100:12 *229:14 5.19552e-07
20 *100:12 *229:24 8.66084e-06
21 *195:10 *229:10 8.54172e-06
22 *209:23 *229:24 5.25794e-06
23 *222:21 *229:10 0
24 *222:34 *229:10 2.22736e-06
25 *222:62 *229:10 0
26 *228:8 *229:10 6.32232e-05
*RES
1 *675:Y *229:8 36.0045 
2 *229:8 *229:10 41.6743 
3 *229:10 *229:14 24.1527 
4 *229:14 *229:24 47.9123 
5 *229:24 *1275:A 17.2 
6 *229:14 *691:A3 17.2 
*END

*D_NET *230 0.000227182
*CONN
*P B[17] I
*I *677:A I *D BUFx2_ASAP7_75t_R
*CAP
1 B[17] 8.81477e-06
2 *677:A 0
3 *230:21 2.92512e-05
4 *230:13 6.36517e-05
5 *230:11 4.32153e-05
6 *230:11 S[17] 2.46769e-05
7 *230:11 S[18] 2.43547e-05
8 *230:13 *504:8 2.18737e-05
9 *230:13 *505:14 0
10 *230:21 *504:8 7.35063e-07
11 *980:A *230:21 0
12 *9:8 *230:13 7.02842e-06
13 *90:15 *230:13 0
14 *106:12 *230:13 3.58041e-06
*RES
1 B[17] *230:11 38.7558 
2 *230:11 *230:13 34.447 
3 *230:13 *230:21 46.9277 
4 *230:21 *677:A 34.4 
*END

*D_NET *231 0.00021007
*CONN
*P B[16] I
*I *678:A I *D BUFx6f_ASAP7_75t_R
*CAP
1 B[16] 2.88163e-05
2 *678:A 0
3 *231:13 1.76496e-05
4 *231:9 4.64659e-05
5 *6:8 *231:13 2.39646e-05
6 *38:10 *231:13 3.18977e-06
7 *91:11 *231:9 2.71041e-05
8 *92:9 *231:9 6.06965e-05
9 *92:15 *231:13 6.72332e-07
10 *188:8 *231:13 1.51111e-06
*RES
1 B[16] *231:9 36.0508 
2 *231:9 *231:13 33.438 
3 *231:13 *678:A 34.4 
*END

*D_NET *232 0.000296282
*CONN
*I *757:D I *D AND4x1_ASAP7_75t_R
*I *1198:A I *D BUFx3_ASAP7_75t_R
*I *679:Y O *D INVx1_ASAP7_75t_R
*CAP
1 *757:D 3.672e-06
2 *1198:A 0
3 *679:Y 2.31508e-06
4 *232:17 5.68252e-05
5 *232:15 6.71746e-05
6 *232:6 1.63365e-05
7 *232:6 *578:12 3.05302e-06
8 *232:15 *567:6 1.27802e-05
9 *232:15 *578:12 9.15905e-06
10 *232:17 *685:B 3.03495e-05
11 *232:17 *233:8 0
12 *232:17 *237:21 1.48586e-06
13 *232:17 *237:29 1.64348e-06
14 *232:17 *238:8 2.1664e-06
15 *232:17 *567:14 2.43534e-06
16 *232:17 *613:10 7.87025e-06
17 *232:17 *613:18 2.2412e-05
18 *232:17 *614:41 0
19 *232:17 *658:8 4.48523e-06
20 *205:21 *232:17 5.21188e-05
*RES
1 *679:Y *232:6 19.3393 
2 *232:6 *1198:A 17.2 
3 *232:6 *232:15 28.9662 
4 *232:15 *232:17 53.5008 
5 *232:17 *757:D 36.5393 
*END

*D_NET *233 0.000214106
*CONN
*I *696:D I *D OR4x1_ASAP7_75t_R
*I *681:C I *D OR3x1_ASAP7_75t_R
*I *699:D I *D OR4x1_ASAP7_75t_R
*I *680:Y O *D NAND2x1_ASAP7_75t_R
*CAP
1 *696:D 6.25214e-06
2 *681:C 1.23676e-05
3 *699:D 0
4 *680:Y 1.39624e-05
5 *233:23 3.8164e-05
6 *233:12 3.71351e-05
7 *233:8 3.15533e-05
8 *681:C *249:8 2.66797e-07
9 *681:C *580:28 5.85624e-06
10 *681:C *613:61 4.97654e-06
11 *696:D *249:8 0
12 *233:8 *567:14 6.79293e-06
13 *233:8 *614:25 2.86811e-06
14 *233:8 *614:27 1.00689e-06
15 *233:8 *614:29 2.22736e-06
16 *233:8 *658:8 2.22736e-06
17 *233:12 *699:A 3.48165e-06
18 *233:23 *699:A 1.44167e-06
19 *233:23 *248:16 5.48826e-06
20 *233:23 *248:29 9.49032e-06
21 *233:23 *580:24 1.39013e-05
22 *233:23 *613:61 1.46465e-05
23 *232:17 *233:8 0
*RES
1 *680:Y *233:8 47.3528 
2 *233:8 *233:12 24.1527 
3 *233:12 *699:D 17.2 
4 *233:12 *233:23 36.2626 
5 *233:23 *681:C 42.5074 
6 *233:23 *696:D 37.0741 
*END

*D_NET *234 6.96137e-05
*CONN
*I *682:A I *D INVx1_ASAP7_75t_R
*I *681:Y O *D OR3x1_ASAP7_75t_R
*CAP
1 *682:A 4.78578e-06
2 *681:Y 1.18845e-05
3 *234:8 1.66703e-05
4 *682:A *308:6 3.81627e-06
5 *234:8 *238:8 0
6 *234:8 *247:8 4.65189e-06
7 *234:8 *580:38 1.49407e-08
8 *234:8 *580:46 0
9 *234:8 *613:61 5.67735e-06
10 *234:8 *614:29 2.21127e-05
*RES
1 *681:Y *234:8 46.2265 
2 *234:8 *682:A 37.0741 
*END

*D_NET *235 7.01616e-05
*CONN
*I *1276:A I *D BUFx3_ASAP7_75t_R
*I *692:A1 I *D OA211x2_ASAP7_75t_R
*I *682:Y O *D INVx1_ASAP7_75t_R
*CAP
1 *1276:A 3.66441e-06
2 *692:A1 2.02343e-05
3 *682:Y 6.86566e-06
4 *235:8 3.07644e-05
5 *692:A1 *692:A2 3.89037e-06
6 *692:A1 *238:8 0
7 *692:A1 *238:27 3.73144e-06
8 *1276:A *238:27 1.01102e-06
9 *235:8 *238:8 0
10 *235:8 *577:32 0
*RES
1 *682:Y *235:8 38.9053 
2 *235:8 *692:A1 47.9123 
3 *235:8 *1276:A 37.0741 
*END

*D_NET *236 1.26954e-05
*CONN
*I *685:A I *D AND3x1_ASAP7_75t_R
*I *683:Y O *D INVx1_ASAP7_75t_R
*CAP
1 *685:A 5.83518e-06
2 *683:Y 5.83518e-06
3 *685:A *237:21 1.02506e-06
*RES
1 *683:Y *685:A 38.1438 
*END

*D_NET *237 0.000118705
*CONN
*I *757:B I *D AND4x1_ASAP7_75t_R
*I *685:C I *D AND3x1_ASAP7_75t_R
*I *684:Y O *D INVx1_ASAP7_75t_R
*CAP
1 *757:B 0
2 *685:C 0
3 *684:Y 1.50139e-05
4 *237:29 1.31682e-05
5 *237:21 3.48636e-05
6 *237:6 3.67094e-05
7 *237:6 *580:38 1.27782e-06
8 *237:21 *685:B 1.03237e-05
9 *237:21 *238:8 1.48586e-06
10 *237:21 *580:38 5.52807e-07
11 *237:29 *757:C 5.22376e-07
12 *237:29 *307:8 0
13 *237:29 *614:41 6.33206e-07
14 *685:A *237:21 1.02506e-06
15 *208:8 *237:29 0
16 *232:17 *237:21 1.48586e-06
17 *232:17 *237:29 1.64348e-06
*RES
1 *684:Y *237:6 25.7572 
2 *237:6 *685:C 17.2 
3 *237:6 *237:21 46.4212 
4 *237:21 *237:29 43.354 
5 *237:29 *757:B 17.2 
*END

*D_NET *238 0.000176552
*CONN
*I *692:A2 I *D OA211x2_ASAP7_75t_R
*I *1279:A I *D BUFx3_ASAP7_75t_R
*I *685:Y O *D AND3x1_ASAP7_75t_R
*CAP
1 *692:A2 1.81696e-06
2 *1279:A 9.50736e-06
3 *685:Y 0
4 *238:35 1.83437e-05
5 *238:27 3.87866e-05
6 *238:8 5.54091e-05
7 *238:6 2.36419e-05
8 *1279:A *648:8 0
9 *238:8 *580:38 2.27786e-06
10 *238:27 *645:8 3.79923e-06
11 *238:27 *648:8 7.84037e-07
12 *238:35 *712:B1 3.65131e-06
13 *238:35 *712:B2 1.01102e-06
14 *238:35 *577:32 1.12894e-06
15 *238:35 *645:8 4.10928e-06
16 *692:A1 *692:A2 3.89037e-06
17 *692:A1 *238:8 0
18 *692:A1 *238:27 3.73144e-06
19 *1276:A *238:27 1.01102e-06
20 *232:17 *238:8 2.1664e-06
21 *234:8 *238:8 0
22 *235:8 *238:8 0
23 *237:21 *238:8 1.48586e-06
*RES
1 *685:Y *238:6 34.4 
2 *238:6 *238:8 18.5845 
3 *238:8 *1279:A 40.5098 
4 *238:8 *238:27 46.871 
5 *238:27 *238:35 43.7188 
6 *238:35 *692:A2 35.4697 
*END

*D_NET *239 0.000169079
*CONN
*I *710:C I *D AND4x1_ASAP7_75t_R
*I *689:C I *D OR4x1_ASAP7_75t_R
*I *686:Y O *D INVx1_ASAP7_75t_R
*CAP
1 *710:C 1.49359e-05
2 *689:C 0
3 *686:Y 8.34877e-06
4 *239:10 3.04803e-05
5 *239:6 5.3765e-05
6 *710:C *243:22 3.3921e-06
7 *710:C *243:33 2.71839e-06
8 *239:10 *711:B1 0
9 *239:10 *243:18 8.20723e-06
10 *239:10 *263:8 3.93602e-06
11 *239:10 *547:8 0
12 *239:10 *548:14 0
13 *239:10 *549:27 3.08505e-06
14 *239:10 *612:40 4.10928e-06
15 *239:10 *644:14 2.6808e-05
16 *195:10 *239:10 2.83874e-07
17 *209:31 *239:10 8.45637e-06
18 *229:24 *239:10 5.52807e-07
*RES
1 *686:Y *239:6 19.8741 
2 *239:6 *239:10 43.1056 
3 *239:10 *689:C 34.4 
4 *239:6 *710:C 22.5483 
*END

*D_NET *240 0.000103261
*CONN
*I *1179:A I *D BUFx3_ASAP7_75t_R
*I *689:A I *D OR4x1_ASAP7_75t_R
*I *687:Y O *D AND3x1_ASAP7_75t_R
*CAP
1 *1179:A 7.70059e-06
2 *689:A 0
3 *687:Y 1.51656e-05
4 *240:12 1.76194e-05
5 *240:8 2.50843e-05
6 *240:8 *657:8 4.32973e-06
7 *240:12 *689:B 4.63086e-06
8 *240:12 *548:14 2.92008e-06
9 *194:20 *240:12 0
10 *194:26 *240:12 6.58426e-06
11 *194:28 *1179:A 3.3921e-06
12 *222:62 *240:8 1.5804e-05
13 *229:10 *240:12 3.05118e-08
*RES
1 *687:Y *240:8 42.4224 
2 *240:8 *240:12 25.0843 
3 *240:12 *689:A 17.2 
4 *240:12 *1179:A 20.9438 
*END

*D_NET *241 9.52688e-05
*CONN
*I *689:B I *D OR4x1_ASAP7_75t_R
*I *1288:A I *D BUFx3_ASAP7_75t_R
*I *688:Y O *D AOI21x1_ASAP7_75t_R
*CAP
1 *689:B 1.54803e-05
2 *1288:A 4.42946e-06
3 *688:Y 1.03609e-05
4 *241:10 3.02707e-05
5 *689:B *1178:A 0
6 *689:B *242:10 1.18898e-06
7 *1288:A *657:8 3.56177e-06
8 *222:34 *241:10 2.61188e-06
9 *222:62 *689:B 9.30097e-06
10 *222:62 *241:10 1.34329e-05
11 *229:10 *689:B 0
12 *229:10 *241:10 0
13 *240:12 *689:B 4.63086e-06
*RES
1 *688:Y *241:10 41.5795 
2 *241:10 *1288:A 37.0741 
3 *241:10 *689:B 44.4803 
*END

*D_NET *242 0.000386497
*CONN
*I *692:C I *D OA211x2_ASAP7_75t_R
*I *1173:A I *D BUFx3_ASAP7_75t_R
*I *689:Y O *D OR4x1_ASAP7_75t_R
*CAP
1 *692:C 1.41986e-05
2 *1173:A 6.3288e-06
3 *689:Y 8.80713e-06
4 *242:18 7.94619e-05
5 *242:16 7.908e-05
6 *242:10 2.89526e-05
7 *692:C *692:B 4.41457e-06
8 *692:C *264:10 4.83862e-06
9 *692:C *428:10 3.90551e-06
10 *1173:A *264:10 5.85387e-06
11 *1173:A *264:14 5.17782e-06
12 *242:10 *689:D 4.57952e-06
13 *242:10 *1178:A 0
14 *242:18 *712:A1 3.32808e-05
15 *242:18 *243:33 3.05118e-08
16 *242:18 *262:8 3.43953e-05
17 *242:18 *264:10 8.58704e-06
18 *242:18 *428:10 1.67815e-06
19 *242:18 *549:8 3.88165e-05
20 *242:18 *644:25 5.67747e-07
21 *689:B *242:10 1.18898e-06
22 *691:A2 *242:18 3.3563e-06
23 *194:20 *242:16 8.57803e-06
24 *195:10 *242:18 0
25 *226:27 *242:16 5.10393e-06
26 *228:8 *242:18 5.31503e-06
*RES
1 *689:Y *242:10 39.5517 
2 *242:10 *242:16 41.9753 
3 *242:16 *242:18 54.9087 
4 *242:18 *1173:A 39.2134 
5 *242:18 *692:C 45.4933 
*END

*D_NET *243 0.000204017
*CONN
*I *691:A1 I *D AO31x2_ASAP7_75t_R
*I *710:B I *D AND4x1_ASAP7_75t_R
*I *690:Y O *D INVx1_ASAP7_75t_R
*CAP
1 *691:A1 3.54734e-06
2 *710:B 0
3 *690:Y 1.13238e-05
4 *243:33 3.34833e-05
5 *243:22 3.37582e-05
6 *243:18 1.44769e-05
7 *243:10 2.19784e-05
8 *243:10 *644:14 6.7842e-07
9 *243:18 *263:8 4.49007e-06
10 *243:18 *549:27 1.92255e-05
11 *243:18 *644:14 3.12503e-06
12 *243:22 *549:12 2.79851e-06
13 *243:33 *244:8 0
14 *243:33 *549:8 1.00883e-05
15 *243:33 *549:12 1.15428e-05
16 *710:C *243:22 3.3921e-06
17 *710:C *243:33 2.71839e-06
18 *100:12 *691:A1 3.65131e-06
19 *133:6 *243:10 6.1962e-06
20 *133:6 *243:18 9.30483e-06
21 *239:10 *243:18 8.20723e-06
22 *242:18 *243:33 3.05118e-08
*RES
1 *690:Y *243:10 43.0989 
2 *243:10 *243:18 47.2111 
3 *243:18 *243:22 19.8741 
4 *243:22 *710:B 17.2 
5 *243:22 *243:33 38.5683 
6 *243:33 *691:A1 37.0741 
*END

*D_NET *244 0.000222563
*CONN
*I *697:A1 I *D AOI22x1_ASAP7_75t_R
*I *713:A2 I *D AO22x1_ASAP7_75t_R
*I *692:B I *D OA211x2_ASAP7_75t_R
*I *691:Y O *D AO31x2_ASAP7_75t_R
*CAP
1 *697:A1 1.29595e-05
2 *713:A2 0
3 *692:B 1.53231e-05
4 *691:Y 0
5 *244:10 1.53231e-05
6 *244:8 6.34113e-05
7 *244:6 5.04517e-05
8 *692:B *713:B2 1.1364e-05
9 *692:B *245:6 3.31198e-05
10 *697:A1 *697:A2 4.89331e-06
11 *697:A1 *247:18 0
12 *697:A1 *247:29 5.37866e-07
13 *697:A1 *249:20 0
14 *697:A1 *542:10 5.69885e-06
15 *244:8 *264:10 0
16 *244:8 *264:20 0
17 *244:8 *268:18 0
18 *244:8 *437:8 0
19 *244:8 *542:10 5.06565e-06
20 *692:C *692:B 4.41457e-06
21 *243:33 *244:8 0
*RES
1 *691:Y *244:6 34.4 
2 *244:6 *244:8 38.2953 
3 *244:8 *244:10 17.2 
4 *244:10 *692:B 33.7796 
5 *244:10 *713:A2 17.2 
6 *244:8 *697:A1 44.537 
*END

*D_NET *245 0.00028543
*CONN
*I *704:B I *D OR3x1_ASAP7_75t_R
*I *709:B I *D OR4x1_ASAP7_75t_R
*I *692:Y O *D OA211x2_ASAP7_75t_R
*CAP
1 *704:B 1.40805e-05
2 *709:B 3.0519e-06
3 *692:Y 5.39657e-05
4 *245:10 3.85525e-05
5 *245:6 7.53858e-05
6 *704:B *704:A 2.04831e-05
7 *704:B *704:C 2.88806e-06
8 *704:B *709:D 9.17492e-06
9 *704:B *250:10 3.47607e-06
10 *704:B *308:18 0
11 *245:6 *713:B2 1.07377e-06
12 *245:6 *264:26 0
13 *245:6 *265:10 8.23084e-06
14 *245:10 *250:10 1.10447e-05
15 *245:10 *261:8 0
16 *245:10 *265:10 1.09022e-05
17 *245:10 *308:26 0
18 *692:B *245:6 3.31198e-05
*RES
1 *692:Y *245:6 44.4761 
2 *245:6 *245:10 34.6581 
3 *245:10 *709:B 35.4697 
4 *245:10 *704:B 48.8723 
*END

*D_NET *246 0.000136755
*CONN
*P B[15] I
*I *693:A I *D BUFx2_ASAP7_75t_R
*CAP
1 B[15] 1.95964e-05
2 *693:A 0
3 *246:17 3.50734e-05
4 *246:11 5.46698e-05
5 *246:11 S[1] 0
6 *92:9 *246:11 2.67819e-05
7 *92:15 *246:17 6.33206e-07
*RES
1 B[15] *246:11 41.8318 
2 *246:11 *246:17 44.1451 
3 *246:17 *693:A 17.2 
*END

*D_NET *247 0.000245287
*CONN
*I *713:B1 I *D AO22x1_ASAP7_75t_R
*I *697:B1 I *D AOI22x1_ASAP7_75t_R
*I *694:Y O *D OR4x1_ASAP7_75t_R
*CAP
1 *713:B1 0
2 *697:B1 0
3 *694:Y 6.95724e-06
4 *247:29 3.42407e-05
5 *247:18 3.88733e-06
6 *247:12 7.877e-05
7 *247:8 4.75992e-05
8 *247:8 *580:46 3.05118e-08
9 *247:12 *249:14 4.52303e-05
10 *247:12 *308:6 7.63254e-06
11 *247:18 *249:20 3.76935e-06
12 *247:29 *697:A2 5.52652e-06
13 *247:29 *261:8 0
14 *247:29 *264:20 2.35211e-06
15 *247:29 *541:8 2.20128e-06
16 *247:29 *542:10 1.89962e-06
17 *697:A1 *247:18 0
18 *697:A1 *247:29 5.37866e-07
19 *234:8 *247:8 4.65189e-06
*RES
1 *694:Y *247:8 38.9053 
2 *247:8 *247:12 38.0582 
3 *247:12 *247:18 38.3422 
4 *247:18 *697:B1 17.2 
5 *247:12 *247:29 37.4987 
6 *247:29 *713:B1 34.4 
*END

*D_NET *248 0.000252751
*CONN
*I *700:B I *D OR4x1_ASAP7_75t_R
*I *1202:A I *D BUFx3_ASAP7_75t_R
*I *696:A I *D OR4x1_ASAP7_75t_R
*I *695:Y O *D INVx1_ASAP7_75t_R
*CAP
1 *700:B 2.11048e-06
2 *1202:A 2.95274e-06
3 *696:A 2.41451e-06
4 *695:Y 0
5 *248:44 2.16033e-05
6 *248:29 4.65501e-05
7 *248:16 1.7992e-05
8 *248:6 3.9682e-05
9 *696:A *696:B 6.7842e-07
10 *700:B *700:A 7.80516e-06
11 *700:B *580:14 2.88335e-06
12 *248:16 *251:10 2.87354e-06
13 *248:16 *428:10 3.3563e-06
14 *248:16 *577:6 3.81627e-06
15 *248:16 *577:17 1.56306e-05
16 *248:29 *700:C 5.07403e-06
17 *248:29 *251:10 5.97385e-06
18 *248:29 *580:74 4.67779e-07
19 *248:29 *580:87 1.90925e-05
20 *248:29 *614:25 0
21 *248:29 *614:76 4.88445e-06
22 *248:44 *254:10 6.33206e-07
23 *248:44 *428:10 2.28488e-05
24 *203:24 *248:44 5.09299e-06
25 *203:30 *248:29 2.22736e-06
26 *203:30 *248:44 1.12894e-06
27 *233:23 *248:16 5.48826e-06
28 *233:23 *248:29 9.49032e-06
*RES
1 *695:Y *248:6 34.4 
2 *248:6 *248:16 49.9136 
3 *248:16 *696:A 35.4697 
4 *248:6 *248:29 38.6003 
5 *248:29 *1202:A 18.8045 
6 *248:29 *248:44 49.237 
7 *248:44 *700:B 19.3393 
*END

*D_NET *249 0.0002726
*CONN
*I *697:B2 I *D AOI22x1_ASAP7_75t_R
*I *713:B2 I *D AO22x1_ASAP7_75t_R
*I *696:Y O *D OR4x1_ASAP7_75t_R
*CAP
1 *697:B2 0
2 *713:B2 8.42549e-06
3 *696:Y 1.31879e-05
4 *249:20 2.07631e-05
5 *249:14 3.28082e-05
6 *249:8 3.36585e-05
7 *713:B2 *713:A1 7.46759e-06
8 *249:8 *580:46 7.35354e-06
9 *249:14 *308:6 4.09005e-05
10 *249:14 *577:17 1.93545e-05
11 *249:14 *577:32 7.57697e-06
12 *249:14 *580:46 7.18471e-06
13 *249:14 *614:56 7.37651e-06
14 *249:20 *308:12 4.83862e-06
15 *249:20 *428:10 0
16 *681:C *249:8 2.66797e-07
17 *692:B *713:B2 1.1364e-05
18 *696:D *249:8 0
19 *697:A1 *249:20 0
20 *245:6 *713:B2 1.07377e-06
21 *247:12 *249:14 4.52303e-05
22 *247:18 *249:20 3.76935e-06
*RES
1 *696:Y *249:8 40.2831 
2 *249:8 *249:14 43.5234 
3 *249:14 *249:20 44.537 
4 *249:20 *713:B2 26.8269 
5 *249:14 *697:B2 17.2 
*END

*D_NET *250 0.000178287
*CONN
*I *704:A I *D OR3x1_ASAP7_75t_R
*I *709:A I *D OR4x1_ASAP7_75t_R
*I *697:Y O *D AOI22x1_ASAP7_75t_R
*CAP
1 *704:A 1.75377e-05
2 *709:A 0
3 *697:Y 3.51579e-05
4 *250:10 2.84741e-05
5 *250:8 4.60943e-05
6 *704:A *704:C 1.56713e-06
7 *704:A *267:8 4.42421e-06
8 *250:8 *716:B 3.07519e-06
9 *250:10 *264:26 3.6269e-06
10 *250:10 *267:8 3.32579e-06
11 *250:10 *308:26 0
12 *704:B *704:A 2.04831e-05
13 *704:B *250:10 3.47607e-06
14 *245:10 *250:10 1.10447e-05
*RES
1 *697:Y *250:8 49.9099 
2 *250:8 *250:10 11.2633 
3 *250:10 *709:A 34.4 
4 *250:10 *704:A 49.237 
*END

*D_NET *251 0.000169424
*CONN
*I *700:C I *D OR4x1_ASAP7_75t_R
*I *699:B I *D OR4x1_ASAP7_75t_R
*I *698:Y O *D INVx1_ASAP7_75t_R
*CAP
1 *700:C 9.29091e-06
2 *699:B 7.62709e-06
3 *698:Y 1.51282e-05
4 *251:10 3.20462e-05
5 *699:B *699:A 2.71368e-06
6 *700:C *700:A 1.66706e-05
7 *700:C *253:8 1.66706e-05
8 *700:C *580:87 8.06436e-06
9 *251:10 *702:A 4.67779e-07
10 *251:10 *580:87 1.10281e-05
11 *203:30 *700:C 2.2496e-05
12 *203:30 *251:10 1.32995e-05
13 *248:16 *251:10 2.87354e-06
14 *248:29 *700:C 5.07403e-06
15 *248:29 *251:10 5.97385e-06
*RES
1 *698:Y *251:10 46.0848 
2 *251:10 *699:B 37.0741 
3 *251:10 *700:C 47.0977 
*END

*D_NET *252 9.46627e-05
*CONN
*I *702:A I *D AND3x1_ASAP7_75t_R
*I *699:Y O *D OR4x1_ASAP7_75t_R
*CAP
1 *702:A 6.04242e-06
2 *699:Y 2.89244e-05
3 *252:8 3.49668e-05
4 *702:A *702:C 5.62196e-06
5 *702:A *254:10 4.97654e-06
6 *702:A *428:10 4.74248e-06
7 *252:8 *699:A 1.59615e-06
8 *252:8 *702:C 2.20493e-06
9 *252:8 *580:87 4.33445e-06
10 *203:30 *702:A 7.84772e-07
11 *251:10 *702:A 4.67779e-07
*RES
1 *699:Y *252:8 46.701 
2 *252:8 *702:A 39.9466 
*END

*D_NET *253 0.000110988
*CONN
*I *702:B I *D AND3x1_ASAP7_75t_R
*I *700:Y O *D OR4x1_ASAP7_75t_R
*CAP
1 *702:B 1.40139e-05
2 *700:Y 1.5545e-05
3 *253:8 2.95589e-05
4 *702:B *702:C 1.44639e-06
5 *702:B *325:18 1.70708e-06
6 *702:B *428:10 2.93321e-05
7 *253:8 *700:A 2.71368e-06
8 *700:C *253:8 1.66706e-05
*RES
1 *700:Y *253:8 41.3527 
2 *253:8 *702:B 45.6066 
*END

*D_NET *254 0.00011425
*CONN
*I *702:C I *D AND3x1_ASAP7_75t_R
*I *701:Y O *D OR3x1_ASAP7_75t_R
*CAP
1 *702:C 9.32103e-06
2 *701:Y 1.39421e-05
3 *254:10 2.32632e-05
4 *254:10 *700:A 1.711e-05
5 *254:10 *428:10 2.4263e-06
6 *254:10 *580:16 4.74894e-06
7 *254:10 *580:18 2.03526e-06
8 *702:A *702:C 5.62196e-06
9 *702:A *254:10 4.97654e-06
10 *702:B *702:C 1.44639e-06
11 *203:30 *254:10 2.65203e-05
12 *248:44 *254:10 6.33206e-07
13 *252:8 *702:C 2.20493e-06
*RES
1 *701:Y *254:10 48.2241 
2 *254:10 *702:C 40.2831 
*END

*D_NET *255 8.30197e-05
*CONN
*I *703:A I *D INVx1_ASAP7_75t_R
*I *1172:A I *D BUFx3_ASAP7_75t_R
*I *702:Y O *D AND3x1_ASAP7_75t_R
*CAP
1 *703:A 0
2 *1172:A 9.48059e-06
3 *702:Y 1.47479e-05
4 *255:10 2.52354e-05
5 *255:8 3.05027e-05
6 *1172:A *256:8 3.05302e-06
7 *1172:A *428:10 0
8 *255:10 *325:18 0
9 *255:10 *428:10 0
*RES
1 *702:Y *255:8 41.3527 
2 *255:8 *255:10 11.8265 
3 *255:10 *1172:A 40.9029 
4 *255:10 *703:A 34.4 
*END

*D_NET *256 0.000121672
*CONN
*I *704:C I *D OR3x1_ASAP7_75t_R
*I *709:C I *D OR4x1_ASAP7_75t_R
*I *703:Y O *D INVx1_ASAP7_75t_R
*CAP
1 *704:C 1.3556e-05
2 *709:C 2.05652e-05
3 *703:Y 1.94132e-05
4 *256:8 5.35344e-05
5 *704:C *709:D 5.52807e-07
6 *709:C *709:D 4.77355e-06
7 *709:C *308:18 6.7842e-07
8 *709:C *541:8 1.09067e-06
9 *704:A *704:C 1.56713e-06
10 *704:B *704:C 2.88806e-06
11 *1172:A *256:8 3.05302e-06
*RES
1 *703:Y *256:8 47.2358 
2 *256:8 *709:C 47.0411 
3 *256:8 *704:C 43.0989 
*END

*D_NET *257 8.01862e-05
*CONN
*I *705:B I *D XNOR2x2_ASAP7_75t_R
*I *704:Y O *D OR3x1_ASAP7_75t_R
*CAP
1 *705:B 1.34365e-05
2 *704:Y 1.75518e-05
3 *257:8 3.09883e-05
4 *257:8 *709:D 5.52807e-07
5 *257:8 *266:16 1.76569e-05
6 *257:8 *581:23 0
*RES
1 *704:Y *257:8 49.6055 
2 *257:8 *705:B 41.3527 
*END

*D_NET *258 0.000372468
*CONN
*I *1280:A I *D BUFx3_ASAP7_75t_R
*I *730:C I *D AND5x1_ASAP7_75t_R
*I *706:Y O *D INVx1_ASAP7_75t_R
*CAP
1 *1280:A 0
2 *730:C 1.58679e-05
3 *706:Y 0
4 *258:31 3.29996e-05
5 *258:16 3.40943e-05
6 *258:12 6.20218e-05
7 *258:6 7.6795e-05
8 *730:C *285:6 2.11853e-06
9 *258:12 *310:18 4.10981e-06
10 *258:12 *584:18 3.75158e-06
11 *258:16 *587:10 1.79955e-05
12 *258:16 *587:34 1.32095e-05
13 *258:16 *587:51 5.09995e-06
14 *258:16 *662:10 4.89505e-05
15 *258:31 *722:D 1.04611e-05
16 *258:31 *310:18 2.61304e-06
17 *258:31 *584:18 2.24968e-06
18 *258:31 *587:14 1.26391e-06
19 *258:31 *587:22 8.70044e-06
20 *728:A *258:16 3.32579e-06
21 *730:A *730:C 2.68404e-05
*RES
1 *706:Y *258:6 34.4 
2 *258:6 *258:12 35.0193 
3 *258:12 *258:16 38.6003 
4 *258:16 *730:C 45.6313 
5 *258:6 *258:31 37.6651 
6 *258:31 *1280:A 17.2 
*END

*D_NET *259 0.000146861
*CONN
*P B[14] I
*I *707:A I *D BUFx6f_ASAP7_75t_R
*CAP
1 B[14] 1.97405e-05
2 *707:A 0
3 *259:15 2.19875e-05
4 *259:11 4.1728e-05
5 *259:11 *518:12 4.98627e-06
6 *259:15 *518:12 0
7 *87:9 *259:11 2.92092e-05
8 *93:9 *259:11 2.92092e-05
*RES
1 B[14] *259:11 44.475 
2 *259:11 *259:15 34.5643 
3 *259:15 *707:A 17.2 
*END

*D_NET *260 9.15977e-05
*CONN
*I *709:D I *D OR4x1_ASAP7_75t_R
*I *708:Y O *D OR4x1_ASAP7_75t_R
*CAP
1 *709:D 2.15243e-05
2 *708:Y 1.67475e-05
3 *260:8 3.82718e-05
4 *709:D *541:8 0
5 *260:8 *325:20 0
6 *704:B *709:D 9.17492e-06
7 *704:C *709:D 5.52807e-07
8 *709:C *709:D 4.77355e-06
9 *257:8 *709:D 5.52807e-07
*RES
1 *708:Y *260:8 41.3527 
2 *260:8 *709:D 49.5488 
*END

*D_NET *261 0.000221618
*CONN
*I *722:C I *D AND4x1_ASAP7_75t_R
*I *1169:A I *D BUFx3_ASAP7_75t_R
*I *908:B I *D AND2x2_ASAP7_75t_R
*I *709:Y O *D OR4x1_ASAP7_75t_R
*CAP
1 *722:C 0
2 *1169:A 4.88855e-06
3 *908:B 2.84044e-05
4 *709:Y 0
5 *261:38 1.70299e-05
6 *261:21 2.19184e-05
7 *261:8 6.16171e-05
8 *261:6 3.32127e-05
9 *908:B *722:B 6.49184e-07
10 *908:B *908:A 4.95587e-06
11 *908:B *268:18 1.30788e-05
12 *1169:A *268:18 2.03526e-06
13 *261:8 *264:20 0
14 *261:8 *265:10 2.80709e-06
15 *261:8 *268:18 6.72009e-06
16 *261:8 *308:18 9.94583e-06
17 *261:8 *541:8 0
18 *261:38 *268:18 9.67251e-06
19 *261:38 *275:8 6.10236e-07
20 *261:38 *275:14 4.07212e-06
21 *261:38 *308:26 0
22 *245:10 *261:8 0
23 *247:29 *261:8 0
*RES
1 *709:Y *261:6 34.4 
2 *261:6 *261:8 24.7793 
3 *261:8 *908:B 47.9974 
4 *261:8 *261:21 17.2 
5 *261:21 *1169:A 19.8741 
6 *261:21 *261:38 46.9277 
7 *261:38 *722:C 17.2 
*END

*D_NET *262 0.00020296
*CONN
*I *712:A1 I *D OAI22x1_ASAP7_75t_R
*I *895:A I *D OR3x1_ASAP7_75t_R
*I *710:Y O *D AND4x1_ASAP7_75t_R
*CAP
1 *712:A1 1.52534e-05
2 *895:A 0
3 *710:Y 1.23269e-05
4 *262:16 2.91034e-05
5 *262:8 5.66836e-05
6 *712:A1 *428:10 1.08882e-05
7 *262:8 *263:8 0
8 *262:16 *895:B 5.12159e-06
9 *262:16 *263:8 3.07925e-06
10 *262:16 *428:8 2.8275e-06
11 *195:10 *262:8 0
12 *242:18 *712:A1 3.32808e-05
13 *242:18 *262:8 3.43953e-05
*RES
1 *710:Y *262:8 46.2265 
2 *262:8 *262:16 49.6302 
3 *262:16 *895:A 34.4 
4 *262:8 *712:A1 49.4071 
*END

*D_NET *263 0.000235172
*CONN
*I *712:A2 I *D OAI22x1_ASAP7_75t_R
*I *895:C I *D OR3x1_ASAP7_75t_R
*I *711:Y O *D OA31x2_ASAP7_75t_R
*CAP
1 *712:A2 1.45166e-05
2 *895:C 0
3 *711:Y 0
4 *263:8 4.69441e-05
5 *263:6 3.24275e-05
6 *712:A2 *577:32 2.70287e-05
7 *712:A2 *645:8 2.83874e-07
8 *712:A2 *648:8 0
9 *263:8 *549:27 2.53404e-05
10 *263:8 *577:32 8.06923e-06
11 *195:10 *263:8 6.84229e-05
12 *209:31 *263:8 6.33206e-07
13 *239:10 *263:8 3.93602e-06
14 *243:18 *263:8 4.49007e-06
15 *262:8 *263:8 0
16 *262:16 *263:8 3.07925e-06
*RES
1 *711:Y *263:6 34.4 
2 *263:6 *263:8 33.2268 
3 *263:8 *895:C 34.4 
4 *263:8 *712:A2 46.0848 
*END

*D_NET *264 0.000236325
*CONN
*I *716:A1 I *D AO31x2_ASAP7_75t_R
*I *712:Y O *D OAI22x1_ASAP7_75t_R
*CAP
1 *716:A1 0
2 *712:Y 8.37534e-06
3 *264:26 4.42562e-05
4 *264:20 6.21746e-05
5 *264:14 4.63123e-05
6 *264:10 3.67693e-05
7 *264:14 *542:10 1.59615e-06
8 *264:20 *268:18 2.83874e-07
9 *264:20 *542:10 5.52807e-07
10 *264:26 *265:10 4.20803e-06
11 *264:26 *308:26 1.35961e-06
12 *692:C *264:10 4.83862e-06
13 *1173:A *264:10 5.85387e-06
14 *1173:A *264:14 5.17782e-06
15 *242:18 *264:10 8.58704e-06
16 *244:8 *264:10 0
17 *244:8 *264:20 0
18 *245:6 *264:26 0
19 *247:29 *264:20 2.35211e-06
20 *250:10 *264:26 3.6269e-06
21 *261:8 *264:20 0
*RES
1 *712:Y *264:10 39.9466 
2 *264:10 *264:14 34.8492 
3 *264:14 *264:20 46.7897 
4 *264:20 *264:26 38.3416 
5 *264:26 *716:A1 34.4 
*END

*D_NET *265 5.78152e-05
*CONN
*I *716:A2 I *D AO31x2_ASAP7_75t_R
*I *713:Y O *D AO22x1_ASAP7_75t_R
*CAP
1 *716:A2 0
2 *713:Y 1.58335e-05
3 *265:10 1.58335e-05
4 *245:6 *265:10 8.23084e-06
5 *245:10 *265:10 1.09022e-05
6 *261:8 *265:10 2.80709e-06
7 *264:26 *265:10 4.20803e-06
*RES
1 *713:Y *265:10 49.2937 
2 *265:10 *716:A2 34.4 
*END

*D_NET *266 0.000183944
*CONN
*I *759:A I *D XNOR2x2_ASAP7_75t_R
*I *715:D I *D OR4x1_ASAP7_75t_R
*I *714:Y O *D INVx1_ASAP7_75t_R
*CAP
1 *759:A 5.10883e-06
2 *715:D 0
3 *714:Y 1.71256e-05
4 *266:16 3.32448e-05
5 *266:10 4.94485e-05
6 *266:8 2.82205e-05
7 *759:A *759:B 4.57952e-06
8 *266:10 *309:10 0
9 *266:10 *615:8 9.17492e-06
10 *266:16 *708:D 1.44908e-05
11 *266:16 *582:14 0
12 *266:16 *615:8 4.89331e-06
13 *714:A *266:8 0
14 *257:8 *266:16 1.76569e-05
*RES
1 *714:Y *266:8 42.4224 
2 *266:8 *266:10 7.88432 
3 *266:10 *266:16 43.4137 
4 *266:16 *715:D 17.2 
5 *266:10 *759:A 38.1438 
*END

*D_NET *267 0.000113166
*CONN
*I *716:B I *D AO31x2_ASAP7_75t_R
*I *715:Y O *D OR4x1_ASAP7_75t_R
*CAP
1 *716:B 1.4327e-05
2 *715:Y 1.61796e-05
3 *267:8 3.05067e-05
4 *716:B *308:24 4.13278e-05
5 *704:A *267:8 4.42421e-06
6 *250:8 *716:B 3.07519e-06
7 *250:10 *267:8 3.32579e-06
*RES
1 *715:Y *267:8 47.3528 
2 *267:8 *716:B 47.7706 
*END

*D_NET *268 0.000204583
*CONN
*I *723:A2 I *D AOI211x1_ASAP7_75t_R
*I *722:B I *D AND4x1_ASAP7_75t_R
*I *908:A I *D AND2x2_ASAP7_75t_R
*I *716:Y O *D AO31x2_ASAP7_75t_R
*CAP
1 *723:A2 0
2 *722:B 1.06921e-05
3 *908:A 7.66405e-06
4 *716:Y 1.54425e-05
5 *268:20 1.83562e-05
6 *268:18 2.23223e-05
7 *268:12 3.76569e-05
8 *268:8 3.07771e-05
9 *722:B *722:A 1.61096e-06
10 *268:8 *273:18 6.33206e-07
11 *268:8 *304:10 0
12 *268:8 *308:26 9.42815e-06
13 *268:12 *538:10 8.31096e-06
14 *268:18 *722:A 4.7643e-07
15 *268:18 *538:10 3.81627e-06
16 *908:B *722:B 6.49184e-07
17 *908:B *908:A 4.95587e-06
18 *908:B *268:18 1.30788e-05
19 *1169:A *268:18 2.03526e-06
20 *244:8 *268:18 0
21 *261:8 *268:18 6.72009e-06
22 *261:38 *268:18 9.67251e-06
23 *264:20 *268:18 2.83874e-07
*RES
1 *716:Y *268:8 48.4791 
2 *268:8 *268:12 27.3617 
3 *268:12 *268:18 36.429 
4 *268:18 *268:20 17.2 
5 *268:20 *908:A 22.0134 
6 *268:20 *722:B 23.0831 
7 *268:12 *723:A2 17.2 
*END

*D_NET *269 0.000153641
*CONN
*I *1197:A I *D BUFx3_ASAP7_75t_R
*I *730:B I *D AND5x1_ASAP7_75t_R
*I *717:Y O *D INVx1_ASAP7_75t_R
*CAP
1 *1197:A 1.28778e-05
2 *730:B 0
3 *717:Y 0
4 *269:12 3.64458e-05
5 *269:6 4.93236e-05
6 *1197:A *270:8 0
7 *1197:A *564:8 5.37866e-07
8 *269:12 *278:8 2.83874e-07
9 *269:12 *285:6 5.38883e-05
10 *269:12 *564:8 2.83874e-07
*RES
1 *717:Y *269:6 34.4 
2 *269:6 *269:12 36.6237 
3 *269:12 *730:B 17.2 
4 *269:6 *1197:A 41.9726 
*END

*D_NET *270 0.000350849
*CONN
*I *730:D I *D AND5x1_ASAP7_75t_R
*I *1196:A I *D BUFx3_ASAP7_75t_R
*I *718:Y O *D OR3x1_ASAP7_75t_R
*CAP
1 *730:D 8.19989e-06
2 *1196:A 0
3 *718:Y 0
4 *270:14 4.0113e-05
5 *270:8 8.83114e-05
6 *270:6 3.99986e-05
7 *730:D *271:16 1.25483e-05
8 *730:D *281:8 3.48165e-06
9 *730:D *285:6 5.25794e-06
10 *270:8 *726:B 0
11 *270:8 *727:B 2.66045e-05
12 *270:8 *271:10 5.69885e-06
13 *270:8 *271:16 1.89317e-05
14 *270:8 *278:8 1.94924e-05
15 *270:8 *432:10 0
16 *270:8 *564:8 0
17 *270:8 *585:66 0
18 *270:8 *585:77 2.74606e-06
19 *270:8 *617:14 0
20 *270:8 *617:18 2.53836e-05
21 *270:8 *641:37 5.79724e-07
22 *270:14 *737:E 2.17837e-05
23 *270:14 *278:8 2.8486e-05
24 *270:14 *281:10 2.31843e-06
25 *270:14 *564:14 9.13667e-07
26 *1197:A *270:8 0
*RES
1 *718:Y *270:6 34.4 
2 *270:6 *270:8 40.548 
3 *270:8 *270:14 45.9462 
4 *270:14 *1196:A 17.2 
5 *270:8 *730:D 41.8876 
*END

*D_NET *271 0.000187614
*CONN
*I *1195:A I *D BUFx3_ASAP7_75t_R
*I *730:E I *D AND5x1_ASAP7_75t_R
*I *719:Y O *D OAI21x1_ASAP7_75t_R
*CAP
1 *1195:A 1.61488e-05
2 *730:E 0
3 *719:Y 7.52222e-06
4 *271:16 1.19586e-05
5 *271:10 3.56297e-05
6 *1195:A *719:B 4.92332e-06
7 *271:10 *719:B 2.12481e-06
8 *271:10 *277:12 1.39483e-05
9 *271:16 *277:12 4.53987e-05
10 *271:16 *285:6 1.27802e-05
11 *730:D *271:16 1.25483e-05
12 *270:8 *271:10 5.69885e-06
13 *270:8 *271:16 1.89317e-05
*RES
1 *719:Y *271:10 41.073 
2 *271:10 *271:16 36.1493 
3 *271:16 *730:E 17.2 
4 *271:10 *1195:A 43.492 
*END

*D_NET *272 0.00030187
*CONN
*I *721:B I *D XNOR2x2_ASAP7_75t_R
*I *720:Y O *D AND3x1_ASAP7_75t_R
*CAP
1 *721:B 0
2 *720:Y 0
3 *272:14 3.79484e-06
4 *272:6 0.000124213
5 *272:4 0.000120418
6 *272:6 *720:A 5.4358e-07
7 *272:6 *729:A1 1.04475e-06
8 *272:6 *729:A2 5.41446e-06
9 *272:6 *729:B1 5.85153e-06
10 *272:6 *273:6 0
11 *272:6 *277:14 2.01337e-05
12 *272:6 *279:10 0
13 *272:6 *280:8 0
14 *272:6 *565:27 6.60831e-06
15 *272:6 *587:51 3.16328e-06
16 *272:14 *273:6 1.56713e-06
17 *272:14 *310:18 0
18 *272:14 *584:29 8.33296e-06
19 *272:14 *618:8 7.84037e-07
*RES
1 *720:Y *272:4 17.2 
2 *272:4 *272:6 49.7387 
3 *272:6 *272:14 38.8203 
4 *272:14 *721:B 17.2 
*END

*D_NET *273 0.000261465
*CONN
*I *723:B I *D AOI211x1_ASAP7_75t_R
*I *722:D I *D AND4x1_ASAP7_75t_R
*I *1177:A I *D BUFx3_ASAP7_75t_R
*I *721:Y O *D XNOR2x2_ASAP7_75t_R
*CAP
1 *723:B 0
2 *722:D 2.12792e-05
3 *1177:A 1.24421e-05
4 *721:Y 4.08952e-05
5 *273:18 4.53887e-05
6 *273:14 2.55544e-05
7 *273:6 5.47823e-05
8 *722:D *275:14 1.06652e-05
9 *1177:A *909:B 1.49313e-05
10 *1177:A *304:10 0
11 *1177:A *308:26 0
12 *1177:A *649:8 3.75158e-06
13 *1177:A *649:12 1.23408e-05
14 *273:14 *304:10 2.22736e-06
15 *273:14 *587:22 2.35211e-06
16 *273:18 *308:26 0
17 *273:18 *587:22 2.19336e-06
18 *258:31 *722:D 1.04611e-05
19 *268:8 *273:18 6.33206e-07
20 *272:6 *273:6 0
21 *272:14 *273:6 1.56713e-06
*RES
1 *721:Y *273:6 34.8492 
2 *273:6 *273:14 44.2252 
3 *273:14 *273:18 26.2107 
4 *273:18 *1177:A 46.0281 
5 *273:18 *722:D 46.701 
6 *273:14 *723:B 17.2 
*END

*D_NET *274 0.000464792
*CONN
*I *724:B I *D OR2x2_ASAP7_75t_R
*I *914:A1 I *D OAI21x1_ASAP7_75t_R
*I *912:A I *D OR4x1_ASAP7_75t_R
*I *722:Y O *D AND4x1_ASAP7_75t_R
*CAP
1 *724:B 0
2 *914:A1 7.19506e-06
3 *912:A 1.35916e-05
4 *722:Y 1.96999e-05
5 *274:24 2.65878e-05
6 *274:20 1.63179e-05
7 *274:16 7.01959e-05
8 *274:14 6.46647e-05
9 *274:8 2.46855e-05
10 *912:A *912:B 3.73144e-06
11 *912:A *324:22 3.81627e-06
12 *912:A *588:10 1.6136e-06
13 *912:A *588:22 0
14 *912:A *620:46 0
15 *914:A1 *724:A 1.96943e-05
16 *274:8 *275:16 0
17 *274:8 *308:26 4.17368e-06
18 *274:14 *584:12 1.43515e-05
19 *274:16 *914:B 0
20 *274:16 *275:16 5.72504e-05
21 *274:16 *289:17 0
22 *274:16 *308:26 0
23 *274:16 *322:18 2.96216e-05
24 *274:16 *322:33 3.48708e-06
25 *274:16 *438:10 1.19729e-05
26 *274:16 *559:12 8.06436e-06
27 *274:16 *570:10 0
28 *274:16 *620:46 4.01856e-05
29 *274:20 *724:A 4.41457e-06
30 *274:24 *914:B 5.52807e-07
31 *100:8 *274:16 2.25787e-06
32 *222:46 *274:16 1.66659e-05
*RES
1 *722:Y *274:8 47.3528 
2 *274:8 *274:14 38.1438 
3 *274:14 *274:16 67.0168 
4 *274:16 *274:20 22.0134 
5 *274:20 *274:24 21.1422 
6 *274:24 *912:A 46.0848 
7 *274:24 *914:A1 40.2831 
8 *274:20 *724:B 17.2 
*END

*D_NET *275 0.000549978
*CONN
*I *912:D I *D OR4x1_ASAP7_75t_R
*I *1164:A I *D BUFx3_ASAP7_75t_R
*I *723:Y O *D AOI211x1_ASAP7_75t_R
*CAP
1 *912:D 2.22121e-06
2 *1164:A 9.02219e-06
3 *723:Y 7.44452e-06
4 *275:39 1.58038e-05
5 *275:28 2.79037e-05
6 *275:24 2.02157e-05
7 *275:16 8.86488e-05
8 *275:14 8.14854e-05
9 *275:8 1.51979e-05
10 *1164:A *322:6 1.06007e-05
11 *275:8 *308:26 2.98814e-07
12 *275:16 *722:A 8.61943e-06
13 *275:16 *910:A 1.65839e-05
14 *275:16 *438:10 2.30418e-05
15 *275:16 *559:12 8.33296e-06
16 *275:16 *570:10 6.13287e-06
17 *275:16 *620:10 3.27202e-06
18 *275:24 *914:B 8.33296e-06
19 *275:24 *322:12 5.79724e-07
20 *275:24 *440:8 1.99018e-05
21 *275:24 *570:10 4.74248e-06
22 *275:28 *322:6 6.7842e-07
23 *275:28 *440:8 2.03526e-06
24 *275:28 *588:22 3.48165e-06
25 *275:39 *914:B 2.98532e-06
26 *275:39 *441:8 0
27 *275:39 *533:8 1.65352e-05
28 *275:39 *588:10 2.84286e-06
29 *275:39 *588:22 3.53295e-05
30 *722:D *275:14 1.06652e-05
31 *222:46 *275:16 1.66659e-05
32 *226:37 *275:16 1.84438e-05
33 *261:38 *275:8 6.10236e-07
34 *261:38 *275:14 4.07212e-06
35 *274:8 *275:16 0
36 *274:16 *275:16 5.72504e-05
*RES
1 *723:Y *275:8 38.9053 
2 *275:8 *275:14 39.2134 
3 *275:14 *275:16 75.4642 
4 *275:16 *275:24 44.2252 
5 *275:24 *275:28 20.9438 
6 *275:28 *1164:A 24.6875 
7 *275:28 *275:39 33.5318 
8 *275:39 *912:D 35.4697 
*END

*D_NET *276 6.32434e-05
*CONN
*I *725:B I *D XNOR2x2_ASAP7_75t_R
*I *724:Y O *D OR2x2_ASAP7_75t_R
*CAP
1 *725:B 0
2 *724:Y 1.65697e-05
3 *276:10 1.65697e-05
4 *276:10 *308:32 6.73251e-06
5 *276:10 *321:41 2.33715e-05
6 *276:10 *620:46 0
*RES
1 *724:Y *276:10 48.1674 
2 *276:10 *725:B 34.4 
*END

*D_NET *277 0.0002557
*CONN
*I *737:D I *D OR5x1_ASAP7_75t_R
*I *729:A2 I *D OA31x2_ASAP7_75t_R
*I *726:Y O *D NOR3x1_ASAP7_75t_R
*CAP
1 *737:D 0
2 *729:A2 1.54685e-06
3 *726:Y 4.15277e-06
4 *277:29 1.31184e-05
5 *277:14 1.88852e-05
6 *277:12 3.621e-05
7 *277:8 3.61429e-05
8 *729:A2 *279:10 5.0551e-07
9 *277:12 *726:B 0
10 *277:12 *281:10 1.2903e-05
11 *277:12 *585:40 0
12 *277:12 *607:27 1.03816e-05
13 *277:14 *729:B1 1.29755e-05
14 *277:14 *279:10 5.19552e-07
15 *277:29 *737:B 8.1627e-06
16 *277:29 *737:C 6.19506e-06
17 *277:29 *279:10 5.19498e-06
18 *277:29 *281:10 2.83874e-07
19 *277:29 *585:40 3.6269e-06
20 *271:10 *277:12 1.39483e-05
21 *271:16 *277:12 4.53987e-05
22 *272:6 *729:A2 5.41446e-06
23 *272:6 *277:14 2.01337e-05
*RES
1 *726:Y *277:8 36.0045 
2 *277:8 *277:12 47.0478 
3 *277:12 *277:14 5.88308 
4 *277:14 *729:A2 18.8045 
5 *277:14 *277:29 45.55 
6 *277:29 *737:D 17.2 
*END

*D_NET *278 0.000173359
*CONN
*I *729:A3 I *D OA31x2_ASAP7_75t_R
*I *737:E I *D OR5x1_ASAP7_75t_R
*I *727:Y O *D OA21x2_ASAP7_75t_R
*CAP
1 *729:A3 9.26209e-06
2 *737:E 2.14385e-05
3 *727:Y 0
4 *278:8 4.72808e-05
5 *278:6 1.65803e-05
6 *729:A3 *729:B1 7.97634e-06
7 *737:E *280:14 7.75244e-07
8 *737:E *564:14 0
9 *278:8 *564:14 0
10 *269:12 *278:8 2.83874e-07
11 *270:8 *278:8 1.94924e-05
12 *270:14 *737:E 2.17837e-05
13 *270:14 *278:8 2.8486e-05
*RES
1 *727:Y *278:6 34.4 
2 *278:6 *278:8 16.3318 
3 *278:8 *737:E 48.1107 
4 *278:8 *729:A3 40.2831 
*END

*D_NET *279 0.00010139
*CONN
*I *729:B1 I *D OA31x2_ASAP7_75t_R
*I *728:Y O *D NOR2x1_ASAP7_75t_R
*CAP
1 *729:B1 7.55513e-06
2 *728:Y 2.30034e-05
3 *279:10 3.05586e-05
4 *279:10 *729:A1 2.20493e-06
5 *279:10 *281:10 5.04414e-06
6 *729:A2 *279:10 5.0551e-07
7 *729:A3 *729:B1 7.97634e-06
8 *272:6 *729:B1 5.85153e-06
9 *272:6 *279:10 0
10 *277:14 *729:B1 1.29755e-05
11 *277:14 *279:10 5.19552e-07
12 *277:29 *279:10 5.19498e-06
*RES
1 *728:Y *279:10 47.4342 
2 *279:10 *729:B1 42.4224 
*END

*D_NET *280 0.000332095
*CONN
*I *733:B I *D OR4x2_ASAP7_75t_R
*I *822:B I *D OR3x1_ASAP7_75t_R
*I *729:Y O *D OA31x2_ASAP7_75t_R
*CAP
1 *733:B 0
2 *822:B 7.30451e-06
3 *729:Y 6.56294e-06
4 *280:45 9.13162e-06
5 *280:28 3.41365e-05
6 *280:22 5.05862e-05
7 *280:20 3.16426e-05
8 *280:14 5.22178e-05
9 *280:8 4.17608e-05
10 *822:B *822:C 6.92634e-06
11 *822:B *372:14 1.60115e-05
12 *280:14 *288:8 0
13 *280:14 *290:22 5.18804e-06
14 *280:14 *291:8 3.65131e-06
15 *280:14 *564:14 1.22643e-06
16 *280:20 *290:12 1.12894e-06
17 *280:20 *291:10 1.45123e-05
18 *280:22 *741:A 5.51397e-07
19 *280:28 *733:C 5.85387e-06
20 *280:28 *281:10 3.22574e-06
21 *280:28 *281:20 5.96755e-06
22 *280:28 *284:6 2.61188e-06
23 *280:28 *372:14 0
24 *280:28 *373:12 2.83874e-07
25 *280:28 *563:10 0
26 *280:45 *733:A 8.33296e-06
27 *280:45 *284:6 4.49469e-06
28 *280:45 *372:14 1.80102e-05
29 *737:E *280:14 7.75244e-07
30 *272:6 *280:8 0
*RES
1 *729:Y *280:8 37.0741 
2 *280:8 *280:14 43.5271 
3 *280:14 *280:20 48.4791 
4 *280:20 *280:22 4.81343 
5 *280:22 *280:28 33.2767 
6 *280:28 *822:B 41.3527 
7 *280:22 *280:45 43.8038 
8 *280:45 *733:B 17.2 
*END

*D_NET *281 0.000270732
*CONN
*I *733:C I *D OR4x2_ASAP7_75t_R
*I *822:C I *D OR3x1_ASAP7_75t_R
*I *730:Y O *D AND5x1_ASAP7_75t_R
*CAP
1 *733:C 1.22123e-06
2 *822:C 2.39722e-06
3 *730:Y 6.11892e-06
4 *281:20 2.16025e-05
5 *281:10 7.30205e-05
6 *281:8 5.87129e-05
7 *281:10 *733:A 5.06565e-06
8 *281:10 *740:A1 5.37569e-06
9 *281:10 *823:A1 2.20128e-06
10 *281:10 *823:A2 9.64719e-06
11 *281:10 *823:B 1.42562e-06
12 *281:10 *288:8 1.85877e-05
13 *281:10 *290:12 1.49407e-08
14 *281:10 *291:10 0
15 *281:10 *585:40 0
16 *281:10 *587:64 9.97906e-07
17 *281:20 *733:A 1.89962e-06
18 *281:20 *284:6 1.64387e-05
19 *281:20 *563:10 0
20 *730:D *281:8 3.48165e-06
21 *822:B *822:C 6.92634e-06
22 *270:14 *281:10 2.31843e-06
23 *277:12 *281:10 1.2903e-05
24 *277:29 *281:10 2.83874e-07
25 *279:10 *281:10 5.04414e-06
26 *280:28 *733:C 5.85387e-06
27 *280:28 *281:10 3.22574e-06
28 *280:28 *281:20 5.96755e-06
*RES
1 *730:Y *281:8 37.0741 
2 *281:8 *281:10 46.7428 
3 *281:10 *281:20 48.7872 
4 *281:20 *822:C 36.5393 
5 *281:10 *733:C 36.0045 
*END

*D_NET *282 0.000127681
*CONN
*P B[13] I
*I *731:A I *D BUFx3_ASAP7_75t_R
*CAP
1 B[13] 4.95707e-05
2 *731:A 0
3 *282:15 7.76076e-07
4 *282:9 5.03468e-05
5 *282:9 S[14] 0
6 *282:9 S[15] 0
7 *282:9 S[16] 6.97583e-07
8 *282:15 *503:8 1.93482e-06
9 *94:11 *282:9 2.43547e-05
*RES
1 B[13] *282:9 38.4317 
2 *282:9 *282:15 35.057 
3 *282:15 *731:A 17.2 
*END

*D_NET *283 0.00094523
*CONN
*I *778:B I *D OR5x1_ASAP7_75t_R
*I *1194:A I *D BUFx6f_ASAP7_75t_R
*I *775:D I *D OR5x1_ASAP7_75t_R
*I *732:Y O *D OR4x2_ASAP7_75t_R
*CAP
1 *778:B 5.88121e-06
2 *1194:A 0
3 *775:D 0
4 *732:Y 5.21278e-06
5 *283:51 1.26832e-05
6 *283:38 2.20794e-05
7 *283:34 4.02304e-05
8 *283:32 3.43984e-05
9 *283:26 8.91272e-05
10 *283:24 7.96817e-05
11 *283:22 3.55475e-05
12 *283:16 7.16859e-05
13 *283:10 4.13511e-05
14 *778:B *308:26 0
15 *778:B *328:10 9.94583e-06
16 *778:B *563:28 5.04703e-06
17 *283:22 *586:8 1.12839e-05
18 *283:22 *654:59 0
19 *283:26 *297:12 0
20 *283:26 *305:8 5.79724e-07
21 *283:26 *310:18 4.32559e-05
22 *283:26 *310:24 5.26269e-05
23 *283:26 *324:26 0
24 *283:26 *446:10 0
25 *283:26 *563:18 1.98844e-05
26 *283:26 *563:28 0
27 *283:32 *559:38 2.70479e-05
28 *283:32 *563:18 2.03526e-06
29 *283:34 *308:26 0
30 *283:34 *321:53 2.98375e-05
31 *283:34 *324:39 7.27531e-06
32 *283:34 *563:28 2.94029e-05
33 *283:38 *775:E 1.40419e-08
34 *283:38 *1192:A 1.04475e-06
35 *283:38 *329:25 1.35684e-06
36 *283:51 *1278:A 0
37 *283:51 *310:18 2.27708e-05
38 *283:51 *329:25 2.71368e-06
39 *751:A *283:26 1.82715e-05
40 *985:B *283:22 5.0468e-07
41 *104:8 *283:26 3.9332e-05
42 *139:10 *283:26 0
43 *186:10 *283:26 0.000123226
44 *186:19 *283:26 1.39483e-05
45 *187:29 *283:10 0
46 *188:8 *283:10 2.85858e-07
47 *192:10 *283:22 0
48 *192:10 *283:26 0
49 *193:19 *283:22 0
50 *209:50 *778:B 1.68431e-05
51 *209:50 *283:38 5.01287e-06
52 *210:37 *283:34 0
53 *210:56 *283:38 2.38044e-05
*RES
1 *732:Y *283:10 36.6615 
2 *283:10 *283:16 46.5205 
3 *283:16 *283:22 41.9278 
4 *283:22 *283:24 17.2 
5 *283:24 *283:26 93.4856 
6 *283:26 *283:32 42.4224 
7 *283:32 *283:34 24.7793 
8 *283:34 *283:38 25.7572 
9 *283:38 *775:D 17.2 
10 *283:38 *283:51 44.4236 
11 *283:51 *1194:A 17.2 
12 *283:34 *778:B 42.2843 
*END

*D_NET *284 0.000285431
*CONN
*I *741:A I *D AND2x2_ASAP7_75t_R
*I *816:A1 I *D AOI22x1_ASAP7_75t_R
*I *820:A1 I *D AO211x2_ASAP7_75t_R
*I *733:Y O *D OR4x2_ASAP7_75t_R
*CAP
1 *741:A 4.2941e-06
2 *816:A1 0
3 *820:A1 0
4 *733:Y 1.81699e-05
5 *284:31 2.26174e-05
6 *284:20 9.38622e-06
7 *284:12 4.19396e-05
8 *284:6 3.24e-05
9 *284:6 *733:D 7.46759e-06
10 *284:12 *291:10 8.45637e-06
11 *284:12 *291:16 2.71344e-05
12 *284:12 *292:10 2.73415e-06
13 *284:20 *291:16 9.7275e-06
14 *284:20 *372:14 6.7842e-07
15 *284:20 *373:12 9.86543e-06
16 *284:31 *820:C 1.98917e-05
17 *284:31 *291:27 3.13615e-06
18 *284:31 *292:10 4.19043e-05
19 *284:31 *373:16 1.53057e-06
20 *280:22 *741:A 5.51397e-07
21 *280:28 *284:6 2.61188e-06
22 *280:45 *284:6 4.49469e-06
23 *281:20 *284:6 1.64387e-05
*RES
1 *733:Y *284:6 31.6403 
2 *284:6 *284:12 45.6633 
3 *284:12 *284:20 40.4531 
4 *284:20 *820:A1 17.2 
5 *284:12 *284:31 37.1622 
6 *284:31 *816:A1 34.4 
7 *284:6 *741:A 19.8741 
*END

*D_NET *285 0.000149021
*CONN
*I *735:B I *D AO31x2_ASAP7_75t_R
*I *734:Y O *D OR2x2_ASAP7_75t_R
*CAP
1 *735:B 0
2 *734:Y 2.9233e-05
3 *285:6 2.9233e-05
4 *285:6 *735:A3 8.87763e-06
5 *730:A *285:6 7.63254e-06
6 *730:C *285:6 2.11853e-06
7 *730:D *285:6 5.25794e-06
8 *269:12 *285:6 5.38883e-05
9 *271:16 *285:6 1.27802e-05
*RES
1 *734:Y *285:6 45.0109 
2 *285:6 *735:B 17.2 
*END

*D_NET *286 0.000304388
*CONN
*I *740:A1 I *D AO21x1_ASAP7_75t_R
*I *823:A1 I *D AO21x1_ASAP7_75t_R
*I *735:Y O *D AO31x2_ASAP7_75t_R
*CAP
1 *740:A1 1.52921e-05
2 *823:A1 1.67753e-06
3 *735:Y 0
4 *286:22 5.27202e-05
5 *286:18 4.38052e-05
6 *286:12 4.94469e-05
7 *286:8 8.33828e-05
8 *286:6 4.19905e-05
9 *740:A1 *740:A2 1.95129e-06
10 *286:8 *843:A 0
11 *286:8 *389:30 0
12 *286:8 *565:27 0
13 *286:22 *823:A2 2.88806e-06
14 *286:22 *290:6 3.65663e-06
15 *163:12 *286:8 0
16 *163:18 *286:8 0
17 *281:10 *740:A1 5.37569e-06
18 *281:10 *823:A1 2.20128e-06
*RES
1 *735:Y *286:6 34.4 
2 *286:6 *286:8 33.2268 
3 *286:8 *286:12 39.1278 
4 *286:12 *286:18 38.9053 
5 *286:18 *286:22 31.6403 
6 *286:22 *823:A1 36.0895 
7 *286:22 *740:A1 43.7188 
*END

*D_NET *287 1.58434e-05
*CONN
*I *737:A I *D OR5x1_ASAP7_75t_R
*I *736:Y O *D INVx1_ASAP7_75t_R
*CAP
1 *737:A 5.75115e-06
2 *736:Y 5.75115e-06
3 *737:A *587:64 4.34114e-06
*RES
1 *736:Y *737:A 38.1438 
*END

*D_NET *288 0.000113957
*CONN
*I *740:A2 I *D AO21x1_ASAP7_75t_R
*I *823:A2 I *D AO21x1_ASAP7_75t_R
*I *737:Y O *D OR5x1_ASAP7_75t_R
*CAP
1 *740:A2 7.49953e-06
2 *823:A2 8.38418e-06
3 *737:Y 1.21286e-05
4 *288:8 2.80123e-05
5 *740:A2 *291:8 6.7842e-07
6 *823:A2 *290:6 7.13384e-06
7 *823:A2 *290:12 9.38523e-06
8 *288:8 *290:12 7.66105e-06
9 *740:A1 *740:A2 1.95129e-06
10 *280:14 *288:8 0
11 *281:10 *823:A2 9.64719e-06
12 *281:10 *288:8 1.85877e-05
13 *286:22 *823:A2 2.88806e-06
*RES
1 *737:Y *288:8 49.6055 
2 *288:8 *823:A2 44.4236 
3 *288:8 *740:A2 38.1438 
*END

*D_NET *289 0.000250967
*CONN
*I *739:A I *D OR2x4_ASAP7_75t_R
*I *1201:A I *D BUFx3_ASAP7_75t_R
*I *738:Y O *D INVx1_ASAP7_75t_R
*CAP
1 *739:A 1.90549e-05
2 *1201:A 0
3 *738:Y 1.70839e-05
4 *289:17 4.54491e-05
5 *289:6 4.3478e-05
6 *739:A *620:16 2.17149e-05
7 *289:6 *570:8 2.12481e-06
8 *289:6 *620:44 8.65792e-06
9 *289:17 *308:26 5.2126e-05
10 *289:17 *570:8 1.01907e-05
11 *289:17 *570:25 3.81627e-06
12 *289:17 *620:44 2.35847e-05
13 *1251:A *289:6 3.05302e-06
14 *100:8 *289:17 6.33206e-07
15 *274:16 *289:17 0
*RES
1 *738:Y *289:6 29.501 
2 *289:6 *1201:A 17.2 
3 *289:6 *289:17 44.8198 
4 *289:17 *739:A 49.9099 
*END

*D_NET *290 0.000211899
*CONN
*I *740:B I *D AO21x1_ASAP7_75t_R
*I *739:Y O *D OR2x4_ASAP7_75t_R
*CAP
1 *740:B 0
2 *739:Y 2.82215e-05
3 *290:22 1.57152e-05
4 *290:12 2.92368e-05
5 *290:6 4.17432e-05
6 *290:6 *372:8 6.7842e-07
7 *290:6 *620:20 4.17292e-05
8 *290:12 *291:10 2.0153e-05
9 *290:22 *291:8 2.52755e-07
10 *823:A2 *290:6 7.13384e-06
11 *823:A2 *290:12 9.38523e-06
12 *280:14 *290:22 5.18804e-06
13 *280:20 *290:12 1.12894e-06
14 *281:10 *290:12 1.49407e-08
15 *286:22 *290:6 3.65663e-06
16 *288:8 *290:12 7.66105e-06
*RES
1 *739:Y *290:6 48.7547 
2 *290:6 *290:12 49.6055 
3 *290:12 *290:22 43.7188 
4 *290:22 *740:B 17.2 
*END

*D_NET *291 0.000287617
*CONN
*I *741:B I *D AND2x2_ASAP7_75t_R
*I *816:A2 I *D AOI22x1_ASAP7_75t_R
*I *820:A2 I *D AO211x2_ASAP7_75t_R
*I *740:Y O *D AO21x1_ASAP7_75t_R
*CAP
1 *741:B 0
2 *816:A2 0
3 *820:A2 0
4 *740:Y 1.03308e-05
5 *291:27 2.28023e-05
6 *291:16 3.78224e-05
7 *291:10 2.7895e-05
8 *291:8 2.32058e-05
9 *291:10 *823:B 5.79724e-07
10 *291:10 *372:14 2.4723e-05
11 *291:16 *292:10 0
12 *291:16 *367:22 3.03837e-06
13 *291:16 *372:14 2.01603e-05
14 *291:16 *373:12 8.29633e-06
15 *291:27 *820:C 1.52068e-05
16 *291:27 *292:10 2.19685e-06
17 *291:27 *367:22 3.65663e-06
18 *740:A2 *291:8 6.7842e-07
19 *280:14 *291:8 3.65131e-06
20 *280:20 *291:10 1.45123e-05
21 *281:10 *291:10 0
22 *284:12 *291:10 8.45637e-06
23 *284:12 *291:16 2.71344e-05
24 *284:20 *291:16 9.7275e-06
25 *284:31 *291:27 3.13615e-06
26 *290:12 *291:10 2.0153e-05
27 *290:22 *291:8 2.52755e-07
*RES
1 *740:Y *291:8 39.2134 
2 *291:8 *291:10 17.4581 
3 *291:10 *291:16 35.1363 
4 *291:16 *820:A2 17.2 
5 *291:16 *291:27 34.233 
6 *291:27 *816:A2 34.4 
7 *291:10 *741:B 34.4 
*END

*D_NET *292 0.000215089
*CONN
*I *1171:A I *D BUFx3_ASAP7_75t_R
*I *815:A I *D AND3x1_ASAP7_75t_R
*I *741:Y O *D AND2x2_ASAP7_75t_R
*CAP
1 *1171:A 0
2 *815:A 1.76714e-06
3 *741:Y 0
4 *292:23 1.86005e-05
5 *292:10 5.53821e-05
6 *292:6 3.50144e-05
7 *815:A *815:B 3.67067e-06
8 *292:10 *824:B2 0
9 *292:10 *318:40 1.31716e-05
10 *292:10 *327:18 0
11 *292:10 *365:10 0
12 *292:10 *367:22 1.49407e-08
13 *292:10 *368:10 0
14 *292:23 *815:B 3.68287e-06
15 *292:23 *314:16 2.05045e-06
16 *292:23 *314:18 0
17 *292:23 *314:35 0
18 *292:23 *318:10 2.98532e-06
19 *292:23 *318:29 0
20 *292:23 *318:40 1.38576e-05
21 *292:23 *363:28 4.88493e-06
22 *292:23 *539:10 1.31716e-05
23 *284:12 *292:10 2.73415e-06
24 *284:31 *292:10 4.19043e-05
25 *291:16 *292:10 0
26 *291:27 *292:10 2.19685e-06
*RES
1 *741:Y *292:6 34.4 
2 *292:6 *292:10 47.0478 
3 *292:10 *815:A 18.2696 
4 *292:10 *292:23 36.2626 
5 *292:23 *1171:A 34.4 
*END

*D_NET *293 0.00015631
*CONN
*I *920:A I *D AND2x2_ASAP7_75t_R
*I *746:A1 I *D AO31x2_ASAP7_75t_R
*I *742:Y O *D INVx1_ASAP7_75t_R
*CAP
1 *920:A 5.85118e-06
2 *746:A1 0
3 *742:Y 0
4 *293:8 1.66256e-05
5 *293:4 2.24768e-05
6 *920:A *742:A 6.7842e-07
7 *920:A *445:22 1.04475e-06
8 *920:A *590:38 7.46759e-06
9 *293:8 *301:10 7.8918e-05
10 *293:8 *445:14 8.46363e-06
11 *293:8 *445:22 1.47841e-05
*RES
1 *742:Y *293:4 17.2 
2 *293:4 *293:8 43.1056 
3 *293:8 *746:A1 34.4 
4 *293:4 *920:A 22.5483 
*END

*D_NET *294 0.000123314
*CONN
*I *746:A2 I *D AO31x2_ASAP7_75t_R
*I *743:Y O *D OR3x1_ASAP7_75t_R
*CAP
1 *746:A2 0
2 *743:Y 2.89577e-05
3 *294:6 2.89577e-05
4 *294:6 *917:B 1.04475e-06
5 *294:6 *295:6 5.75695e-05
6 *294:6 *589:23 6.78445e-06
*RES
1 *743:Y *294:6 42.3368 
2 *294:6 *746:A2 17.2 
*END

*D_NET *295 0.0001721
*CONN
*I *746:A3 I *D AO31x2_ASAP7_75t_R
*I *744:Y O *D OAI21x1_ASAP7_75t_R
*CAP
1 *746:A3 0
2 *744:Y 5.11135e-05
3 *295:6 5.11135e-05
4 *295:6 *743:B 1.56713e-06
5 *295:6 *743:C 3.68287e-06
6 *295:6 *589:23 2.90209e-08
7 *295:6 *621:16 0
8 *295:6 *623:35 7.02463e-06
9 *294:6 *295:6 5.75695e-05
*RES
1 *744:Y *295:6 44.4761 
2 *295:6 *746:A3 17.2 
*END

*D_NET *296 8.15307e-05
*CONN
*I *746:B I *D AO31x2_ASAP7_75t_R
*I *745:Y O *D OR2x2_ASAP7_75t_R
*CAP
1 *746:B 1.55299e-05
2 *745:Y 1.798e-05
3 *296:8 3.35099e-05
4 *746:B *921:A 8.361e-06
5 *746:B *444:8 0
6 *746:B *602:16 2.43534e-06
7 *296:8 *745:B 1.04475e-06
8 *296:8 *592:36 2.66992e-06
*RES
1 *745:Y *296:8 41.3527 
2 *296:8 *746:B 47.3528 
*END

*D_NET *297 0.00023694
*CONN
*I *752:A1 I *D AO21x1_ASAP7_75t_R
*I *1189:A I *D BUFx3_ASAP7_75t_R
*I *765:B I *D AND3x1_ASAP7_75t_R
*I *751:C I *D NAND3x1_ASAP7_75t_R
*I *746:Y O *D AO31x2_ASAP7_75t_R
*CAP
1 *752:A1 0
2 *1189:A 4.30543e-06
3 *765:B 0
4 *751:C 0
5 *746:Y 0
6 *297:35 1.10294e-05
7 *297:27 3.3223e-05
8 *297:19 5.32962e-05
9 *297:12 1.1278e-05
10 *297:4 4.6686e-05
11 *297:12 *301:10 0
12 *297:12 *301:14 2.96818e-06
13 *297:27 *752:A2 2.28976e-06
14 *297:27 *303:8 5.0551e-07
15 *297:35 *301:40 1.36155e-06
16 *297:35 *315:16 2.67352e-05
17 *297:35 *604:12 0
18 *752:B *297:19 1.62312e-05
19 *752:B *297:27 1.59615e-06
20 *139:10 *297:27 1.47844e-05
21 *139:16 *297:27 9.30483e-06
22 *186:19 *297:27 1.34466e-06
23 *283:26 *297:12 0
*RES
1 *746:Y *297:4 17.2 
2 *297:4 *297:12 42.171 
3 *297:12 *751:C 17.2 
4 *297:4 *297:19 15.5099 
5 *297:19 *297:27 47.4909 
6 *297:27 *297:35 44.4803 
7 *297:35 *765:B 17.2 
8 *297:27 *1189:A 19.8741 
9 *297:19 *752:A1 17.2 
*END

*D_NET *298 7.91419e-05
*CONN
*I *750:E I *D OR5x1_ASAP7_75t_R
*I *747:Y O *D INVx1_ASAP7_75t_R
*CAP
1 *750:E 1.47485e-05
2 *747:Y 2.21813e-05
3 *298:8 3.69298e-05
4 *750:E *301:10 0
5 *750:E *590:12 6.33206e-07
6 *750:E *590:25 0
7 *298:8 *602:12 1.59615e-06
8 *1256:A *298:8 3.05302e-06
*RES
1 *747:Y *298:8 44.5617 
2 *298:8 *750:E 43.4107 
*END

*D_NET *299 0.00010366
*CONN
*I *750:D I *D OR5x1_ASAP7_75t_R
*I *748:Y O *D NOR3x1_ASAP7_75t_R
*CAP
1 *750:D 0
2 *748:Y 2.77833e-05
3 *299:6 2.77833e-05
4 *299:6 *750:A 1.73158e-05
5 *299:6 *750:C 2.03526e-06
6 *749:B *299:6 2.29378e-05
7 *192:12 *299:6 5.80418e-06
*RES
1 *748:Y *299:6 38.593 
2 *299:6 *750:D 17.2 
*END

*D_NET *300 2.86813e-05
*CONN
*I *750:A I *D OR5x1_ASAP7_75t_R
*I *749:Y O *D OA21x2_ASAP7_75t_R
*CAP
1 *750:A 1.86646e-06
2 *749:Y 1.86646e-06
3 *192:12 *750:A 7.63254e-06
4 *299:6 *750:A 1.73158e-05
*RES
1 *749:Y *750:A 39.7482 
*END

*D_NET *301 0.000437472
*CONN
*I *1235:A I *D BUFx3_ASAP7_75t_R
*I *765:C I *D AND3x1_ASAP7_75t_R
*I *752:A2 I *D AO21x1_ASAP7_75t_R
*I *751:B I *D NAND3x1_ASAP7_75t_R
*I *750:Y O *D OR5x1_ASAP7_75t_R
*CAP
1 *1235:A 0
2 *765:C 0
3 *752:A2 7.18055e-06
4 *751:B 0
5 *750:Y 5.41038e-06
6 *301:55 1.3067e-05
7 *301:40 2.76555e-05
8 *301:25 4.46185e-05
9 *301:14 4.33278e-05
10 *301:10 6.0376e-05
11 *301:8 4.53079e-05
12 *752:A2 *303:12 1.98917e-05
13 *301:10 *321:41 5.52807e-07
14 *301:10 *590:25 9.67723e-06
15 *301:10 *592:36 1.12039e-05
16 *301:10 *602:12 0
17 *301:10 *602:16 0
18 *301:14 *321:39 6.6195e-06
19 *301:25 *302:8 3.13426e-06
20 *301:25 *303:12 4.83862e-06
21 *301:40 *302:8 3.3921e-06
22 *301:55 *315:16 0
23 *301:55 *316:10 1.19797e-06
24 *301:55 *604:8 2.12481e-06
25 *301:55 *604:12 3.47607e-06
26 *750:E *301:10 0
27 *751:A *301:25 2.03526e-06
28 *752:B *752:A2 5.62196e-06
29 *139:10 *752:A2 2.66045e-05
30 *139:10 *301:25 3.35641e-06
31 *192:12 *301:8 1.26378e-06
32 *293:8 *301:10 7.8918e-05
33 *297:12 *301:10 0
34 *297:12 *301:14 2.96818e-06
35 *297:27 *752:A2 2.28976e-06
36 *297:35 *301:40 1.36155e-06
*RES
1 *750:Y *301:8 37.0741 
2 *301:8 *301:10 41.6743 
3 *301:10 *301:14 30.5706 
4 *301:14 *751:B 17.2 
5 *301:14 *301:25 32.2601 
6 *301:25 *752:A2 45.0151 
7 *301:25 *301:40 25.2224 
8 *301:40 *765:C 17.2 
9 *301:40 *301:55 43.6337 
10 *301:55 *1235:A 17.2 
*END

*D_NET *302 0.000183798
*CONN
*I *763:A2 I *D AO211x2_ASAP7_75t_R
*I *751:Y O *D NAND3x1_ASAP7_75t_R
*CAP
1 *763:A2 0
2 *751:Y 1.21369e-05
3 *302:14 2.81381e-05
4 *302:8 4.02751e-05
5 *302:14 *762:A 4.31787e-06
6 *302:14 *762:B 0
7 *302:14 *303:12 7.84171e-05
8 *302:14 *311:8 0
9 *302:14 *311:12 9.08513e-06
10 *302:14 *315:16 4.90169e-06
11 *301:25 *302:8 3.13426e-06
12 *301:40 *302:8 3.3921e-06
*RES
1 *751:Y *302:8 41.3527 
2 *302:8 *302:14 49.1588 
3 *302:14 *763:A2 17.2 
*END

*D_NET *303 0.000197752
*CONN
*I *763:A1 I *D AO211x2_ASAP7_75t_R
*I *752:Y O *D AO21x1_ASAP7_75t_R
*CAP
1 *763:A1 0
2 *752:Y 1.19164e-05
3 *303:12 1.92983e-05
4 *303:8 3.12147e-05
5 *303:12 *762:B 0
6 *303:12 *311:8 0
7 *303:12 *315:16 1.12894e-06
8 *752:A2 *303:12 1.98917e-05
9 *752:B *303:8 6.92634e-06
10 *139:10 *303:12 2.36144e-05
11 *297:27 *303:8 5.0551e-07
12 *301:25 *303:12 4.83862e-06
13 *302:14 *303:12 7.84171e-05
*RES
1 *752:Y *303:8 39.2134 
2 *303:8 *303:12 47.0478 
3 *303:12 *763:A1 17.2 
*END

*D_NET *304 0.000518319
*CONN
*I *1192:A I *D BUFx3_ASAP7_75t_R
*I *775:C I *D OR5x1_ASAP7_75t_R
*I *778:D I *D OR5x1_ASAP7_75t_R
*I *753:Y O *D OR4x1_ASAP7_75t_R
*CAP
1 *1192:A 9.61597e-06
2 *775:C 0
3 *778:D 5.66924e-06
4 *753:Y 1.99637e-05
5 *304:31 9.61597e-06
6 *304:29 1.35762e-05
7 *304:10 7.63005e-05
8 *304:8 7.70188e-05
9 *778:D *775:E 8.33296e-06
10 *778:D *325:24 6.71283e-06
11 *778:D *563:28 6.46139e-06
12 *1192:A *775:E 1.3659e-05
13 *1192:A *329:25 2.74995e-05
14 *304:10 *325:24 0.00018648
15 *304:10 *563:28 3.32524e-06
16 *304:10 *587:22 0
17 *304:29 *775:E 2.01457e-05
18 *304:29 *778:E 1.35684e-06
19 *304:29 *310:18 7.53871e-06
20 *304:29 *325:24 8.06436e-06
21 *304:29 *329:8 1.31716e-05
22 *304:29 *563:28 5.37866e-07
23 *1177:A *304:10 0
24 *268:8 *304:10 0
25 *273:14 *304:10 2.22736e-06
26 *283:38 *1192:A 1.04475e-06
*RES
1 *753:Y *304:8 42.4224 
2 *304:8 *304:10 62.5114 
3 *304:10 *778:D 41.073 
4 *304:10 *304:29 47.2111 
5 *304:29 *304:31 17.2 
6 *304:31 *775:C 17.2 
7 *304:31 *1192:A 26.292 
*END

*D_NET *305 2.14668e-05
*CONN
*I *760:A I *D AND3x1_ASAP7_75t_R
*I *754:Y O *D NOR2x2_ASAP7_75t_R
*CAP
1 *760:A 9.27283e-07
2 *754:Y 7.04869e-06
3 *305:8 7.97598e-06
4 *760:A *308:32 1.04475e-06
5 *760:A *557:8 3.89037e-06
6 *305:8 *324:26 0
7 *283:26 *305:8 5.79724e-07
*RES
1 *754:Y *305:8 38.9053 
2 *305:8 *760:A 35.4697 
*END

*D_NET *306 4.53013e-05
*CONN
*I *757:C I *D AND4x1_ASAP7_75t_R
*I *755:Y O *D OR3x1_ASAP7_75t_R
*CAP
1 *757:C 1.26522e-05
2 *755:Y 1.26522e-05
3 *757:C *757:A 1.94746e-05
4 *237:29 *757:C 5.22376e-07
*RES
1 *755:Y *757:C 43.492 
*END

*D_NET *307 5.13023e-05
*CONN
*I *757:A I *D AND4x1_ASAP7_75t_R
*I *756:Y O *D OAI21x1_ASAP7_75t_R
*CAP
1 *757:A 6.43778e-06
2 *756:Y 7.7979e-06
3 *307:8 1.42357e-05
4 *307:8 *614:41 0
5 *756:A2 *307:8 2.25787e-06
6 *757:C *757:A 1.94746e-05
7 *208:8 *307:8 1.09842e-06
8 *237:29 *307:8 0
*RES
1 *756:Y *307:8 40.0317 
2 *307:8 *757:A 40.2831 
*END

*D_NET *308 0.000818453
*CONN
*I *1188:A I *D BUFx3_ASAP7_75t_R
*I *760:B I *D AND3x1_ASAP7_75t_R
*I *757:Y O *D AND4x1_ASAP7_75t_R
*CAP
1 *1188:A 0
2 *760:B 0
3 *757:Y 3.81382e-05
4 *308:32 3.11239e-05
5 *308:26 0.000159687
6 *308:24 0.000160555
7 *308:18 7.09685e-05
8 *308:12 5.0037e-05
9 *308:6 4.91986e-05
10 *308:12 *428:10 0
11 *308:18 *541:8 1.62854e-06
12 *308:26 *321:41 1.11774e-05
13 *308:26 *538:10 1.53071e-05
14 *308:26 *570:25 1.88168e-06
15 *308:26 *620:46 1.09067e-05
16 *308:32 *321:41 3.05118e-08
17 *308:32 *557:8 3.79133e-06
18 *308:32 *620:46 1.88253e-06
19 *682:A *308:6 3.81627e-06
20 *704:B *308:18 0
21 *709:C *308:18 6.7842e-07
22 *716:B *308:24 4.13278e-05
23 *760:A *308:32 1.04475e-06
24 *778:B *308:26 0
25 *1177:A *308:26 0
26 *100:8 *308:26 2.25787e-06
27 *209:50 *308:26 0
28 *210:37 *308:26 2.55771e-05
29 *245:10 *308:26 0
30 *247:12 *308:6 7.63254e-06
31 *249:14 *308:6 4.09005e-05
32 *249:20 *308:12 4.83862e-06
33 *250:10 *308:26 0
34 *261:8 *308:18 9.94583e-06
35 *261:38 *308:26 0
36 *264:26 *308:26 1.35961e-06
37 *268:8 *308:26 9.42815e-06
38 *273:18 *308:26 0
39 *274:8 *308:26 4.17368e-06
40 *274:16 *308:26 0
41 *275:8 *308:26 2.98814e-07
42 *276:10 *308:32 6.73251e-06
43 *283:34 *308:26 0
44 *289:17 *308:26 5.2126e-05
*RES
1 *757:Y *308:6 46.0806 
2 *308:6 *308:12 42.2843 
3 *308:12 *308:18 42.6202 
4 *308:18 *308:24 49.9099 
5 *308:24 *308:26 111.507 
6 *308:26 *308:32 37.7217 
7 *308:32 *760:B 17.2 
8 *308:26 *1188:A 34.4 
*END

*D_NET *309 8.6564e-05
*CONN
*I *759:B I *D XNOR2x2_ASAP7_75t_R
*I *758:Y O *D NOR2x1_ASAP7_75t_R
*CAP
1 *759:B 1.43219e-05
2 *758:Y 2.66703e-05
3 *309:10 4.09922e-05
4 *759:A *759:B 4.57952e-06
5 *266:10 *309:10 0
*RES
1 *758:Y *309:10 48.054 
2 *309:10 *759:B 44.0269 
*END

*D_NET *310 0.000811216
*CONN
*I *760:C I *D AND3x1_ASAP7_75t_R
*I *1187:A I *D BUFx3_ASAP7_75t_R
*I *759:Y O *D XNOR2x2_ASAP7_75t_R
*CAP
1 *760:C 1.77057e-06
2 *1187:A 0
3 *759:Y 3.23619e-05
4 *310:24 1.88073e-05
5 *310:18 0.000131468
6 *310:16 0.00011617
7 *310:10 4.52493e-05
8 *310:8 7.23309e-05
9 *760:C *557:8 3.90258e-06
10 *310:10 *325:24 9.12983e-05
11 *310:10 *433:8 3.32579e-06
12 *310:18 *762:B 4.83862e-06
13 *310:18 *776:C 3.61565e-06
14 *310:18 *818:B 1.44992e-05
15 *310:18 *1278:A 0
16 *310:18 *325:24 2.90389e-05
17 *310:18 *326:8 8.2174e-07
18 *310:18 *329:8 1.63131e-05
19 *310:18 *329:14 2.27365e-05
20 *310:18 *559:44 0
21 *310:18 *560:31 8.33296e-06
22 *310:18 *561:10 0
23 *310:18 *563:28 0
24 *310:18 *584:18 2.53656e-06
25 *310:18 *584:29 0
26 *310:18 *618:8 2.22736e-06
27 *310:18 *620:16 3.47607e-06
28 *310:24 *762:B 3.0607e-05
29 *310:24 *556:8 1.35961e-06
30 *904:B *310:10 2.20128e-06
31 *1165:A *310:10 3.16603e-06
32 *139:10 *310:24 0
33 *196:10 *310:10 9.20349e-06
34 *196:14 *310:18 6.6421e-06
35 *258:12 *310:18 4.10981e-06
36 *258:31 *310:18 2.61304e-06
37 *272:14 *310:18 0
38 *283:26 *310:18 4.32559e-05
39 *283:26 *310:24 5.26269e-05
40 *283:51 *310:18 2.27708e-05
41 *304:29 *310:18 7.53871e-06
*RES
1 *759:Y *310:8 49.9099 
2 *310:8 *310:10 41.6743 
3 *310:10 *310:16 37.0741 
4 *310:16 *310:18 107.002 
5 *310:18 *310:24 38.4019 
6 *310:24 *1187:A 17.2 
7 *310:18 *760:C 35.4697 
*END

*D_NET *311 0.000135722
*CONN
*I *1176:A I *D BUFx3_ASAP7_75t_R
*I *763:B I *D AO211x2_ASAP7_75t_R
*I *760:Y O *D AND3x1_ASAP7_75t_R
*CAP
1 *1176:A 1.04646e-05
2 *763:B 0
3 *760:Y 2.39958e-06
4 *311:25 3.02842e-05
5 *311:12 4.0793e-05
6 *311:8 2.3373e-05
7 *1176:A *313:6 5.0551e-07
8 *1176:A *313:25 1.27782e-06
9 *311:8 *762:B 8.71771e-06
10 *311:25 *762:A 0
11 *311:25 *313:12 8.82188e-06
12 *302:14 *311:8 0
13 *302:14 *311:12 9.08513e-06
14 *303:12 *311:8 0
*RES
1 *760:Y *311:8 37.2158 
2 *311:8 *311:12 29.501 
3 *311:12 *763:B 17.2 
4 *311:12 *311:25 49.237 
5 *311:25 *1176:A 23.0831 
*END

*D_NET *312 4.61278e-05
*CONN
*I *762:A I *D NOR3x2_ASAP7_75t_R
*I *761:Y O *D OR2x6_ASAP7_75t_R
*CAP
1 *762:A 2.09049e-05
2 *761:Y 0
3 *312:6 2.09049e-05
4 *762:A *313:12 0
5 *302:14 *762:A 4.31787e-06
6 *311:25 *762:A 0
*RES
1 *761:Y *312:6 34.4 
2 *312:6 *762:A 33.5318 
*END

*D_NET *313 8.34624e-05
*CONN
*I *767:A2 I *D OAI22x1_ASAP7_75t_R
*I *763:C I *D AO211x2_ASAP7_75t_R
*I *762:Y O *D NOR3x2_ASAP7_75t_R
*CAP
1 *767:A2 0
2 *763:C 0
3 *762:Y 3.57333e-06
4 *313:25 1.70692e-05
5 *313:12 1.19684e-05
6 *313:6 3.26109e-05
7 *313:25 *316:10 5.49212e-07
8 *313:25 *545:8 7.08621e-06
9 *762:A *313:12 0
10 *1176:A *313:6 5.0551e-07
11 *1176:A *313:25 1.27782e-06
12 *311:25 *313:12 8.82188e-06
*RES
1 *762:Y *313:6 18.8045 
2 *313:6 *313:12 45.6633 
3 *313:12 *763:C 17.2 
4 *313:6 *313:25 45.9714 
5 *313:25 *767:A2 17.2 
*END

*D_NET *314 0.000263165
*CONN
*I *825:A1 I *D AOI221x1_ASAP7_75t_R
*I *817:D I *D AND4x1_ASAP7_75t_R
*I *768:A I *D AND2x2_ASAP7_75t_R
*I *763:Y O *D AO211x2_ASAP7_75t_R
*CAP
1 *825:A1 1.94782e-05
2 *817:D 4.90187e-06
3 *768:A 1.94856e-06
4 *763:Y 3.58562e-05
5 *314:37 3.33192e-05
6 *314:35 2.31979e-05
7 *314:18 2.67926e-05
8 *314:16 2.98034e-05
9 *314:8 5.50744e-05
10 *817:D *364:8 2.12276e-06
11 *825:A1 *319:23 0
12 *825:A1 *364:14 4.19247e-06
13 *825:A1 *366:10 3.95007e-06
14 *314:16 *539:10 2.19685e-06
15 *314:16 *540:10 6.39567e-06
16 *314:18 *319:12 1.16711e-06
17 *314:35 *318:29 1.50299e-06
18 *314:35 *319:12 9.17147e-07
19 *314:37 *1182:A 3.86138e-07
20 *314:37 *319:23 0
21 *314:37 *363:10 5.19571e-06
22 *314:37 *363:18 2.71584e-06
23 *292:23 *314:16 2.05045e-06
24 *292:23 *314:18 0
25 *292:23 *314:35 0
*RES
1 *763:Y *314:8 48.8403 
2 *314:8 *314:16 47.4342 
3 *314:16 *314:18 7.88432 
4 *314:18 *768:A 35.4697 
5 *314:18 *314:35 43.1556 
6 *314:35 *314:37 7.88432 
7 *314:37 *817:D 37.0741 
8 *314:37 *825:A1 44.8451 
*END

*D_NET *315 0.000139098
*CONN
*I *766:B I *D AOI21x1_ASAP7_75t_R
*I *765:A I *D AND3x1_ASAP7_75t_R
*I *764:Y O *D INVx1_ASAP7_75t_R
*CAP
1 *766:B 6.37764e-06
2 *765:A 0
3 *764:Y 4.67204e-06
4 *315:16 2.07972e-05
5 *315:12 4.40208e-05
6 *315:8 2.1518e-05
7 *315:12 *642:8 5.0551e-07
8 *315:16 *317:10 0
9 *315:16 *604:12 0
10 *139:10 *315:8 5.49212e-07
11 *139:10 *315:16 0
12 *139:18 *315:8 0
13 *139:18 *315:16 1.12894e-06
14 *186:10 *315:8 5.97901e-06
15 *186:19 *315:8 7.84037e-07
16 *297:35 *315:16 2.67352e-05
17 *301:55 *315:16 0
18 *302:14 *315:16 4.90169e-06
19 *303:12 *315:16 1.12894e-06
*RES
1 *764:Y *315:8 38.9053 
2 *315:8 *315:12 26.292 
3 *315:12 *315:16 34.6581 
4 *315:16 *765:A 34.4 
5 *315:12 *766:B 20.9438 
*END

*D_NET *316 6.07414e-05
*CONN
*I *767:B1 I *D OAI22x1_ASAP7_75t_R
*I *765:Y O *D AND3x1_ASAP7_75t_R
*CAP
1 *767:B1 0
2 *765:Y 2.26255e-05
3 *316:10 2.26255e-05
4 *316:10 *317:10 5.67735e-06
5 *316:10 *604:8 8.06588e-06
6 *301:55 *316:10 1.19797e-06
7 *313:25 *316:10 5.49212e-07
*RES
1 *765:Y *316:10 48.054 
2 *316:10 *767:B1 34.4 
*END

*D_NET *317 8.67681e-05
*CONN
*I *767:B2 I *D OAI22x1_ASAP7_75t_R
*I *766:Y O *D AOI21x1_ASAP7_75t_R
*CAP
1 *767:B2 0
2 *766:Y 0
3 *317:10 2.80797e-05
4 *317:6 2.80797e-05
5 *317:10 *558:8 1.71813e-05
6 *317:10 *604:12 7.75e-06
7 *315:16 *317:10 0
8 *316:10 *317:10 5.67735e-06
*RES
1 *766:Y *317:6 34.4 
2 *317:6 *317:10 44.232 
3 *317:10 *767:B2 17.2 
*END

*D_NET *318 0.000338358
*CONN
*I *825:A2 I *D AOI221x1_ASAP7_75t_R
*I *817:B I *D AND4x1_ASAP7_75t_R
*I *768:B I *D AND2x2_ASAP7_75t_R
*I *767:Y O *D OAI22x1_ASAP7_75t_R
*CAP
1 *825:A2 0
2 *817:B 0
3 *768:B 0
4 *767:Y 1.38091e-05
5 *318:40 4.00433e-05
6 *318:29 1.57898e-05
7 *318:14 3.81938e-05
8 *318:10 8.40803e-05
9 *318:8 3.5442e-05
10 *318:10 *539:10 6.43163e-05
11 *318:29 *817:A 1.36155e-06
12 *318:29 *364:8 1.75952e-06
13 *318:40 *815:B 4.74248e-06
14 *318:40 *1170:A 5.66897e-06
15 *318:40 *327:18 0
16 *318:40 *365:10 1.63292e-06
17 *318:40 *368:16 0
18 *292:10 *318:40 1.31716e-05
19 *292:23 *318:10 2.98532e-06
20 *292:23 *318:29 0
21 *292:23 *318:40 1.38576e-05
22 *314:35 *318:29 1.50299e-06
*RES
1 *767:Y *318:8 42.4224 
2 *318:8 *318:10 23.653 
3 *318:10 *318:14 27.8965 
4 *318:14 *768:B 17.2 
5 *318:14 *318:29 44.9585 
6 *318:29 *817:B 17.2 
7 *318:10 *318:40 42.5672 
8 *318:40 *825:A2 17.2 
*END

*D_NET *319 0.000129682
*CONN
*I *826:A1 I *D AOI211x1_ASAP7_75t_R
*I *1162:A I *D BUFx3_ASAP7_75t_R
*I *768:Y O *D AND2x2_ASAP7_75t_R
*CAP
1 *826:A1 0
2 *1162:A 0
3 *768:Y 0
4 *319:23 4.45164e-05
5 *319:12 1.23555e-05
6 *319:4 5.68719e-05
7 *319:12 *1182:A 1.64764e-06
8 *319:12 *362:10 1.12894e-06
9 *319:23 *826:C 0
10 *319:23 *1182:A 1.64348e-06
11 *319:23 *363:10 2.6409e-06
12 *319:23 *369:8 0
13 *319:23 *374:10 0
14 *319:23 *551:8 6.79293e-06
15 *825:A1 *319:23 0
16 *314:18 *319:12 1.16711e-06
17 *314:35 *319:12 9.17147e-07
18 *314:37 *319:23 0
*RES
1 *768:Y *319:4 17.2 
2 *319:4 *319:12 42.7625 
3 *319:12 *1162:A 17.2 
4 *319:4 *319:23 48.932 
5 *319:23 *826:A1 34.4 
*END

*D_NET *320 0.000102844
*CONN
*I *781:B I *D XNOR2x2_ASAP7_75t_R
*I *769:Y O *D XOR2x2_ASAP7_75t_R
*CAP
1 *781:B 0
2 *769:Y 9.19215e-06
3 *320:12 4.223e-05
4 *320:8 5.14221e-05
*RES
1 *769:Y *320:8 40.0317 
2 *320:8 *320:12 38.593 
3 *320:12 *781:B 17.2 
*END

*D_NET *321 0.000755324
*CONN
*I *776:A1 I *D AO211x2_ASAP7_75t_R
*I *818:A1 I *D AOI211x1_ASAP7_75t_R
*I *1186:A I *D BUFx3_ASAP7_75t_R
*I *770:Y O *D OR3x1_ASAP7_75t_R
*CAP
1 *776:A1 0
2 *818:A1 0
3 *1186:A 0
4 *770:Y 0
5 *321:53 1.04729e-05
6 *321:45 2.24395e-05
7 *321:41 6.52456e-05
8 *321:39 9.80003e-05
9 *321:35 5.18066e-05
10 *321:31 5.28208e-05
11 *321:25 0.000102478
12 *321:14 2.52334e-05
13 *321:10 5.58548e-05
14 *321:4 8.73639e-05
15 *321:25 *916:B 0
16 *321:25 *589:42 3.49456e-06
17 *321:25 *621:16 0
18 *321:35 *916:B 0
19 *321:35 *442:8 6.33206e-07
20 *321:35 *443:10 7.43697e-06
21 *321:35 *589:36 0
22 *321:39 *443:10 2.03526e-06
23 *321:41 *324:26 1.88258e-05
24 *321:41 *324:39 1.09067e-06
25 *321:41 *602:16 0
26 *321:45 *322:33 7.97634e-06
27 *321:53 *324:39 1.47844e-05
28 *321:53 *330:10 2.03526e-06
29 *321:53 *562:8 1.09842e-06
30 *669:A *321:14 5.17782e-06
31 *672:E *321:14 2.61188e-06
32 *210:37 *321:41 1.10664e-05
33 *210:37 *321:53 0
34 *212:25 *321:10 0
35 *213:25 *321:10 1.01102e-06
36 *223:12 *321:14 1.56713e-06
37 *224:20 *321:10 3.81627e-06
38 *224:20 *321:25 7.2178e-06
39 *224:30 *321:10 1.09067e-06
40 *225:12 *321:10 1.90491e-05
41 *276:10 *321:41 2.33715e-05
42 *283:34 *321:53 2.98375e-05
43 *301:10 *321:41 5.52807e-07
44 *301:14 *321:39 6.6195e-06
45 *308:26 *321:41 1.11774e-05
46 *308:32 *321:41 3.05118e-08
*RES
1 *770:Y *321:4 17.2 
2 *321:4 *321:10 32.9933 
3 *321:10 *321:14 33.2448 
4 *321:14 *1186:A 17.2 
5 *321:4 *321:25 42.4873 
6 *321:25 *321:31 45.8712 
7 *321:31 *321:35 22.1746 
8 *321:35 *321:39 45.5457 
9 *321:39 *321:41 48.9954 
10 *321:41 *321:45 23.0831 
11 *321:45 *321:53 46.1415 
12 *321:53 *818:A1 17.2 
13 *321:45 *776:A1 17.2 
*END

*D_NET *322 0.000455533
*CONN
*I *776:A2 I *D AO211x2_ASAP7_75t_R
*I *1193:A I *D BUFx3_ASAP7_75t_R
*I *771:Y O *D NOR2x1_ASAP7_75t_R
*CAP
1 *776:A2 0
2 *1193:A 6.16791e-06
3 *771:Y 0
4 *322:33 1.57375e-05
5 *322:18 5.18846e-05
6 *322:12 3.71345e-05
7 *322:6 8.53578e-05
8 *322:4 7.82025e-05
9 *322:12 *914:B 6.33206e-07
10 *322:12 *570:10 0
11 *322:18 *559:12 5.22376e-07
12 *322:18 *559:14 3.41817e-05
13 *322:18 *620:46 2.94909e-05
14 *322:33 *560:10 9.52454e-06
15 *322:33 *560:31 4.89132e-05
16 *322:33 *620:46 4.83862e-06
17 *1164:A *322:6 1.06007e-05
18 *274:16 *322:18 2.96216e-05
19 *274:16 *322:33 3.48708e-06
20 *275:24 *322:12 5.79724e-07
21 *275:28 *322:6 6.7842e-07
22 *321:45 *322:33 7.97634e-06
*RES
1 *771:Y *322:4 17.2 
2 *322:4 *322:6 47.5994 
3 *322:6 *322:12 38.9053 
4 *322:12 *322:18 39.638 
5 *322:18 *1193:A 39.2134 
6 *322:18 *322:33 36.0039 
7 *322:33 *776:A2 17.2 
*END

*D_NET *323 2.62784e-05
*CONN
*I *773:C I *D AND5x1_ASAP7_75t_R
*I *772:Y O *D INVx1_ASAP7_75t_R
*CAP
1 *773:C 1.26267e-05
2 *772:Y 1.26267e-05
3 *773:C *772:A 1.01102e-06
4 *218:12 *773:C 1.40419e-08
*RES
1 *772:Y *773:C 41.3527 
*END

*D_NET *324 0.000514669
*CONN
*I *776:B I *D AO211x2_ASAP7_75t_R
*I *1185:A I *D BUFx3_ASAP7_75t_R
*I *773:Y O *D AND5x1_ASAP7_75t_R
*CAP
1 *776:B 1.05019e-05
2 *1185:A 0
3 *773:Y 5.64365e-06
4 *324:39 2.83794e-05
5 *324:26 4.75377e-05
6 *324:22 8.06462e-05
7 *324:18 5.58736e-05
8 *324:12 0.00010222
9 *324:10 9.73328e-05
10 *324:8 5.64365e-06
11 *776:B *560:31 2.42438e-05
12 *324:12 *1219:A 2.52755e-07
13 *324:18 *442:8 0
14 *324:18 *588:10 3.79923e-06
15 *324:22 *912:B 3.55261e-06
16 *324:22 *588:14 0
17 *324:26 *563:28 0
18 *324:39 *559:38 2.03526e-06
19 *912:A *324:22 3.81627e-06
20 *210:37 *324:39 0
21 *218:23 *324:12 0
22 *219:25 *324:8 6.33206e-07
23 *226:10 *324:8 5.79724e-07
24 *283:26 *324:26 0
25 *283:34 *324:39 7.27531e-06
26 *305:8 *324:26 0
27 *321:41 *324:26 1.88258e-05
28 *321:41 *324:39 1.09067e-06
29 *321:53 *324:39 1.47844e-05
*RES
1 *773:Y *324:8 37.779 
2 *324:8 *324:10 17.2 
3 *324:10 *324:12 41.1815 
4 *324:12 *324:18 37.779 
5 *324:18 *324:22 41.2671 
6 *324:22 *324:26 44.232 
7 *324:26 *1185:A 17.2 
8 *324:26 *324:39 48.3941 
9 *324:39 *776:B 24.1527 
*END

*D_NET *325 0.000942688
*CONN
*I *778:E I *D OR5x1_ASAP7_75t_R
*I *775:E I *D OR5x1_ASAP7_75t_R
*I *774:Y O *D OR3x1_ASAP7_75t_R
*CAP
1 *778:E 1.89712e-06
2 *775:E 1.69367e-05
3 *774:Y 3.93002e-06
4 *325:24 8.79293e-05
5 *325:22 6.90955e-05
6 *325:20 0.000126312
7 *325:18 0.000135534
8 *325:14 4.31718e-05
9 *325:8 3.78805e-05
10 *775:E *563:28 2.77657e-06
11 *325:8 *614:29 5.19818e-06
12 *325:8 *658:8 1.12055e-06
13 *325:14 *614:76 2.74614e-06
14 *325:18 *428:10 9.30425e-06
15 *325:20 *708:C 0
16 *325:20 *708:D 1.36155e-06
17 *325:20 *581:8 0
18 *325:20 *582:14 2.96818e-06
19 *325:24 *585:10 2.22736e-06
20 *325:24 *620:16 8.58704e-06
21 *702:B *325:18 1.70708e-06
22 *778:D *775:E 8.33296e-06
23 *778:D *325:24 6.71283e-06
24 *1192:A *775:E 1.3659e-05
25 *203:30 *325:14 1.6871e-05
26 *203:38 *325:8 3.05118e-08
27 *255:10 *325:18 0
28 *260:8 *325:20 0
29 *283:38 *775:E 1.40419e-08
30 *304:10 *325:24 0.00018648
31 *304:29 *775:E 2.01457e-05
32 *304:29 *778:E 1.35684e-06
33 *304:29 *325:24 8.06436e-06
34 *310:10 *325:24 9.12983e-05
35 *310:18 *325:24 2.90389e-05
*RES
1 *774:Y *325:8 38.436 
2 *325:8 *325:14 45.8712 
3 *325:14 *325:18 25.1782 
4 *325:18 *325:20 54.0173 
5 *325:20 *325:22 17.2 
6 *325:22 *325:24 87.2907 
7 *325:24 *775:E 45.9714 
8 *325:24 *778:E 35.4697 
*END

*D_NET *326 6.01065e-05
*CONN
*I *818:C I *D AOI211x1_ASAP7_75t_R
*I *776:C I *D AO211x2_ASAP7_75t_R
*I *775:Y O *D OR5x1_ASAP7_75t_R
*CAP
1 *818:C 6.29753e-06
2 *776:C 1.24867e-05
3 *775:Y 5.3131e-06
4 *326:8 2.40974e-05
5 *776:C *1278:A 4.65695e-07
6 *776:C *561:10 0
7 *818:C *367:6 1.95129e-06
8 *326:8 *1278:A 5.05735e-06
9 *310:18 *776:C 3.61565e-06
10 *310:18 *326:8 8.2174e-07
*RES
1 *775:Y *326:8 38.9053 
2 *326:8 *776:C 44.537 
3 *326:8 *818:C 38.1438 
*END

*D_NET *327 0.000198719
*CONN
*I *780:A I *D AND2x2_ASAP7_75t_R
*I *824:B2 I *D AO32x1_ASAP7_75t_R
*I *816:B2 I *D AOI22x1_ASAP7_75t_R
*I *776:Y O *D AO211x2_ASAP7_75t_R
*CAP
1 *780:A 0
2 *824:B2 1.57736e-05
3 *816:B2 3.64568e-06
4 *776:Y 1.48297e-05
5 *327:18 2.83501e-05
6 *327:14 3.28817e-05
7 *327:10 3.87805e-05
8 *816:B2 *816:B1 9.08513e-06
9 *824:B2 *780:B 5.49212e-07
10 *824:B2 *330:18 2.25787e-06
11 *824:B2 *368:10 3.6269e-06
12 *824:B2 *373:8 2.96818e-06
13 *824:B2 *373:12 8.06436e-06
14 *327:10 *560:35 1.92671e-05
15 *327:10 *561:10 0
16 *327:10 *563:10 1.2903e-05
17 *327:14 *563:18 5.0551e-07
18 *327:14 *563:51 3.55261e-06
19 *327:18 *780:B 1.67815e-06
20 *292:10 *824:B2 0
21 *292:10 *327:18 0
22 *318:40 *327:18 0
*RES
1 *776:Y *327:10 44.7884 
2 *327:10 *327:14 31.6403 
3 *327:14 *327:18 22.8317 
4 *327:18 *816:B2 37.0741 
5 *327:18 *824:B2 46.6763 
6 *327:14 *780:A 17.2 
*END

*D_NET *328 5.73239e-05
*CONN
*I *778:C I *D OR5x1_ASAP7_75t_R
*I *777:Y O *D INVx1_ASAP7_75t_R
*CAP
1 *778:C 2.57395e-06
2 *777:Y 7.77854e-06
3 *328:10 1.03525e-05
4 *328:10 *563:28 2.01457e-05
5 *778:B *328:10 9.94583e-06
6 *209:50 *328:10 6.52737e-06
*RES
1 *777:Y *328:10 42.7625 
2 *328:10 *778:C 35.4697 
*END

*D_NET *329 0.000306053
*CONN
*I *1278:A I *D BUFx3_ASAP7_75t_R
*I *779:B I *D AO21x2_ASAP7_75t_R
*I *778:Y O *D OR5x1_ASAP7_75t_R
*CAP
1 *1278:A 1.95212e-05
2 *779:B 0
3 *778:Y 3.43768e-06
4 *329:25 2.96172e-05
5 *329:14 3.92683e-05
6 *329:8 5.2802e-05
7 *1278:A *367:6 2.3365e-05
8 *1278:A *561:10 6.10236e-07
9 *1278:A *570:31 7.84772e-07
10 *329:8 *563:28 0
11 *329:14 *330:10 4.47909e-05
12 *329:14 *563:28 0
13 *776:C *1278:A 4.65695e-07
14 *1192:A *329:25 2.74995e-05
15 *210:56 *329:14 2.5412e-06
16 *283:38 *329:25 1.35684e-06
17 *283:51 *1278:A 0
18 *283:51 *329:25 2.71368e-06
19 *304:29 *329:8 1.31716e-05
20 *310:18 *1278:A 0
21 *310:18 *329:8 1.63131e-05
22 *310:18 *329:14 2.27365e-05
23 *326:8 *1278:A 5.05735e-06
*RES
1 *778:Y *329:8 40.0317 
2 *329:8 *329:14 45.9425 
3 *329:14 *779:B 17.2 
4 *329:8 *329:25 42.4224 
5 *329:25 *1278:A 49.237 
*END

*D_NET *330 0.000328326
*CONN
*I *824:B1 I *D AO32x1_ASAP7_75t_R
*I *816:B1 I *D AOI22x1_ASAP7_75t_R
*I *780:B I *D AND2x2_ASAP7_75t_R
*I *779:Y O *D AO21x2_ASAP7_75t_R
*CAP
1 *824:B1 2.7998e-06
2 *816:B1 8.3112e-06
3 *780:B 6.03178e-06
4 *779:Y 1.67726e-05
5 *330:18 2.68194e-05
6 *330:16 1.52762e-05
7 *330:14 5.13851e-05
8 *330:10 6.81577e-05
9 *780:B *563:10 0
10 *780:B *563:51 9.81516e-06
11 *816:B1 *368:10 1.99018e-05
12 *816:B1 *368:16 2.0895e-06
13 *330:10 *818:A2 5.22376e-07
14 *330:10 *563:28 7.3874e-07
15 *330:14 *367:14 2.22714e-05
16 *330:14 *570:31 3.93964e-06
17 *330:18 *370:10 1.2903e-05
18 *330:18 *372:22 1.49407e-08
19 *330:18 *373:12 1.79289e-07
20 *330:18 *563:10 0
21 *816:B2 *816:B1 9.08513e-06
22 *824:B2 *780:B 5.49212e-07
23 *824:B2 *330:18 2.25787e-06
24 *321:53 *330:10 2.03526e-06
25 *327:18 *780:B 1.67815e-06
26 *329:14 *330:10 4.47909e-05
*RES
1 *779:Y *330:10 48.4277 
2 *330:10 *330:14 38.4109 
3 *330:14 *330:16 17.2 
4 *330:16 *330:18 10.0431 
5 *330:18 *780:B 40.0317 
6 *330:18 *816:B1 42.4224 
7 *330:16 *824:B1 36.1834 
*END

*D_NET *331 5.92341e-05
*CONN
*I *815:B I *D AND3x1_ASAP7_75t_R
*I *1170:A I *D BUFx3_ASAP7_75t_R
*I *780:Y O *D AND2x2_ASAP7_75t_R
*CAP
1 *815:B 1.22282e-05
2 *1170:A 5.07184e-06
3 *780:Y 3.43444e-06
4 *331:8 2.07345e-05
5 *815:B *563:51 0
6 *815:A *815:B 3.67067e-06
7 *292:23 *815:B 3.68287e-06
8 *318:40 *815:B 4.74248e-06
9 *318:40 *1170:A 5.66897e-06
*RES
1 *780:Y *331:8 36.0045 
2 *331:8 *1170:A 38.9053 
3 *331:8 *815:B 43.1556 
*END

*D_NET *332 0.000132765
*CONN
*I *924:B I *D OR2x2_ASAP7_75t_R
*I *1163:A I *D BUFx6f_ASAP7_75t_R
*I *781:Y O *D XNOR2x2_ASAP7_75t_R
*CAP
1 *924:B 9.95339e-06
2 *1163:A 0
3 *781:Y 5.3568e-06
4 *332:23 4.42464e-05
5 *332:12 5.06801e-05
6 *332:8 2.17439e-05
7 *142:8 *332:23 7.84037e-07
*RES
1 *781:Y *332:8 37.779 
2 *332:8 *332:12 22.5483 
3 *332:12 *1163:A 17.2 
4 *332:12 *332:23 40.2898 
5 *332:23 *924:B 38.1438 
*END

*D_NET *333 7.26282e-05
*CONN
*I *788:A1 I *D AO31x2_ASAP7_75t_R
*I *929:A I *D AND2x2_ASAP7_75t_R
*I *783:Y O *D INVx1_ASAP7_75t_R
*CAP
1 *788:A1 1.3657e-05
2 *929:A 2.0181e-05
3 *783:Y 0
4 *333:6 3.3838e-05
5 *788:A1 *788:A2 1.67815e-06
6 *788:A1 *345:12 0
7 *788:A1 *451:16 1.09067e-06
8 *788:A1 *451:22 2.68933e-07
9 *929:A *788:B 0
10 *929:A *929:B 1.36155e-06
11 *929:A *451:22 5.52807e-07
*RES
1 *783:Y *333:6 34.4 
2 *333:6 *929:A 45.773 
3 *333:6 *788:A1 43.7754 
*END

*D_NET *334 0.000156656
*CONN
*P B[12] I
*I *784:A I *D BUFx2_ASAP7_75t_R
*CAP
1 B[12] 2.62708e-05
2 *784:A 0
3 *334:13 2.74499e-05
4 *334:9 5.37207e-05
5 *334:9 S[5] 2.46074e-05
6 *95:9 *334:9 2.46074e-05
*RES
1 B[12] *334:9 42.662 
2 *334:9 *334:13 38.0582 
3 *334:13 *784:A 17.2 
*END

*D_NET *335 8.10256e-05
*CONN
*I *788:A2 I *D AO31x2_ASAP7_75t_R
*I *785:Y O *D OR3x1_ASAP7_75t_R
*CAP
1 *788:A2 8.66269e-06
2 *785:Y 1.47321e-05
3 *335:8 2.33948e-05
4 *788:A2 *788:B 0
5 *335:8 *795:A 5.25794e-06
6 *335:8 *795:B 2.66797e-07
7 *335:8 *345:8 1.55843e-05
8 *788:A1 *788:A2 1.67815e-06
9 *185:28 *335:8 1.14488e-05
*RES
1 *785:Y *335:8 48.8403 
2 *335:8 *788:A2 40.0317 
*END

*D_NET *336 4.41608e-05
*CONN
*I *788:A3 I *D AO31x2_ASAP7_75t_R
*I *786:Y O *D OAI21x1_ASAP7_75t_R
*CAP
1 *788:A3 8.08469e-06
2 *786:Y 1.09598e-05
3 *336:10 1.90445e-05
4 *336:10 *345:12 2.1664e-06
5 *336:10 *627:27 1.12894e-06
6 *336:10 *627:40 2.77657e-06
*RES
1 *786:Y *336:10 42.1993 
2 *336:10 *788:A3 38.1438 
*END

*D_NET *337 7.19858e-05
*CONN
*I *788:B I *D AO31x2_ASAP7_75t_R
*I *787:Y O *D OR2x2_ASAP7_75t_R
*CAP
1 *788:B 1.71354e-05
2 *787:Y 6.85134e-06
3 *337:8 2.39867e-05
4 *788:B *795:A 0
5 *788:B *345:12 1.33022e-05
6 *788:A2 *788:B 0
7 *795:D *788:B 5.36731e-06
8 *929:A *788:B 0
9 *179:22 *337:8 5.34278e-06
*RES
1 *787:Y *337:8 38.1438 
2 *337:8 *788:B 47.3528 
*END

*D_NET *338 0.000198298
*CONN
*I *803:A1 I *D AOI211x1_ASAP7_75t_R
*I *801:A I *D AND3x1_ASAP7_75t_R
*I *1184:A I *D BUFx3_ASAP7_75t_R
*I *788:Y O *D AO31x2_ASAP7_75t_R
*CAP
1 *803:A1 6.78695e-06
2 *801:A 2.03749e-06
3 *1184:A 0
4 *788:Y 9.79795e-06
5 *338:27 2.17612e-05
6 *338:25 3.82209e-05
7 *338:10 4.45121e-05
8 *338:8 2.90259e-05
9 *801:A *1183:A 5.22376e-07
10 *803:A1 *345:18 0
11 *803:A1 *349:8 1.64348e-06
12 *803:A1 *552:8 0
13 *338:10 *550:8 5.33743e-06
14 *338:10 *629:8 0
15 *338:27 *342:33 3.03529e-05
16 *338:27 *345:18 0
17 *178:18 *338:10 6.65157e-06
18 *178:18 *338:25 1.64764e-06
19 *178:26 *338:25 0
20 *178:26 *338:27 0
*RES
1 *788:Y *338:8 38.1438 
2 *338:8 *338:10 16.3318 
3 *338:10 *1184:A 34.4 
4 *338:10 *338:25 46.9277 
5 *338:25 *338:27 13.516 
6 *338:27 *801:A 35.4697 
7 *338:27 *803:A1 40.0317 
*END

*D_NET *339 5.13267e-05
*CONN
*I *792:D I *D OR5x1_ASAP7_75t_R
*I *789:Y O *D INVx1_ASAP7_75t_R
*CAP
1 *792:D 2.36324e-05
2 *789:Y 2.36324e-05
3 *789:A *792:D 0
4 *181:22 *792:D 4.06202e-06
*RES
1 *789:Y *792:D 42.9572 
*END

*D_NET *340 3.56286e-05
*CONN
*I *792:A I *D OR5x1_ASAP7_75t_R
*I *790:Y O *D NOR3x1_ASAP7_75t_R
*CAP
1 *792:A 0
2 *790:Y 1.36268e-05
3 *340:10 1.36268e-05
4 *179:50 *340:10 2.05284e-06
5 *181:22 *340:10 6.32217e-06
*RES
1 *790:Y *340:10 44.9585 
2 *340:10 *792:A 34.4 
*END

*D_NET *341 0.000135458
*CONN
*I *792:E I *D OR5x1_ASAP7_75t_R
*I *791:Y O *D OA21x2_ASAP7_75t_R
*CAP
1 *792:E 8.91473e-06
2 *791:Y 7.98822e-06
3 *341:14 2.45739e-05
4 *341:8 2.36473e-05
5 *341:8 *655:8 9.97906e-07
6 *979:B *341:14 1.19785e-05
7 *1226:A *341:14 4.06202e-06
8 *10:6 *341:14 2.14035e-05
9 *180:10 *792:E 1.1274e-06
10 *180:10 *341:14 6.19506e-06
11 *181:6 *341:14 4.07212e-06
12 *181:12 *792:E 1.95177e-05
13 *182:18 *341:8 9.80084e-07
*RES
1 *791:Y *341:8 40.0317 
2 *341:8 *341:14 49.9099 
3 *341:14 *792:E 42.2843 
*END

*D_NET *342 0.000368731
*CONN
*I *801:B I *D AND3x1_ASAP7_75t_R
*I *1183:A I *D BUFx3_ASAP7_75t_R
*I *1181:A I *D BUFx3_ASAP7_75t_R
*I *792:Y O *D OR5x1_ASAP7_75t_R
*CAP
1 *801:B 0
2 *1183:A 2.29985e-05
3 *1181:A 4.67679e-06
4 *792:Y 1.95823e-05
5 *342:35 2.29985e-05
6 *342:33 1.89547e-05
7 *342:20 2.36315e-05
8 *342:18 1.44231e-05
9 *342:10 6.11142e-05
10 *342:8 6.62733e-05
11 *1181:A *346:10 6.7842e-07
12 *342:10 *451:16 2.01299e-05
13 *342:10 *451:22 2.26439e-05
14 *342:10 *529:12 2.30063e-05
15 *342:18 *346:10 3.79923e-06
16 *342:18 *346:14 3.56648e-06
17 *342:18 *451:16 5.37866e-07
18 *342:33 *345:18 0
19 *801:A *1183:A 5.22376e-07
20 *178:18 *342:10 0
21 *178:18 *342:18 1.09067e-06
22 *178:18 *342:33 7.75e-06
23 *178:26 *342:33 0
24 *338:27 *342:33 3.03529e-05
*RES
1 *792:Y *342:8 44.5617 
2 *342:8 *342:10 45.0533 
3 *342:10 *342:18 44.9585 
4 *342:18 *342:20 17.2 
5 *342:20 *1181:A 19.8741 
6 *342:20 *342:33 35.1363 
7 *342:33 *342:35 17.2 
8 *342:35 *1183:A 30.5706 
9 *342:35 *801:B 17.2 
*END

*D_NET *343 7.16909e-05
*CONN
*I *794:B I *D XNOR2x2_ASAP7_75t_R
*I *793:Y O *D NAND2x1_ASAP7_75t_R
*CAP
1 *794:B 9.01933e-06
2 *793:Y 1.69462e-05
3 *343:8 2.59656e-05
4 *794:B *797:A 5.34278e-06
5 *794:B *346:14 1.4417e-05
*RES
1 *793:Y *343:8 45.6633 
2 *343:8 *794:B 44.5617 
*END

*D_NET *344 2.13669e-05
*CONN
*I *797:A I *D XNOR2x2_ASAP7_75t_R
*I *794:Y O *D XNOR2x2_ASAP7_75t_R
*CAP
1 *797:A 7.50656e-06
2 *794:Y 7.50656e-06
3 *797:A *346:14 1.01102e-06
4 *794:B *797:A 5.34278e-06
*RES
1 *794:Y *797:A 40.2831 
*END

*D_NET *345 0.000270593
*CONN
*I *796:B I *D NOR2x2_ASAP7_75t_R
*I *813:B I *D OR3x1_ASAP7_75t_R
*I *795:Y O *D OR4x1_ASAP7_75t_R
*CAP
1 *796:B 0
2 *813:B 0
3 *795:Y 8.14541e-06
4 *345:18 5.0946e-05
5 *345:16 5.0946e-05
6 *345:14 1.21388e-05
7 *345:12 4.0219e-05
8 *345:8 3.62256e-05
9 *345:12 *451:8 3.95845e-06
10 *345:12 *627:40 0
11 *345:14 *532:23 2.6401e-05
12 *345:18 *348:33 0
13 *345:18 *348:41 0
14 *345:18 *552:8 2.22736e-06
15 *788:A1 *345:12 0
16 *788:B *345:12 1.33022e-05
17 *803:A1 *345:18 0
18 *171:30 *345:18 8.33296e-06
19 *335:8 *345:8 1.55843e-05
20 *336:10 *345:12 2.1664e-06
21 *338:27 *345:18 0
22 *342:33 *345:18 0
*RES
1 *795:Y *345:8 39.2134 
2 *345:8 *345:12 40.853 
3 *345:12 *345:14 10.1617 
4 *345:14 *345:16 17.2 
5 *345:16 *345:18 42.8006 
6 *345:18 *813:B 34.4 
7 *345:14 *796:B 17.2 
*END

*D_NET *346 0.000198226
*CONN
*I *797:B I *D XNOR2x2_ASAP7_75t_R
*I *796:Y O *D NOR2x2_ASAP7_75t_R
*CAP
1 *797:B 0
2 *796:Y 1.06406e-05
3 *346:20 6.61856e-06
4 *346:14 7.54786e-05
5 *346:10 7.95006e-05
6 *346:10 *451:16 6.33206e-07
7 *346:20 *347:12 1.88253e-06
8 *794:B *346:14 1.4417e-05
9 *797:A *346:14 1.01102e-06
10 *1181:A *346:10 6.7842e-07
11 *342:18 *346:10 3.79923e-06
12 *342:18 *346:14 3.56648e-06
*RES
1 *796:Y *346:10 40.4531 
2 *346:10 *346:14 48.7547 
3 *346:14 *346:20 39.4685 
4 *346:20 *797:B 17.2 
*END

*D_NET *347 0.000393694
*CONN
*I *939:B I *D OR2x2_ASAP7_75t_R
*I *935:C I *D OR3x1_ASAP7_75t_R
*I *936:A2 I *D OAI21x1_ASAP7_75t_R
*I *798:A I *D INVx2_ASAP7_75t_R
*I *797:Y O *D XNOR2x2_ASAP7_75t_R
*CAP
1 *939:B 0
2 *935:C 8.95889e-06
3 *936:A2 5.19844e-06
4 *798:A 0
5 *797:Y 0
6 *347:53 3.47276e-05
7 *347:49 4.81633e-05
8 *347:24 3.74618e-05
9 *347:18 5.02567e-05
10 *347:14 3.18307e-05
11 *347:12 3.57441e-05
12 *347:4 3.39045e-05
13 *935:C *624:23 1.10279e-06
14 *936:A2 *937:A 1.29877e-05
15 *347:53 *348:10 0
16 *347:53 *354:12 0
17 *347:53 *355:10 0
18 *347:53 *356:8 0
19 *799:B *347:53 2.43534e-06
20 *805:A *347:12 0
21 *805:A *347:53 9.81516e-06
22 *806:B *347:53 6.8435e-06
23 *935:B *935:C 1.44167e-06
24 *173:29 *347:53 5.51814e-06
25 *175:22 *347:53 2.83874e-07
26 *176:8 *347:24 1.65126e-05
27 *176:19 *347:12 0
28 *176:19 *347:18 1.96231e-05
29 *176:19 *347:24 2.90014e-05
30 *177:44 *347:53 0
31 *346:20 *347:12 1.88253e-06
*RES
1 *797:Y *347:4 17.2 
2 *347:4 *347:12 49.5205 
3 *347:12 *347:14 9.09202 
4 *347:14 *347:18 23.958 
5 *347:18 *347:24 40.4279 
6 *347:24 *798:A 17.2 
7 *347:18 *936:A2 38.1438 
8 *347:14 *935:C 22.0134 
9 *347:4 *347:49 23.0831 
10 *347:49 *347:53 47.0478 
11 *347:53 *939:B 17.2 
*END

*D_NET *348 0.000326809
*CONN
*I *803:B I *D AOI211x1_ASAP7_75t_R
*I *800:B I *D NOR2x1_ASAP7_75t_R
*I *813:C I *D OR3x1_ASAP7_75t_R
*I *939:A I *D OR2x2_ASAP7_75t_R
*I *799:Y O *D OR3x1_ASAP7_75t_R
*CAP
1 *803:B 0
2 *800:B 0
3 *813:C 1.33546e-05
4 *939:A 8.44197e-06
5 *799:Y 7.32526e-06
6 *348:41 2.84146e-05
7 *348:33 3.2669e-05
8 *348:25 7.31229e-05
9 *348:23 5.74721e-05
10 *348:10 2.52238e-05
11 *348:8 2.2149e-05
12 *813:C *362:6 1.51653e-06
13 *348:10 *354:12 8.21017e-06
14 *348:10 *356:8 1.34329e-05
15 *348:23 *356:8 3.22574e-06
16 *348:25 *803:C 1.14488e-05
17 *348:25 *459:8 1.04475e-06
18 *348:33 *349:8 8.36938e-06
19 *348:41 *1175:A 0
20 *802:A *348:25 1.04405e-05
21 *802:A *348:33 6.7842e-07
22 *178:41 *348:33 2.68933e-07
23 *178:41 *348:41 0
24 *345:18 *348:33 0
25 *345:18 *348:41 0
26 *347:53 *348:10 0
*RES
1 *799:Y *348:8 37.0741 
2 *348:8 *348:10 12.9528 
3 *348:10 *939:A 41.3527 
4 *348:10 *348:23 18.8895 
5 *348:23 *348:25 43.3208 
6 *348:25 *348:33 47.0977 
7 *348:33 *348:41 45.0151 
8 *348:41 *813:C 25.7572 
9 *348:33 *800:B 17.2 
10 *348:25 *803:B 17.2 
*END

*D_NET *349 5.92607e-05
*CONN
*I *801:C I *D AND3x1_ASAP7_75t_R
*I *800:Y O *D NOR2x1_ASAP7_75t_R
*CAP
1 *801:C 3.87182e-06
2 *800:Y 1.26239e-05
3 *349:8 1.64957e-05
4 *803:A1 *349:8 1.64348e-06
5 *178:26 *349:8 5.68573e-06
6 *178:41 *349:8 1.05707e-05
7 *348:33 *349:8 8.36938e-06
*RES
1 *800:Y *349:8 47.3528 
2 *349:8 *801:C 36.5393 
*END

*D_NET *350 0.000147542
*CONN
*I *1175:A I *D BUFx3_ASAP7_75t_R
*I *809:A I *D OR3x1_ASAP7_75t_R
*I *801:Y O *D AND3x1_ASAP7_75t_R
*CAP
1 *1175:A 1.99501e-05
2 *809:A 9.87013e-06
3 *801:Y 7.05326e-06
4 *350:10 4.96622e-05
5 *350:8 2.68952e-05
6 *809:A *352:12 3.65131e-06
7 *1175:A *352:8 1.67815e-06
8 *1175:A *352:25 0
9 *350:10 *352:8 1.67815e-06
10 *178:26 *350:10 1.00799e-05
11 *178:41 *1175:A 4.55339e-06
12 *178:41 *350:10 1.24703e-05
13 *348:41 *1175:A 0
*RES
1 *801:Y *350:8 38.1438 
2 *350:8 *350:10 17.4581 
3 *350:10 *809:A 40.2831 
4 *350:10 *1175:A 49.2937 
*END

*D_NET *351 2.83134e-05
*CONN
*I *803:C I *D AOI211x1_ASAP7_75t_R
*I *802:Y O *D INVx1_ASAP7_75t_R
*CAP
1 *803:C 8.43232e-06
2 *802:Y 8.43232e-06
3 *348:25 *803:C 1.14488e-05
*RES
1 *802:Y *803:C 42.4224 
*END

*D_NET *352 8.33537e-05
*CONN
*I *810:A2 I *D OAI21x1_ASAP7_75t_R
*I *809:B I *D OR3x1_ASAP7_75t_R
*I *803:Y O *D AOI211x1_ASAP7_75t_R
*CAP
1 *810:A2 0
2 *809:B 0
3 *803:Y 9.58016e-06
4 *352:25 1.07268e-05
5 *352:12 1.70883e-05
6 *352:8 1.59416e-05
7 *352:8 *357:18 0
8 *352:25 *357:18 2.92297e-06
9 *352:25 *357:31 5.52807e-07
10 *352:25 *358:8 1.71813e-05
11 *352:25 *544:10 2.35211e-06
12 *809:A *352:12 3.65131e-06
13 *1175:A *352:8 1.67815e-06
14 *1175:A *352:25 0
15 *350:10 *352:8 1.67815e-06
*RES
1 *803:Y *352:8 41.158 
2 *352:8 *352:12 21.4786 
3 *352:12 *809:B 17.2 
4 *352:12 *352:25 45.4933 
5 *352:25 *810:A2 17.2 
*END

*D_NET *353 1.59841e-05
*CONN
*I *807:A I *D AND3x1_ASAP7_75t_R
*I *804:Y O *D INVx1_ASAP7_75t_R
*CAP
1 *807:A 7.59889e-06
2 *804:Y 7.59889e-06
3 *804:A *807:A 5.19552e-07
4 *173:14 *807:A 2.66797e-07
*RES
1 *804:Y *807:A 38.1438 
*END

*D_NET *354 0.000115079
*CONN
*I *807:B I *D AND3x1_ASAP7_75t_R
*I *805:Y O *D OR3x1_ASAP7_75t_R
*CAP
1 *807:B 0
2 *805:Y 0
3 *354:12 2.80365e-05
4 *354:6 2.80365e-05
5 *354:12 *355:10 3.88093e-05
6 *173:14 *354:12 1.56713e-06
7 *175:14 *354:12 0
8 *177:44 *354:12 1.04198e-05
9 *347:53 *354:12 0
10 *348:10 *354:12 8.21017e-06
*RES
1 *805:Y *354:6 34.4 
2 *354:6 *354:12 44.0619 
3 *354:12 *807:B 17.2 
*END

*D_NET *355 8.979e-05
*CONN
*I *807:C I *D AND3x1_ASAP7_75t_R
*I *806:Y O *D OAI21x1_ASAP7_75t_R
*CAP
1 *807:C 0
2 *806:Y 1.38027e-05
3 *355:10 1.38027e-05
4 *175:14 *355:10 2.20493e-06
5 *175:18 *355:10 7.63254e-07
6 *177:44 *355:10 2.04071e-05
7 *347:53 *355:10 0
8 *354:12 *355:10 3.88093e-05
*RES
1 *806:Y *355:10 48.9573 
2 *355:10 *807:C 34.4 
*END

*D_NET *356 5.88381e-05
*CONN
*I *808:B I *D XOR2x2_ASAP7_75t_R
*I *807:Y O *D AND3x1_ASAP7_75t_R
*CAP
1 *808:B 0
2 *807:Y 1.43041e-05
3 *356:8 1.43041e-05
4 *356:8 *941:B 1.33022e-05
5 *172:10 *356:8 2.68933e-07
6 *347:53 *356:8 0
7 *348:10 *356:8 1.34329e-05
8 *348:23 *356:8 3.22574e-06
*RES
1 *807:Y *356:8 47.3528 
2 *356:8 *808:B 34.4 
*END

*D_NET *357 0.000200071
*CONN
*I *1174:A I *D BUFx3_ASAP7_75t_R
*I *810:B I *D OAI21x1_ASAP7_75t_R
*I *809:C I *D OR3x1_ASAP7_75t_R
*I *808:Y O *D XOR2x2_ASAP7_75t_R
*CAP
1 *1174:A 0
2 *810:B 0
3 *809:C 0
4 *808:Y 4.71699e-05
5 *357:31 1.24256e-05
6 *357:18 1.38087e-05
7 *357:8 4.22726e-05
8 *357:6 6.32082e-05
9 *357:31 *358:8 4.97342e-06
10 *357:31 *359:10 5.41446e-06
11 *171:18 *357:31 7.32245e-06
12 *352:8 *357:18 0
13 *352:25 *357:18 2.92297e-06
14 *352:25 *357:31 5.52807e-07
*RES
1 *808:Y *357:6 45.0109 
2 *357:6 *357:8 9.62685 
3 *357:8 *357:18 43.6337 
4 *357:18 *809:C 17.2 
5 *357:8 *357:31 46.1415 
6 *357:31 *810:B 17.2 
7 *357:6 *1174:A 17.2 
*END

*D_NET *358 6.28174e-05
*CONN
*I *811:A1 I *D AOI21x1_ASAP7_75t_R
*I *809:Y O *D OR3x1_ASAP7_75t_R
*CAP
1 *811:A1 0
2 *809:Y 1.01278e-05
3 *358:8 1.01278e-05
4 *171:18 *358:8 2.04071e-05
5 *352:25 *358:8 1.71813e-05
6 *357:31 *358:8 4.97342e-06
*RES
1 *809:Y *358:8 47.3528 
2 *358:8 *811:A1 34.4 
*END

*D_NET *359 4.57273e-05
*CONN
*I *811:A2 I *D AOI21x1_ASAP7_75t_R
*I *810:Y O *D OAI21x1_ASAP7_75t_R
*CAP
1 *811:A2 0
2 *810:Y 1.06986e-05
3 *359:10 1.06986e-05
4 *359:10 *601:8 0
5 *359:10 *601:18 5.49212e-07
6 *171:18 *359:10 1.83664e-05
7 *357:31 *359:10 5.41446e-06
*RES
1 *810:Y *359:10 42.7058 
2 *359:10 *811:A2 34.4 
*END

*D_NET *360 6.11502e-05
*CONN
*I *812:B I *D XNOR2x2_ASAP7_75t_R
*I *811:Y O *D AOI21x1_ASAP7_75t_R
*CAP
1 *812:B 9.38395e-06
2 *811:Y 7.22864e-06
3 *360:8 1.66126e-05
4 *170:12 *812:B 2.7925e-05
5 *170:18 *360:8 0
*RES
1 *811:Y *360:8 40.0317 
2 *360:8 *812:B 42.9572 
*END

*D_NET *361 0.00021604
*CONN
*I *827:B I *D XOR2x2_ASAP7_75t_R
*I *1168:A I *D BUFx3_ASAP7_75t_R
*I *812:Y O *D XNOR2x2_ASAP7_75t_R
*CAP
1 *827:B 0
2 *1168:A 3.59701e-06
3 *812:Y 3.12836e-05
4 *361:25 1.65027e-05
5 *361:10 3.71513e-05
6 *361:8 4.83352e-05
7 *1168:A *376:14 3.73144e-06
8 *361:10 *376:8 8.06799e-07
9 *361:25 *827:A 4.57952e-06
10 *361:25 *376:8 5.37866e-07
11 *361:25 *376:14 1.62312e-05
12 *361:25 *537:10 4.04733e-05
13 *170:12 *361:8 1.28104e-05
*RES
1 *812:Y *361:8 49.9099 
2 *361:8 *361:10 12.9528 
3 *361:10 *1168:A 37.0741 
4 *361:10 *361:25 34.5128 
5 *361:25 *827:B 17.2 
*END

*D_NET *362 0.000197116
*CONN
*I *1182:A I *D BUFx3_ASAP7_75t_R
*I *814:A I *D INVx1_ASAP7_75t_R
*I *813:Y O *D OR3x1_ASAP7_75t_R
*CAP
1 *1182:A 1.80369e-05
2 *814:A 0
3 *813:Y 6.59905e-05
4 *362:10 2.33392e-05
5 *362:6 7.12928e-05
6 *1182:A *363:10 1.18806e-05
7 *813:C *362:6 1.51653e-06
8 *171:30 *362:6 2.52755e-07
9 *314:37 *1182:A 3.86138e-07
10 *319:12 *1182:A 1.64764e-06
11 *319:12 *362:10 1.12894e-06
12 *319:23 *1182:A 1.64348e-06
*RES
1 *813:Y *362:6 45.5457 
2 *362:6 *362:10 20.579 
3 *362:10 *814:A 34.4 
4 *362:10 *1182:A 48.2808 
*END

*D_NET *363 0.000191273
*CONN
*I *817:C I *D AND4x1_ASAP7_75t_R
*I *815:C I *D AND3x1_ASAP7_75t_R
*I *814:Y O *D INVx1_ASAP7_75t_R
*CAP
1 *817:C 0
2 *815:C 1.8556e-06
3 *814:Y 1.14075e-05
4 *363:28 3.41119e-05
5 *363:20 3.22563e-05
6 *363:18 1.84953e-05
7 *363:10 2.99028e-05
8 *363:18 *364:14 4.65399e-06
9 *363:28 *364:8 3.12713e-05
10 *1182:A *363:10 1.18806e-05
11 *292:23 *363:28 4.88493e-06
12 *314:37 *363:10 5.19571e-06
13 *314:37 *363:18 2.71584e-06
14 *319:23 *363:10 2.6409e-06
*RES
1 *814:Y *363:10 42.1798 
2 *363:10 *363:18 43.6172 
3 *363:18 *363:20 17.2 
4 *363:20 *363:28 49.6302 
5 *363:28 *815:C 18.2696 
6 *363:20 *817:C 17.2 
*END

*D_NET *364 0.000150098
*CONN
*I *826:A2 I *D AOI211x1_ASAP7_75t_R
*I *815:Y O *D AND3x1_ASAP7_75t_R
*CAP
1 *826:A2 0
2 *815:Y 1.35352e-05
3 *364:14 2.93646e-05
4 *364:8 4.28997e-05
5 *364:8 *817:A 3.89037e-06
6 *364:14 *373:20 1.64082e-05
7 *817:D *364:8 2.12276e-06
8 *825:A1 *364:14 4.19247e-06
9 *318:29 *364:8 1.75952e-06
10 *363:18 *364:14 4.65399e-06
11 *363:28 *364:8 3.12713e-05
*RES
1 *815:Y *364:8 43.492 
2 *364:8 *364:14 35.5011 
3 *364:14 *826:A2 17.2 
*END

*D_NET *365 5.72534e-05
*CONN
*I *817:A I *D AND4x1_ASAP7_75t_R
*I *816:Y O *D AOI22x1_ASAP7_75t_R
*CAP
1 *817:A 1.32641e-06
2 *816:Y 2.38579e-05
3 *365:10 2.51843e-05
4 *292:10 *365:10 0
5 *318:29 *817:A 1.36155e-06
6 *318:40 *365:10 1.63292e-06
7 *364:8 *817:A 3.89037e-06
*RES
1 *816:Y *365:10 48.2808 
2 *365:10 *817:A 35.4697 
*END

*D_NET *366 0.000125838
*CONN
*I *826:C I *D AOI211x1_ASAP7_75t_R
*I *817:Y O *D AND4x1_ASAP7_75t_R
*CAP
1 *826:C 1.31751e-05
2 *817:Y 8.9949e-06
3 *366:16 4.65087e-05
4 *366:10 4.23286e-05
5 *826:C *374:10 4.45472e-06
6 *826:C *551:8 0
7 *366:16 *825:B2 1.59615e-06
8 *366:16 *825:C 3.56648e-06
9 *366:16 *374:10 1.26378e-06
10 *825:A1 *366:10 3.95007e-06
11 *319:23 *826:C 0
*RES
1 *817:Y *366:10 39.3835 
2 *366:10 *366:16 49.9099 
3 *366:16 *826:C 45.6633 
*END

*D_NET *367 0.000208016
*CONN
*I *820:B I *D AO211x2_ASAP7_75t_R
*I *818:Y O *D AOI211x1_ASAP7_75t_R
*CAP
1 *820:B 0
2 *818:Y 4.66863e-05
3 *367:22 6.40672e-06
4 *367:14 2.82661e-05
5 *367:6 6.85458e-05
6 *367:6 *373:8 0
7 *367:14 *372:22 3.67907e-06
8 *367:14 *563:10 1.34467e-07
9 *818:C *367:6 1.95129e-06
10 *1278:A *367:6 2.3365e-05
11 *291:16 *367:22 3.03837e-06
12 *291:27 *367:22 3.65663e-06
13 *292:10 *367:22 1.49407e-08
14 *330:14 *367:14 2.22714e-05
*RES
1 *818:Y *367:6 38.0582 
2 *367:6 *367:14 44.0326 
3 *367:14 *367:22 38.9885 
4 *367:22 *820:B 17.2 
*END

*D_NET *368 0.000172682
*CONN
*I *820:C I *D AO211x2_ASAP7_75t_R
*I *819:Y O *D AOI21x1_ASAP7_75t_R
*CAP
1 *820:C 1.78256e-05
2 *819:Y 1.41944e-05
3 *368:16 3.99625e-05
4 *368:10 3.63313e-05
5 *368:10 *370:10 3.65131e-06
6 *816:B1 *368:10 1.99018e-05
7 *816:B1 *368:16 2.0895e-06
8 *824:B2 *368:10 3.6269e-06
9 *284:31 *820:C 1.98917e-05
10 *291:27 *820:C 1.52068e-05
11 *292:10 *368:10 0
12 *318:40 *368:16 0
*RES
1 *819:Y *368:10 46.3079 
2 *368:10 *368:16 43.492 
3 *368:16 *820:C 47.0411 
*END

*D_NET *369 4.12972e-05
*CONN
*I *825:B2 I *D AOI221x1_ASAP7_75t_R
*I *820:Y O *D AO211x2_ASAP7_75t_R
*CAP
1 *825:B2 6.25812e-06
2 *820:Y 8.55247e-06
3 *369:8 1.48106e-05
4 *369:8 *373:20 1.00799e-05
5 *319:23 *369:8 0
6 *366:16 *825:B2 1.59615e-06
*RES
1 *820:Y *369:8 42.2843 
2 *369:8 *825:B2 38.1438 
*END

*D_NET *370 4.35537e-05
*CONN
*I *824:A1 I *D AO32x1_ASAP7_75t_R
*I *821:Y O *D INVx1_ASAP7_75t_R
*CAP
1 *824:A1 1.29724e-06
2 *821:Y 1.0361e-05
3 *370:10 1.16583e-05
4 *824:A1 *373:8 3.68287e-06
5 *370:10 *563:10 0
6 *330:18 *370:10 1.2903e-05
7 *368:10 *370:10 3.65131e-06
*RES
1 *821:Y *370:10 41.5795 
2 *370:10 *824:A1 35.4697 
*END

*D_NET *371 2.3177e-05
*CONN
*I *824:A2 I *D AO32x1_ASAP7_75t_R
*I *822:Y O *D OR3x1_ASAP7_75t_R
*CAP
1 *824:A2 2.31949e-06
2 *822:Y 6.21516e-06
3 *371:8 8.53465e-06
4 *824:A2 *373:8 7.58265e-07
5 *371:8 *372:22 5.34941e-06
6 *371:8 *373:12 0
*RES
1 *822:Y *371:8 38.9053 
2 *371:8 *824:A2 36.0045 
*END

*D_NET *372 0.000188533
*CONN
*I *824:A3 I *D AO32x1_ASAP7_75t_R
*I *823:Y O *D AO21x1_ASAP7_75t_R
*CAP
1 *824:A3 0
2 *823:Y 2.84569e-06
3 *372:22 1.34802e-05
4 *372:14 3.89214e-05
5 *372:8 2.82869e-05
6 *372:14 *733:A 3.16603e-06
7 *372:14 *823:B 6.33206e-07
8 *372:14 *373:12 8.33296e-06
9 *372:14 *373:16 2.03526e-06
10 *372:22 *373:8 1.52651e-06
11 *372:22 *373:12 0
12 *372:22 *563:10 0
13 *822:B *372:14 1.60115e-05
14 *280:28 *372:14 0
15 *280:45 *372:14 1.80102e-05
16 *284:20 *372:14 6.7842e-07
17 *290:6 *372:8 6.7842e-07
18 *291:10 *372:14 2.4723e-05
19 *291:16 *372:14 2.01603e-05
20 *330:18 *372:22 1.49407e-08
21 *367:14 *372:22 3.67907e-06
22 *371:8 *372:22 5.34941e-06
*RES
1 *823:Y *372:8 35.4697 
2 *372:8 *372:14 42.5672 
3 *372:14 *372:22 44.4803 
4 *372:22 *824:A3 17.2 
*END

*D_NET *373 0.000293564
*CONN
*I *825:B1 I *D AOI221x1_ASAP7_75t_R
*I *824:Y O *D AO32x1_ASAP7_75t_R
*CAP
1 *825:B1 0
2 *824:Y 2.6618e-05
3 *373:20 1.94479e-05
4 *373:16 6.89512e-05
5 *373:12 6.37101e-05
6 *373:8 4.08249e-05
7 *824:A1 *373:8 3.68287e-06
8 *824:A2 *373:8 7.58265e-07
9 *824:B2 *373:8 2.96818e-06
10 *824:B2 *373:12 8.06436e-06
11 *280:28 *373:12 2.83874e-07
12 *284:20 *373:12 9.86543e-06
13 *284:31 *373:16 1.53057e-06
14 *291:16 *373:12 8.29633e-06
15 *330:18 *373:12 1.79289e-07
16 *364:14 *373:20 1.64082e-05
17 *367:6 *373:8 0
18 *369:8 *373:20 1.00799e-05
19 *371:8 *373:12 0
20 *372:14 *373:12 8.33296e-06
21 *372:14 *373:16 2.03526e-06
22 *372:22 *373:8 1.52651e-06
23 *372:22 *373:12 0
*RES
1 *824:Y *373:8 46.701 
2 *373:8 *373:12 30.716 
3 *373:12 *373:16 40.1975 
4 *373:16 *373:20 35.7845 
5 *373:20 *825:B1 17.2 
*END

*D_NET *374 2.71671e-05
*CONN
*I *826:B I *D AOI211x1_ASAP7_75t_R
*I *825:Y O *D AOI221x1_ASAP7_75t_R
*CAP
1 *826:B 0
2 *825:Y 1.07243e-05
3 *374:10 1.07243e-05
4 *826:C *374:10 4.45472e-06
5 *319:23 *374:10 0
6 *366:16 *374:10 1.26378e-06
*RES
1 *825:Y *374:10 43.8321 
2 *374:10 *826:B 34.4 
*END

*D_NET *375 0.000140221
*CONN
*I *827:A I *D XOR2x2_ASAP7_75t_R
*I *1167:A I *D BUFx3_ASAP7_75t_R
*I *826:Y O *D AOI211x1_ASAP7_75t_R
*CAP
1 *827:A 7.18049e-06
2 *1167:A 0
3 *826:Y 0
4 *375:21 6.07489e-05
5 *375:10 7.07164e-06
6 *375:4 6.064e-05
7 *375:21 *376:8 0
8 *375:21 *376:25 0
9 *361:25 *827:A 4.57952e-06
*RES
1 *826:Y *375:4 17.2 
2 *375:4 *375:10 38.9053 
3 *375:10 *1167:A 17.2 
4 *375:4 *375:21 40.9307 
5 *375:21 *827:A 39.7482 
*END

*D_NET *376 0.000287122
*CONN
*I *849:B I *D OR5x1_ASAP7_75t_R
*I *828:A I *D INVx2_ASAP7_75t_R
*I *944:B I *D OR2x4_ASAP7_75t_R
*I *827:Y O *D XOR2x2_ASAP7_75t_R
*CAP
1 *849:B 9.20071e-06
2 *828:A 1.78486e-05
3 *944:B 9.2463e-06
4 *827:Y 5.04114e-06
5 *376:25 5.07266e-05
6 *376:14 2.33508e-05
7 *376:8 4.28229e-05
8 *828:A *382:6 1.44639e-06
9 *828:A *382:10 2.88806e-06
10 *828:A *603:35 2.01215e-05
11 *849:B *377:10 1.65207e-05
12 *849:B *378:12 2.68933e-07
13 *849:B *603:41 2.05883e-06
14 *944:B *537:25 2.83874e-07
15 *376:14 *537:10 2.97289e-06
16 *376:25 *377:10 3.53295e-05
17 *376:25 *379:10 3.06808e-06
18 *376:25 *536:25 4.65366e-06
19 *376:25 *537:10 0
20 *376:25 *603:41 5.37569e-06
21 *829:B *376:25 1.35961e-06
22 *1168:A *376:14 3.73144e-06
23 *165:30 *849:B 1.06925e-05
24 *169:53 *376:25 5.37866e-07
25 *361:10 *376:8 8.06799e-07
26 *361:25 *376:8 5.37866e-07
27 *361:25 *376:14 1.62312e-05
28 *375:21 *376:8 0
29 *375:21 *376:25 0
*RES
1 *827:Y *376:8 38.3422 
2 *376:8 *376:14 45.6313 
3 *376:14 *944:B 40.0317 
4 *376:8 *376:25 22.5266 
5 *376:25 *828:A 43.492 
6 *376:25 *849:B 42.1993 
*END

*D_NET *377 0.000216123
*CONN
*I *845:A1 I *D AO33x2_ASAP7_75t_R
*I *840:A1 I *D AO33x2_ASAP7_75t_R
*I *829:Y O *D OR4x2_ASAP7_75t_R
*CAP
1 *845:A1 0
2 *840:A1 0
3 *829:Y 0
4 *377:20 1.36538e-05
5 *377:10 3.23319e-05
6 *377:6 1.86781e-05
7 *377:10 *840:B1 4.69627e-06
8 *377:10 *845:B1 8.23849e-06
9 *377:10 *379:10 6.75162e-05
10 *377:10 *379:18 6.4693e-07
11 *377:20 *840:A2 6.7842e-07
12 *377:20 *379:18 5.78828e-06
13 *377:20 *388:8 4.43236e-07
14 *849:B *377:10 1.65207e-05
15 *165:30 *377:10 1.16013e-05
16 *376:25 *377:10 3.53295e-05
*RES
1 *829:Y *377:6 34.4 
2 *377:6 *377:10 49.3005 
3 *377:10 *377:20 45.4933 
4 *377:20 *840:A1 17.2 
5 *377:10 *845:A1 17.2 
*END

*D_NET *378 0.000372328
*CONN
*I *831:C I *D NAND3x1_ASAP7_75t_R
*I *845:B3 I *D AO33x2_ASAP7_75t_R
*I *852:A2 I *D AO21x1_ASAP7_75t_R
*I *840:B3 I *D AO33x2_ASAP7_75t_R
*I *830:Y O *D NOR2x1_ASAP7_75t_R
*CAP
1 *831:C 6.89002e-06
2 *845:B3 7.72631e-06
3 *852:A2 0
4 *840:B3 1.72077e-06
5 *830:Y 3.78479e-06
6 *378:59 4.23272e-05
7 *378:51 4.47232e-05
8 *378:29 1.59153e-05
9 *378:14 1.76361e-05
10 *378:12 3.28653e-05
11 *378:6 3.82099e-05
12 *831:C *831:B 3.73144e-06
13 *831:C *536:6 1.29753e-05
14 *845:B3 *389:10 1.26653e-05
15 *845:B3 *397:10 1.1274e-06
16 *378:12 *397:10 9.72835e-06
17 *378:12 *603:41 5.21648e-06
18 *378:29 *389:6 2.67294e-05
19 *378:51 *829:A 9.1618e-06
20 *378:51 *536:25 1.23321e-06
21 *378:51 *537:25 7.70271e-06
22 *378:51 *603:35 2.83449e-06
23 *378:51 *603:41 5.79724e-07
24 *378:59 *536:14 1.70708e-06
25 *829:B *378:51 1.95389e-05
26 *840:B2 *840:B3 4.06202e-06
27 *840:B2 *378:29 1.62683e-05
28 *845:B2 *845:B3 1.61096e-06
29 *845:B2 *378:29 1.53963e-06
30 *849:B *378:12 2.68933e-07
31 *148:27 *378:29 5.12159e-06
32 *148:42 *378:29 5.13209e-07
33 *165:22 *378:29 7.64042e-07
34 *165:30 *845:B3 2.02632e-06
35 *165:30 *378:12 4.41323e-06
36 *169:30 *378:6 2.66797e-07
37 *169:53 *378:12 6.7842e-07
38 *169:53 *378:51 8.06436e-06
*RES
1 *830:Y *378:6 18.8045 
2 *378:6 *378:12 35.1363 
3 *378:12 *378:14 17.2 
4 *378:14 *840:B3 18.2696 
5 *378:14 *378:29 48.054 
6 *378:29 *852:A2 17.2 
7 *378:12 *845:B3 41.1013 
8 *378:6 *378:51 46.6958 
9 *378:51 *378:59 45.2296 
10 *378:59 *831:C 26.292 
*END

*D_NET *379 0.000204127
*CONN
*I *840:A2 I *D AO33x2_ASAP7_75t_R
*I *845:A2 I *D AO33x2_ASAP7_75t_R
*I *831:Y O *D NAND3x1_ASAP7_75t_R
*CAP
1 *840:A2 1.22627e-06
2 *845:A2 4.54479e-06
3 *831:Y 1.85834e-06
4 *379:18 1.95327e-05
5 *379:10 4.09936e-05
6 *379:8 2.66378e-05
7 *840:A2 *387:8 3.68287e-06
8 *379:8 *831:B 2.28976e-06
9 *379:8 *536:25 3.81627e-06
10 *379:10 *536:14 0
11 *379:10 *661:8 1.34402e-05
12 *379:18 *388:8 5.04997e-06
13 *849:C *379:10 3.3563e-06
14 *376:25 *379:10 3.06808e-06
15 *377:10 *379:10 6.75162e-05
16 *377:10 *379:18 6.4693e-07
17 *377:20 *840:A2 6.7842e-07
18 *377:20 *379:18 5.78828e-06
*RES
1 *831:Y *379:8 37.0741 
2 *379:8 *379:10 26.1872 
3 *379:10 *379:18 43.7342 
4 *379:18 *845:A2 36.5393 
5 *379:10 *840:A2 35.4697 
*END

*D_NET *380 0.000121183
*CONN
*P B[11] I
*I *832:A I *D BUFx6f_ASAP7_75t_R
*CAP
1 B[11] 1.7786e-05
2 *832:A 1.89584e-05
3 *380:11 3.67444e-05
4 *832:A *495:17 0
5 *380:11 *495:11 1.67711e-05
6 *96:9 *380:11 3.09231e-05
*RES
1 B[11] *380:11 43.0704 
2 *380:11 *832:A 48.8918 
*END

*D_NET *381 0.000102374
*CONN
*I *834:B I *D XOR2x2_ASAP7_75t_R
*I *841:B I *D XNOR2x2_ASAP7_75t_R
*I *833:Y O *D OR2x2_ASAP7_75t_R
*CAP
1 *834:B 0
2 *841:B 0
3 *833:Y 1.25725e-05
4 *381:14 1.05226e-05
5 *381:6 2.30951e-05
6 *381:6 *382:6 1.38527e-05
7 *381:14 *382:6 1.21211e-05
8 *834:A *381:14 2.19685e-06
9 *841:A *381:14 2.22736e-06
10 *166:20 *381:6 2.06079e-05
11 *166:20 *381:14 5.17782e-06
*RES
1 *833:Y *381:6 31.6403 
2 *381:6 *381:14 44.9018 
3 *381:14 *841:B 17.2 
4 *381:6 *834:B 17.2 
*END

*D_NET *382 0.000392096
*CONN
*I *849:E I *D OR5x1_ASAP7_75t_R
*I *839:A I *D NOR2x1_ASAP7_75t_R
*I *835:C I *D OR3x1_ASAP7_75t_R
*I *834:Y O *D XOR2x2_ASAP7_75t_R
*CAP
1 *849:E 0
2 *839:A 2.90572e-06
3 *835:C 4.69692e-06
4 *834:Y 0
5 *382:20 2.68958e-05
6 *382:14 3.92966e-05
7 *382:10 5.33548e-05
8 *382:6 8.31897e-05
9 *382:4 4.40269e-05
10 *839:A *646:10 1.02895e-05
11 *382:6 *603:35 1.2768e-05
12 *382:10 *603:35 7.35354e-06
13 *382:14 *389:30 1.57014e-06
14 *382:20 *839:B 0
15 *382:20 *843:A 5.33881e-07
16 *382:20 *386:8 0
17 *382:20 *389:22 2.76514e-06
18 *382:20 *389:30 5.95881e-06
19 *382:20 *391:8 8.58848e-06
20 *382:20 *646:10 6.36708e-06
21 *828:A *382:6 1.44639e-06
22 *828:A *382:10 2.88806e-06
23 *834:A *382:6 1.60115e-05
24 *849:C *382:10 2.25122e-05
25 *148:10 *382:6 1.56713e-06
26 *163:18 *382:20 1.83109e-06
27 *163:35 *382:20 6.4228e-06
28 *165:30 *382:10 7.63254e-07
29 *166:20 *382:6 2.11853e-06
30 *381:6 *382:6 1.38527e-05
31 *381:14 *382:6 1.21211e-05
*RES
1 *834:Y *382:4 17.2 
2 *382:4 *382:6 34.2288 
3 *382:6 *382:10 43.9412 
4 *382:10 *382:14 28.4633 
5 *382:14 *382:20 36.2626 
6 *382:20 *835:C 36.5393 
7 *382:14 *839:A 19.8741 
8 *382:6 *849:E 17.2 
*END

*D_NET *383 1.00069e-05
*CONN
*I *836:A I *D INVx1_ASAP7_75t_R
*I *835:Y O *D OR3x1_ASAP7_75t_R
*CAP
1 *836:A 4.8572e-06
2 *835:Y 4.8572e-06
3 *165:59 *836:A 2.92476e-07
*RES
1 *835:Y *836:A 37.0741 
*END

*D_NET *384 0.000112937
*CONN
*I *840:A3 I *D AO33x2_ASAP7_75t_R
*I *836:Y O *D INVx1_ASAP7_75t_R
*CAP
1 *840:A3 0
2 *836:Y 1.33124e-05
3 *384:14 2.50199e-05
4 *384:8 3.83323e-05
5 *384:8 *392:8 2.55346e-06
6 *384:14 *839:B 0
7 *384:14 *844:A 3.17777e-06
8 *384:14 *387:8 4.70139e-06
9 *384:14 *388:8 1.47957e-05
10 *384:14 *388:23 1.1274e-06
11 *165:59 *384:8 9.91718e-06
*RES
1 *836:Y *384:8 43.492 
2 *384:8 *384:14 37.2189 
3 *384:14 *840:A3 17.2 
*END

*D_NET *385 0.000322592
*CONN
*I *846:A I *D NAND2x1_ASAP7_75t_R
*I *856:A I *D OR3x1_ASAP7_75t_R
*I *838:A I *D OR3x1_ASAP7_75t_R
*I *837:Y O *D INVx1_ASAP7_75t_R
*CAP
1 *846:A 0
2 *856:A 0
3 *838:A 1.80227e-05
4 *837:Y 3.15948e-05
5 *385:39 1.5333e-05
6 *385:24 2.69689e-05
7 *385:16 2.50501e-05
8 *385:14 9.87928e-06
9 *385:8 4.07031e-05
10 *838:A *395:12 8.39579e-06
11 *838:A *395:23 2.79851e-06
12 *385:8 *950:A 6.70433e-06
13 *385:8 *388:23 7.63254e-07
14 *385:8 *412:8 1.2768e-05
15 *385:14 *394:10 1.06092e-05
16 *385:16 *394:10 3.46317e-06
17 *385:24 *394:10 1.64509e-05
18 *385:24 *630:44 2.26848e-05
19 *385:39 *856:C 3.68287e-06
20 *385:39 *397:16 0
21 *385:39 *630:44 0
22 *838:B *838:A 7.14604e-06
23 *838:C *838:A 4.57952e-06
24 *847:B *385:39 8.2174e-07
25 *163:18 *838:A 7.63254e-07
26 *165:53 *385:14 1.23408e-05
27 *165:53 *385:16 5.62196e-06
28 *165:53 *385:24 3.54455e-05
*RES
1 *837:Y *385:8 48.8403 
2 *385:8 *385:14 25.4491 
3 *385:14 *385:16 1.60448 
4 *385:16 *385:24 47.0977 
5 *385:24 *838:A 31.6403 
6 *385:16 *385:39 44.4803 
7 *385:39 *856:A 17.2 
8 *385:14 *846:A 17.2 
*END

*D_NET *386 8.33577e-05
*CONN
*I *842:B I *D NOR2x1_ASAP7_75t_R
*I *839:B I *D NOR2x1_ASAP7_75t_R
*I *838:Y O *D OR3x1_ASAP7_75t_R
*CAP
1 *842:B 2.83533e-06
2 *839:B 1.61809e-05
3 *838:Y 1.74296e-05
4 *386:8 3.64458e-05
5 *839:B *844:A 0
6 *839:B *391:8 8.17754e-07
7 *839:B *646:10 3.55124e-06
8 *842:B *391:14 2.30405e-06
9 *386:8 *844:A 0
10 *386:8 *630:44 0
11 *838:B *386:8 3.79307e-06
12 *382:20 *839:B 0
13 *382:20 *386:8 0
14 *384:14 *839:B 0
*RES
1 *838:Y *386:8 47.3528 
2 *386:8 *839:B 45.0151 
3 *386:8 *842:B 36.0045 
*END

*D_NET *387 6.95785e-05
*CONN
*I *840:B1 I *D AO33x2_ASAP7_75t_R
*I *839:Y O *D NOR2x1_ASAP7_75t_R
*CAP
1 *840:B1 3.20535e-06
2 *839:Y 2.26518e-05
3 *387:8 2.58572e-05
4 *840:A2 *387:8 3.68287e-06
5 *165:30 *840:B1 4.78365e-06
6 *377:10 *840:B1 4.69627e-06
7 *384:14 *387:8 4.70139e-06
*RES
1 *839:Y *387:8 48.8403 
2 *387:8 *840:B1 37.1591 
*END

*D_NET *388 0.000162662
*CONN
*I *875:A I *D NOR3x1_ASAP7_75t_R
*I *848:B I *D OR3x1_ASAP7_75t_R
*I *840:Y O *D AO33x2_ASAP7_75t_R
*CAP
1 *875:A 0
2 *848:B 4.25333e-06
3 *840:Y 1.22966e-05
4 *388:23 1.78077e-05
5 *388:8 3.43576e-05
6 *848:B *392:8 9.92599e-06
7 *388:8 *845:B1 0
8 *388:8 *393:10 1.2583e-05
9 *388:23 *875:B 1.49791e-05
10 *388:23 *393:10 1.13518e-05
11 *388:23 *395:23 1.44156e-05
12 *388:23 *630:44 1.49407e-08
13 *165:53 *388:23 8.49729e-06
14 *377:20 *388:8 4.43236e-07
15 *379:18 *388:8 5.04997e-06
16 *384:14 *388:8 1.47957e-05
17 *384:14 *388:23 1.1274e-06
18 *385:8 *388:23 7.63254e-07
*RES
1 *840:Y *388:8 47.3528 
2 *388:8 *848:B 37.0741 
3 *388:8 *388:23 34.3464 
4 *388:23 *875:A 17.2 
*END

*D_NET *389 0.00045357
*CONN
*I *851:B I *D OR2x2_ASAP7_75t_R
*I *843:C I *D OR3x1_ASAP7_75t_R
*I *1277:A I *D BUFx3_ASAP7_75t_R
*I *841:Y O *D XNOR2x2_ASAP7_75t_R
*CAP
1 *851:B 7.8853e-06
2 *843:C 0
3 *1277:A 9.50244e-06
4 *841:Y 8.14917e-05
5 *389:30 2.24548e-05
6 *389:22 1.5775e-05
7 *389:14 6.53084e-05
8 *389:10 7.44667e-05
9 *389:6 8.55873e-05
10 *851:B *397:10 2.49011e-05
11 *389:10 *397:10 1.42972e-05
12 *845:B3 *389:10 1.26653e-05
13 *165:30 *851:B 1.23111e-06
14 *165:41 *851:B 9.80084e-07
15 *286:8 *389:30 0
16 *378:29 *389:6 2.67294e-05
17 *382:14 *389:30 1.57014e-06
18 *382:20 *389:22 2.76514e-06
19 *382:20 *389:30 5.95881e-06
*RES
1 *841:Y *389:6 47.685 
2 *389:6 *389:10 22.1746 
3 *389:10 *389:14 35.8137 
4 *389:14 *389:22 36.5021 
5 *389:22 *389:30 44.4803 
6 *389:30 *1277:A 23.0831 
7 *389:22 *843:C 17.2 
8 *389:10 *851:B 42.9414 
*END

*D_NET *390 4.25555e-05
*CONN
*I *845:A3 I *D AO33x2_ASAP7_75t_R
*I *842:Y O *D NOR2x1_ASAP7_75t_R
*CAP
1 *845:A3 1.54584e-05
2 *842:Y 1.54584e-05
3 *845:A3 *391:14 2.55346e-06
4 *845:A3 *393:10 9.08513e-06
*RES
1 *842:Y *845:A3 43.492 
*END

*D_NET *391 8.25585e-05
*CONN
*I *844:A I *D INVx1_ASAP7_75t_R
*I *843:Y O *D OR3x1_ASAP7_75t_R
*CAP
1 *844:A 9.53417e-06
2 *843:Y 2.47641e-06
3 *391:14 3.00821e-05
4 *391:8 2.30243e-05
5 *839:B *844:A 0
6 *839:B *391:8 8.17754e-07
7 *842:B *391:14 2.30405e-06
8 *845:A3 *391:14 2.55346e-06
9 *382:20 *391:8 8.58848e-06
10 *384:14 *844:A 3.17777e-06
11 *386:8 *844:A 0
*RES
1 *843:Y *391:8 37.2158 
2 *391:8 *391:14 45.6313 
3 *391:14 *844:A 41.158 
*END

*D_NET *392 0.000110454
*CONN
*I *845:B1 I *D AO33x2_ASAP7_75t_R
*I *844:Y O *D INVx1_ASAP7_75t_R
*CAP
1 *845:B1 9.91985e-06
2 *844:Y 2.32118e-05
3 *392:8 3.31316e-05
4 *392:8 *848:C 5.84952e-07
5 *848:B *392:8 9.92599e-06
6 *165:30 *845:B1 1.49733e-05
7 *165:41 *845:B1 7.91499e-06
8 *377:10 *845:B1 8.23849e-06
9 *384:8 *392:8 2.55346e-06
10 *388:8 *845:B1 0
*RES
1 *844:Y *392:8 44.5617 
2 *392:8 *845:B1 43.354 
*END

*D_NET *393 0.00010064
*CONN
*I *875:B I *D NOR3x1_ASAP7_75t_R
*I *848:A I *D OR3x1_ASAP7_75t_R
*I *845:Y O *D AO33x2_ASAP7_75t_R
*CAP
1 *875:B 4.23716e-06
2 *848:A 2.76956e-06
3 *845:Y 1.63077e-05
4 *393:10 2.33144e-05
5 *875:B *395:23 5.9684e-06
6 *393:10 *395:23 4.35576e-08
7 *845:A3 *393:10 9.08513e-06
8 *165:41 *393:10 0
9 *388:8 *393:10 1.2583e-05
10 *388:23 *875:B 1.49791e-05
11 *388:23 *393:10 1.13518e-05
*RES
1 *845:Y *393:10 44.9585 
2 *393:10 *848:A 35.4697 
3 *393:10 *875:B 40.0317 
*END

*D_NET *394 9.16725e-05
*CONN
*I *847:A2 I *D OAI21x1_ASAP7_75t_R
*I *846:Y O *D NAND2x1_ASAP7_75t_R
*CAP
1 *847:A2 0
2 *846:Y 2.40561e-05
3 *394:10 2.40561e-05
4 *394:10 *605:10 2.35211e-06
5 *394:10 *605:16 2.35211e-06
6 *394:10 *630:44 8.33296e-06
7 *385:14 *394:10 1.06092e-05
8 *385:16 *394:10 3.46317e-06
9 *385:24 *394:10 1.64509e-05
*RES
1 *846:Y *394:10 48.4472 
2 *394:10 *847:A2 34.4 
*END

*D_NET *395 0.000119488
*CONN
*I *848:C I *D OR3x1_ASAP7_75t_R
*I *875:C I *D NOR3x1_ASAP7_75t_R
*I *847:Y O *D OAI21x1_ASAP7_75t_R
*CAP
1 *848:C 2.08984e-06
2 *875:C 0
3 *847:Y 5.7136e-06
4 *395:23 2.96026e-05
5 *395:12 3.47008e-05
6 *395:8 1.29017e-05
7 *395:8 *605:16 2.25787e-06
8 *838:A *395:12 8.39579e-06
9 *838:A *395:23 2.79851e-06
10 *875:B *395:23 5.9684e-06
11 *163:12 *395:8 0
12 *165:41 *395:23 1.49407e-08
13 *165:47 *395:23 0
14 *165:53 *395:23 0
15 *388:23 *395:23 1.44156e-05
16 *392:8 *848:C 5.84952e-07
17 *393:10 *395:23 4.35576e-08
*RES
1 *847:Y *395:8 38.9053 
2 *395:8 *395:12 23.0831 
3 *395:12 *875:C 17.2 
4 *395:12 *395:23 35.3027 
5 *395:23 *848:C 35.4697 
*END

*D_NET *396 0.000452246
*CONN
*I *874:A1 I *D AO32x1_ASAP7_75t_R
*I *952:C I *D AND4x1_ASAP7_75t_R
*I *858:A I *D AND3x1_ASAP7_75t_R
*I *848:Y O *D OR3x1_ASAP7_75t_R
*CAP
1 *874:A1 4.55499e-06
2 *952:C 0
3 *858:A 0
4 *848:Y 5.69044e-05
5 *396:42 2.2706e-05
6 *396:29 1.59732e-05
7 *396:14 2.53161e-05
8 *396:10 8.5611e-05
9 *396:8 5.81171e-05
10 *396:6 5.69044e-05
11 *874:A1 *874:A2 1.33022e-05
12 *874:A1 *874:B2 5.49212e-07
13 *874:A1 *403:20 0
14 *396:10 *857:B 0
15 *396:10 *877:B 0
16 *396:10 *400:12 0
17 *396:10 *403:8 0
18 *396:10 *405:10 0
19 *396:10 *405:18 0
20 *396:10 *465:8 3.3563e-06
21 *396:10 *530:8 1.56919e-05
22 *396:10 *600:8 0
23 *396:10 *630:57 1.62335e-05
24 *396:10 *643:10 0
25 *396:14 *858:B 3.1923e-06
26 *396:29 *874:B2 0
27 *396:29 *952:D 1.70866e-06
28 *396:29 *403:20 0
29 *396:42 *858:B 5.85387e-06
30 *396:42 *403:8 0
31 *396:42 *403:12 1.92671e-05
32 *396:42 *403:20 4.83862e-06
33 *851:A *396:6 2.69558e-05
34 *164:6 *396:6 5.61049e-06
35 *164:14 *396:6 3.74457e-06
36 *165:41 *396:6 5.85387e-06
*RES
1 *848:Y *396:6 39.1278 
2 *396:6 *396:8 17.2 
3 *396:8 *396:10 46.7428 
4 *396:10 *396:14 22.5483 
5 *396:14 *858:A 17.2 
6 *396:14 *396:29 45.6066 
7 *396:29 *952:C 17.2 
8 *396:10 *396:42 46.4212 
9 *396:42 *874:A1 38.9053 
*END

*D_NET *397 0.000392908
*CONN
*I *1231:A I *D BUFx3_ASAP7_75t_R
*I *876:A I *D AND3x1_ASAP7_75t_R
*I *855:C I *D NAND3x1_ASAP7_75t_R
*I *857:A1 I *D AO21x1_ASAP7_75t_R
*I *849:Y O *D OR5x1_ASAP7_75t_R
*CAP
1 *1231:A 0
2 *876:A 0
3 *855:C 1.58859e-06
4 *857:A1 0
5 *849:Y 0
6 *397:63 2.20726e-05
7 *397:48 2.04572e-05
8 *397:38 4.37916e-05
9 *397:25 1.60241e-05
10 *397:16 3.57193e-05
11 *397:10 5.59074e-05
12 *397:6 3.33618e-05
13 *855:C *855:A 1.36155e-06
14 *855:C *400:42 1.36155e-06
15 *397:10 *399:10 0
16 *397:10 *400:12 0
17 *397:16 *404:10 6.33206e-07
18 *397:16 *412:8 3.56648e-06
19 *397:16 *412:10 2.15907e-05
20 *397:16 *605:22 3.58577e-07
21 *397:25 *404:10 4.74248e-06
22 *397:25 *412:10 1.92249e-05
23 *397:25 *414:8 6.94376e-06
24 *397:38 *412:10 2.05956e-06
25 *397:38 *414:8 1.56881e-06
26 *397:48 *402:10 1.45047e-06
27 *397:63 *405:44 1.953e-05
28 *397:63 *412:10 3.04705e-06
29 *845:B2 *397:10 4.40777e-06
30 *845:B3 *397:10 1.1274e-06
31 *851:B *397:10 2.49011e-05
32 *148:10 *397:10 1.62854e-06
33 *148:27 *397:10 0
34 *148:31 *397:10 1.849e-06
35 *148:42 *397:10 5.24234e-06
36 *162:10 *397:48 0
37 *164:14 *397:10 8.86799e-07
38 *165:41 *397:10 0
39 *165:47 *397:10 1.12055e-06
40 *165:47 *397:16 1.13572e-05
41 *378:12 *397:10 9.72835e-06
42 *385:39 *397:16 0
43 *389:10 *397:10 1.42972e-05
*RES
1 *849:Y *397:6 34.4 
2 *397:6 *397:10 48.1741 
3 *397:10 *397:16 39.5849 
4 *397:16 *857:A1 34.4 
5 *397:16 *397:25 15.2055 
6 *397:25 *855:C 35.4697 
7 *397:25 *397:38 18.9834 
8 *397:38 *397:48 42.5782 
9 *397:48 *876:A 17.2 
10 *397:38 *397:63 46.3481 
11 *397:63 *1231:A 17.2 
*END

*D_NET *398 0.000160964
*CONN
*P B[10] I
*I *850:A I *D BUFx2_ASAP7_75t_R
*CAP
1 B[10] 3.03865e-05
2 *850:A 1.09912e-05
3 *398:11 4.13777e-05
4 *850:A *497:10 4.46881e-05
5 *398:11 S[10] 2.13254e-06
6 *398:11 *488:9 1.09596e-06
7 *97:9 *398:11 3.02921e-05
*RES
1 B[10] *398:11 46.7498 
2 *398:11 *850:A 48.9485 
*END

*D_NET *399 3.90381e-05
*CONN
*I *852:B I *D AO21x1_ASAP7_75t_R
*I *851:Y O *D OR2x2_ASAP7_75t_R
*CAP
1 *852:B 3.37861e-06
2 *851:Y 1.16766e-05
3 *399:10 1.50552e-05
4 *845:B2 *399:10 3.05118e-08
5 *164:14 *399:10 2.30405e-06
6 *165:22 *852:B 3.23659e-06
7 *165:22 *399:10 3.35647e-06
8 *397:10 *399:10 0
*RES
1 *851:Y *399:10 41.6361 
2 *399:10 *852:B 36.5393 
*END

*D_NET *400 0.000311458
*CONN
*I *1161:A I *D BUFx3_ASAP7_75t_R
*I *855:B I *D NAND3x1_ASAP7_75t_R
*I *876:B I *D AND3x1_ASAP7_75t_R
*I *877:A2 I *D AOI21x1_ASAP7_75t_R
*I *857:A2 I *D AO21x1_ASAP7_75t_R
*I *852:Y O *D AO21x1_ASAP7_75t_R
*CAP
1 *1161:A 0
2 *855:B 7.08647e-06
3 *876:B 1.69119e-06
4 *877:A2 0
5 *857:A2 0
6 *852:Y 0
7 *400:42 2.76655e-05
8 *400:34 3.81237e-05
9 *400:25 1.33206e-05
10 *400:14 2.1322e-05
11 *400:12 5.7968e-05
12 *400:6 4.49037e-05
13 *855:B *855:A 5.09299e-06
14 *855:B *405:14 6.7842e-07
15 *855:B *405:44 1.12894e-06
16 *855:B *412:10 6.85075e-06
17 *400:12 *412:10 0
18 *400:12 *605:22 0
19 *400:12 *630:12 1.16944e-05
20 *400:14 *857:B 5.34278e-06
21 *400:25 *857:B 1.07573e-06
22 *400:25 *405:10 2.22736e-06
23 *400:25 *412:10 3.0607e-05
24 *400:34 *405:10 3.84449e-06
25 *400:34 *412:10 1.85256e-05
26 *400:42 *855:A 2.05012e-06
27 *400:42 *402:10 8.33296e-06
28 *855:C *400:42 1.36155e-06
29 *162:10 *400:42 0
30 *164:14 *400:12 0
31 *165:22 *400:12 5.63702e-07
32 *396:10 *400:12 0
33 *397:10 *400:12 0
*RES
1 *852:Y *400:6 34.4 
2 *400:6 *400:12 48.6523 
3 *400:12 *400:14 8.5572 
4 *400:14 *857:A2 17.2 
5 *400:14 *400:25 27.337 
6 *400:25 *877:A2 34.4 
7 *400:25 *400:34 6.75799 
8 *400:34 *400:42 47.3775 
9 *400:42 *876:B 35.4697 
10 *400:34 *855:B 40.9596 
11 *400:12 *1161:A 17.2 
*END

*D_NET *401 1.54122e-05
*CONN
*I *854:A I *D INVx1_ASAP7_75t_R
*I *853:Y O *D OR3x1_ASAP7_75t_R
*CAP
1 *854:A 7.70611e-06
2 *853:Y 7.70611e-06
*RES
1 *853:Y *854:A 38.1438 
*END

*D_NET *402 0.000115175
*CONN
*I *855:A I *D NAND3x1_ASAP7_75t_R
*I *876:C I *D AND3x1_ASAP7_75t_R
*I *854:Y O *D INVx1_ASAP7_75t_R
*CAP
1 *855:A 2.42016e-05
2 *876:C 0
3 *854:Y 1.39267e-05
4 *402:12 2.42016e-05
5 *402:10 1.39267e-05
6 *855:A *405:14 1.53057e-06
7 *855:A *413:10 1.60115e-05
8 *402:10 *414:8 3.08767e-06
9 *855:B *855:A 5.09299e-06
10 *855:C *855:A 1.36155e-06
11 *162:10 *402:10 0
12 *397:48 *402:10 1.45047e-06
13 *400:42 *855:A 2.05012e-06
14 *400:42 *402:10 8.33296e-06
*RES
1 *854:Y *402:10 43.8888 
2 *402:10 *402:12 17.2 
3 *402:12 *876:C 17.2 
4 *402:12 *855:A 33.7796 
*END

*D_NET *403 0.000170531
*CONN
*I *874:A2 I *D AO32x1_ASAP7_75t_R
*I *858:B I *D AND3x1_ASAP7_75t_R
*I *952:A I *D AND4x1_ASAP7_75t_R
*I *855:Y O *D NAND3x1_ASAP7_75t_R
*CAP
1 *874:A2 9.66921e-06
2 *858:B 1.26251e-05
3 *952:A 0
4 *855:Y 7.47019e-06
5 *403:20 1.37646e-05
6 *403:12 3.53424e-05
7 *403:8 2.60921e-05
8 *874:A2 *874:B1 6.33206e-07
9 *874:A2 *874:B2 8.06799e-07
10 *874:A2 *882:B 0
11 *874:A2 *405:44 2.22736e-06
12 *403:8 *405:44 4.45472e-06
13 *403:8 *600:8 1.02072e-05
14 *403:20 *874:B2 7.84037e-07
15 *874:A1 *874:A2 1.33022e-05
16 *874:A1 *403:20 0
17 *396:10 *403:8 0
18 *396:14 *858:B 3.1923e-06
19 *396:29 *403:20 0
20 *396:42 *858:B 5.85387e-06
21 *396:42 *403:8 0
22 *396:42 *403:12 1.92671e-05
23 *396:42 *403:20 4.83862e-06
*RES
1 *855:Y *403:8 42.2843 
2 *403:8 *403:12 24.1527 
3 *403:12 *403:20 43.2406 
4 *403:20 *952:A 17.2 
5 *403:12 *858:B 25.2224 
6 *403:8 *874:A2 43.354 
*END

*D_NET *404 0.000122576
*CONN
*I *877:B I *D AOI21x1_ASAP7_75t_R
*I *857:B I *D AO21x1_ASAP7_75t_R
*I *856:Y O *D OR3x1_ASAP7_75t_R
*CAP
1 *877:B 1.94023e-06
2 *857:B 1.01831e-05
3 *856:Y 1.02081e-05
4 *404:16 3.77119e-05
5 *404:10 3.57966e-05
6 *857:B *405:10 1.12037e-05
7 *877:B *405:10 3.233e-06
8 *404:10 *605:48 0
9 *404:16 *877:A1 5.0551e-07
10 *396:10 *857:B 0
11 *396:10 *877:B 0
12 *397:16 *404:10 6.33206e-07
13 *397:25 *404:10 4.74248e-06
14 *400:14 *857:B 5.34278e-06
15 *400:25 *857:B 1.07573e-06
*RES
1 *856:Y *404:10 41.5795 
2 *404:10 *404:16 44.5617 
3 *404:16 *857:B 43.7754 
4 *404:16 *877:B 36.0895 
*END

*D_NET *405 0.000282465
*CONN
*I *874:A3 I *D AO32x1_ASAP7_75t_R
*I *952:D I *D AND4x1_ASAP7_75t_R
*I *858:C I *D AND3x1_ASAP7_75t_R
*I *857:Y O *D AO21x1_ASAP7_75t_R
*CAP
1 *874:A3 0
2 *952:D 1.5335e-05
3 *858:C 2.5525e-06
4 *857:Y 1.74805e-05
5 *405:44 2.39848e-05
6 *405:18 3.11753e-05
7 *405:14 5.42107e-05
8 *405:10 8.23882e-05
9 *405:44 *882:A 2.18135e-06
10 *405:44 *412:10 2.68933e-07
11 *405:44 *600:8 1.12055e-06
12 *855:A *405:14 1.53057e-06
13 *855:B *405:14 6.7842e-07
14 *855:B *405:44 1.12894e-06
15 *857:B *405:10 1.12037e-05
16 *874:A2 *405:44 2.22736e-06
17 *877:B *405:10 3.233e-06
18 *396:10 *405:10 0
19 *396:10 *405:18 0
20 *396:29 *952:D 1.70866e-06
21 *397:63 *405:44 1.953e-05
22 *400:25 *405:10 2.22736e-06
23 *400:34 *405:10 3.84449e-06
24 *403:8 *405:44 4.45472e-06
*RES
1 *857:Y *405:10 47.2961 
2 *405:10 *405:14 35.9189 
3 *405:14 *405:18 27.337 
4 *405:18 *858:C 35.4697 
5 *405:18 *952:D 43.8888 
6 *405:10 *405:44 37.389 
7 *405:44 *874:A3 17.2 
*END

*D_NET *406 2.5882e-05
*CONN
*I *889:A I *D AND2x4_ASAP7_75t_R
*I *869:Y O *D INVx1_ASAP7_75t_R
*CAP
1 *889:A 0
2 *869:Y 1.1635e-05
3 *406:10 1.1635e-05
4 *406:10 *425:18 0
5 *957:A *406:10 2.61188e-06
6 *155:8 *406:10 0
*RES
1 *869:Y *406:10 40.4531 
2 *406:10 *889:A 34.4 
*END

*D_NET *407 0.00010381
*CONN
*I *871:B I *D OR4x1_ASAP7_75t_R
*I *881:B I *D OR5x1_ASAP7_75t_R
*I *870:Y O *D INVx1_ASAP7_75t_R
*CAP
1 *871:B 3.28099e-06
2 *881:B 1.15255e-05
3 *870:Y 4.11744e-06
4 *407:8 1.89239e-05
5 *157:21 *881:B 5.41446e-06
6 *157:29 *881:B 1.6528e-05
7 *157:36 *881:B 5.62196e-06
8 *157:45 *881:B 6.92634e-06
9 *158:10 *881:B 0
10 *158:10 *407:8 0
11 *158:18 *871:B 2.20493e-06
12 *158:18 *881:B 3.6269e-06
13 *158:18 *407:8 3.31686e-06
14 *159:54 *881:B 2.0095e-05
15 *160:64 *881:B 2.22736e-06
*RES
1 *870:Y *407:8 37.779 
2 *407:8 *881:B 48.8156 
3 *407:8 *871:B 36.0045 
*END

*D_NET *408 0.000235735
*CONN
*I *886:A2 I *D OA21x2_ASAP7_75t_R
*I *874:B1 I *D AO32x1_ASAP7_75t_R
*I *871:Y O *D OR4x1_ASAP7_75t_R
*CAP
1 *886:A2 5.75716e-06
2 *874:B1 1.38982e-05
3 *871:Y 6.35452e-06
4 *408:27 1.66833e-05
5 *408:10 5.48182e-05
6 *408:8 3.63484e-05
7 *874:B1 *874:B2 3.16603e-07
8 *874:B1 *411:8 0
9 *874:B1 *418:18 1.15587e-05
10 *874:B1 *420:10 0
11 *886:A2 *467:8 3.16603e-06
12 *408:10 *418:18 4.83862e-06
13 *408:27 *418:12 4.09005e-05
14 *408:27 *423:6 1.35684e-06
15 *874:A2 *874:B1 6.33206e-07
16 *883:A *408:27 5.41446e-06
17 *888:A *408:10 0
18 *157:10 *408:10 6.6421e-06
19 *158:26 *408:10 0
20 *160:64 *408:10 0
21 *161:16 *886:A2 3.89037e-06
22 *161:16 *408:27 2.31575e-05
23 *161:29 *408:10 0
*RES
1 *871:Y *408:8 37.0741 
2 *408:8 *408:10 22.5266 
3 *408:10 *874:B1 44.4803 
4 *408:10 *408:27 47.7706 
5 *408:27 *886:A2 38.2855 
*END

*D_NET *409 0.000176185
*CONN
*I *873:B I *D NAND2x1_ASAP7_75t_R
*I *885:B I *D OAI21x1_ASAP7_75t_R
*I *872:Y O *D NOR2x1_ASAP7_75t_R
*CAP
1 *873:B 6.14797e-06
2 *885:B 6.50015e-06
3 *872:Y 0
4 *409:27 3.13023e-05
5 *409:8 5.4809e-05
6 *409:6 2.31545e-05
7 *873:B *422:6 5.34278e-06
8 *409:8 *421:10 2.84286e-06
9 *885:A1 *409:27 2.03526e-06
10 *121:8 *409:8 7.24542e-06
11 *159:10 *409:8 0
12 *159:12 *409:8 0
13 *159:12 *409:27 6.71283e-06
14 *159:16 *409:27 8.33296e-06
15 *160:10 *885:B 4.96929e-06
16 *160:10 *409:8 1.16894e-05
17 *160:23 *409:8 5.09995e-06
18 *160:27 *409:27 0
19 *160:35 *409:27 0
*RES
1 *872:Y *409:6 34.4 
2 *409:6 *409:8 20.274 
3 *409:8 *885:B 38.7636 
4 *409:8 *409:27 46.4212 
5 *409:27 *873:B 39.2134 
*END

*D_NET *410 0.000153305
*CONN
*I *874:B2 I *D AO32x1_ASAP7_75t_R
*I *873:Y O *D NAND2x1_ASAP7_75t_R
*CAP
1 *874:B2 2.4238e-06
2 *873:Y 2.93013e-05
3 *410:16 2.93574e-05
4 *410:8 5.62348e-05
5 *410:8 *422:6 4.20803e-06
6 *410:16 *420:10 0
7 *410:16 *467:8 1.02072e-05
8 *874:A1 *874:B2 5.49212e-07
9 *874:A2 *874:B2 8.06799e-07
10 *874:B1 *874:B2 3.16603e-07
11 *160:35 *410:8 1.14488e-05
12 *161:12 *410:16 4.1009e-06
13 *161:16 *410:8 3.56648e-06
14 *396:29 *874:B2 0
15 *403:20 *874:B2 7.84037e-07
*RES
1 *873:Y *410:8 49.9099 
2 *410:8 *410:16 49.1872 
3 *410:16 *874:B2 36.9342 
*END

*D_NET *411 5.93111e-05
*CONN
*I *887:A I *D AND4x2_ASAP7_75t_R
*I *874:Y O *D AO32x1_ASAP7_75t_R
*CAP
1 *887:A 8.44288e-06
2 *874:Y 1.0668e-05
3 *411:8 1.91108e-05
4 *887:A *418:24 5.2818e-06
5 *887:A *423:6 1.10341e-05
6 *887:A *423:14 3.68287e-06
7 *411:8 *415:10 1.09067e-06
8 *874:B1 *411:8 0
*RES
1 *874:Y *411:8 41.158 
2 *411:8 *887:A 42.9572 
*END

*D_NET *412 0.000265907
*CONN
*I *882:A I *D OR4x2_ASAP7_75t_R
*I *879:A I *D OR4x2_ASAP7_75t_R
*I *875:Y O *D NOR3x1_ASAP7_75t_R
*CAP
1 *882:A 1.17878e-05
2 *879:A 2.5525e-06
3 *875:Y 3.51613e-06
4 *412:10 4.84039e-05
5 *412:8 3.75797e-05
6 *882:A *882:B 1.74677e-05
7 *882:A *413:10 1.04612e-05
8 *412:10 *413:10 1.34329e-05
9 *412:10 *414:8 1.49407e-08
10 *855:B *412:10 6.85075e-06
11 *385:8 *412:8 1.2768e-05
12 *397:16 *412:8 3.56648e-06
13 *397:16 *412:10 2.15907e-05
14 *397:25 *412:10 1.92249e-05
15 *397:38 *412:10 2.05956e-06
16 *397:63 *412:10 3.04705e-06
17 *400:12 *412:10 0
18 *400:25 *412:10 3.0607e-05
19 *400:34 *412:10 1.85256e-05
20 *405:44 *882:A 2.18135e-06
21 *405:44 *412:10 2.68933e-07
*RES
1 *875:Y *412:8 38.1438 
2 *412:8 *412:10 39.4216 
3 *412:10 *879:A 35.4697 
4 *412:10 *882:A 45.0151 
*END

*D_NET *413 0.000142113
*CONN
*I *882:B I *D OR4x2_ASAP7_75t_R
*I *879:B I *D OR4x2_ASAP7_75t_R
*I *876:Y O *D AND3x1_ASAP7_75t_R
*CAP
1 *882:B 9.20056e-06
2 *879:B 0
3 *876:Y 1.4767e-05
4 *413:10 2.39676e-05
5 *882:B *415:10 2.20199e-05
6 *413:10 *415:10 1.47844e-05
7 *855:A *413:10 1.60115e-05
8 *874:A2 *882:B 0
9 *882:A *882:B 1.74677e-05
10 *882:A *413:10 1.04612e-05
11 *412:10 *413:10 1.34329e-05
*RES
1 *876:Y *413:10 47.0977 
2 *413:10 *879:B 34.4 
3 *413:10 *882:B 44.4236 
*END

*D_NET *414 0.000107936
*CONN
*I *882:C I *D OR4x2_ASAP7_75t_R
*I *879:C I *D OR4x2_ASAP7_75t_R
*I *877:Y O *D AOI21x1_ASAP7_75t_R
*CAP
1 *882:C 1.02549e-05
2 *879:C 2.99609e-06
3 *877:Y 1.96497e-05
4 *414:8 3.29008e-05
5 *879:C *879:D 2.88806e-06
6 *882:C *415:10 1.46417e-05
7 *882:C *416:8 1.35961e-06
8 *882:C *418:24 8.46363e-06
9 *414:8 *415:10 3.16603e-06
10 *397:25 *414:8 6.94376e-06
11 *397:38 *414:8 1.56881e-06
12 *402:10 *414:8 3.08767e-06
13 *412:10 *414:8 1.49407e-08
*RES
1 *877:Y *414:8 48.4791 
2 *414:8 *879:C 36.5393 
3 *414:8 *882:C 45.6633 
*END

*D_NET *415 0.000213606
*CONN
*I *879:D I *D OR4x2_ASAP7_75t_R
*I *878:Y O *D OR4x1_ASAP7_75t_R
*CAP
1 *879:D 5.89684e-06
2 *878:Y 2.45915e-05
3 *415:10 4.2833e-05
4 *415:8 6.15277e-05
5 *415:10 *418:24 1.64764e-06
6 *415:10 *425:8 3.78e-06
7 *879:C *879:D 2.88806e-06
8 *882:B *415:10 2.20199e-05
9 *882:C *415:10 1.46417e-05
10 *888:A *415:10 1.31716e-05
11 *157:14 *415:8 1.56713e-06
12 *411:8 *415:10 1.09067e-06
13 *413:10 *415:10 1.47844e-05
14 *414:8 *415:10 3.16603e-06
*RES
1 *878:Y *415:8 45.6313 
2 *415:8 *415:10 34.3531 
3 *415:10 *879:D 37.0741 
*END

*D_NET *416 5.7087e-05
*CONN
*I *887:B I *D AND4x2_ASAP7_75t_R
*I *879:Y O *D OR4x2_ASAP7_75t_R
*CAP
1 *887:B 2.42653e-06
2 *879:Y 1.30177e-05
3 *416:8 1.54443e-05
4 *887:B *423:14 5.62196e-06
5 *416:8 *418:24 5.52264e-06
6 *416:8 *419:8 1.36943e-05
7 *882:C *416:8 1.35961e-06
*RES
1 *879:Y *416:8 47.3528 
2 *416:8 *887:B 36.0045 
*END

*D_NET *417 7.99057e-05
*CONN
*I *881:D I *D OR5x1_ASAP7_75t_R
*I *953:A I *D XNOR2x1_ASAP7_75t_R
*I *880:Y O *D INVx1_ASAP7_75t_R
*CAP
1 *881:D 1.65168e-06
2 *953:A 6.23793e-06
3 *880:Y 1.32883e-05
4 *417:10 2.11779e-05
5 *953:A *468:10 0
6 *880:A *417:10 5.79724e-07
7 *881:E *953:A 1.34329e-05
8 *157:45 *881:D 3.90258e-06
9 *158:18 *417:10 1.04475e-06
10 *159:67 *953:A 8.33296e-06
11 *159:67 *417:10 9.67723e-06
12 *160:45 *953:A 5.79724e-07
13 *161:29 *953:A 0
*RES
1 *880:Y *417:10 42.7625 
2 *417:10 *953:A 23.958 
3 *417:10 *881:D 35.4697 
*END

*D_NET *418 0.000351513
*CONN
*I *882:D I *D OR4x2_ASAP7_75t_R
*I *881:Y O *D OR5x1_ASAP7_75t_R
*CAP
1 *882:D 1.97486e-06
2 *881:Y 1.25765e-05
3 *418:24 4.50156e-05
4 *418:18 4.89198e-05
5 *418:12 1.82777e-05
6 *418:8 2.49751e-05
7 *418:8 *468:10 1.09067e-06
8 *418:12 *422:6 2.37922e-05
9 *418:12 *423:6 6.23143e-05
10 *418:24 *423:6 0
11 *418:24 *423:14 6.7842e-07
12 *874:B1 *418:18 1.15587e-05
13 *881:E *418:8 1.12894e-06
14 *882:C *418:24 8.46363e-06
15 *887:A *418:24 5.2818e-06
16 *160:27 *418:8 0
17 *160:41 *418:8 3.03456e-05
18 *161:16 *418:12 2.20964e-06
19 *161:29 *418:18 0
20 *408:10 *418:18 4.83862e-06
21 *408:27 *418:12 4.09005e-05
22 *415:10 *418:24 1.64764e-06
23 *416:8 *418:24 5.52264e-06
*RES
1 *881:Y *418:8 47.3528 
2 *418:8 *418:12 38.0582 
3 *418:12 *418:18 39.4685 
4 *418:18 *418:24 40.5376 
5 *418:24 *882:D 35.4697 
*END

*D_NET *419 3.97967e-05
*CONN
*I *887:C I *D AND4x2_ASAP7_75t_R
*I *882:Y O *D OR4x2_ASAP7_75t_R
*CAP
1 *887:C 2.20674e-06
2 *882:Y 1.01637e-05
3 *419:8 1.23705e-05
4 *887:C *423:14 1.36155e-06
5 *416:8 *419:8 1.36943e-05
*RES
1 *882:Y *419:8 42.2843 
2 *419:8 *887:C 35.4697 
*END

*D_NET *420 2.46277e-05
*CONN
*I *886:A1 I *D OA21x2_ASAP7_75t_R
*I *952:B I *D AND4x1_ASAP7_75t_R
*I *883:Y O *D INVx1_ASAP7_75t_R
*CAP
1 *886:A1 4.43738e-06
2 *952:B 0
3 *883:Y 0
4 *420:10 6.43242e-06
5 *420:4 1.08698e-05
6 *420:10 *467:8 0
7 *874:B1 *420:10 0
8 *161:16 *886:A1 2.88806e-06
9 *410:16 *420:10 0
*RES
1 *883:Y *420:4 17.2 
2 *420:4 *420:10 38.9053 
3 *420:10 *952:B 17.2 
4 *420:4 *886:A1 19.3393 
*END

*D_NET *421 6.88764e-05
*CONN
*I *885:A2 I *D OAI21x1_ASAP7_75t_R
*I *884:Y O *D AND2x2_ASAP7_75t_R
*CAP
1 *885:A2 0
2 *884:Y 1.53395e-05
3 *421:10 1.53395e-05
4 *159:12 *421:10 3.32579e-06
5 *160:10 *421:10 2.01457e-05
6 *160:23 *421:10 5.39167e-06
7 *161:51 *421:10 6.49127e-06
8 *409:8 *421:10 2.84286e-06
*RES
1 *884:Y *421:10 48.2808 
2 *421:10 *885:A2 34.4 
*END

*D_NET *422 0.000119557
*CONN
*I *886:B I *D OA21x2_ASAP7_75t_R
*I *885:Y O *D OAI21x1_ASAP7_75t_R
*CAP
1 *886:B 0
2 *885:Y 2.34125e-05
3 *422:6 2.34125e-05
4 *873:B *422:6 5.34278e-06
5 *160:35 *422:6 2.66207e-05
6 *161:16 *422:6 1.2768e-05
7 *410:8 *422:6 4.20803e-06
8 *418:12 *422:6 2.37922e-05
*RES
1 *885:Y *422:6 40.1975 
2 *422:6 *886:B 17.2 
*END

*D_NET *423 0.000251884
*CONN
*I *887:D I *D AND4x2_ASAP7_75t_R
*I *886:Y O *D OA21x2_ASAP7_75t_R
*CAP
1 *887:D 0
2 *886:Y 0
3 *423:14 1.54461e-05
4 *423:6 8.29169e-05
5 *423:4 6.74708e-05
6 *423:14 *424:8 0
7 *887:A *423:6 1.10341e-05
8 *887:A *423:14 3.68287e-06
9 *887:B *423:14 5.62196e-06
10 *887:C *423:14 1.36155e-06
11 *408:27 *423:6 1.35684e-06
12 *418:12 *423:6 6.23143e-05
13 *418:24 *423:6 0
14 *418:24 *423:14 6.7842e-07
*RES
1 *886:Y *423:4 17.2 
2 *423:4 *423:6 34.7636 
3 *423:6 *423:14 44.2252 
4 *423:14 *887:D 17.2 
*END

*D_NET *424 1.31477e-05
*CONN
*I *888:B I *D XOR2x1_ASAP7_75t_R
*I *887:Y O *D AND4x2_ASAP7_75t_R
*CAP
1 *888:B 0
2 *887:Y 6.57385e-06
3 *424:8 6.57385e-06
4 *424:8 *425:8 0
5 *423:14 *424:8 0
*RES
1 *887:Y *424:8 38.9053 
2 *424:8 *888:B 17.2 
*END

*D_NET *425 0.000150875
*CONN
*I *957:B I *D XNOR2x2_ASAP7_75t_R
*I *889:B I *D AND2x4_ASAP7_75t_R
*I *888:Y O *D XOR2x1_ASAP7_75t_R
*CAP
1 *957:B 0
2 *889:B 2.16832e-05
3 *888:Y 1.16853e-05
4 *425:18 3.4323e-05
5 *425:12 3.57473e-05
6 *425:8 3.47928e-05
7 *122:8 *425:12 1.76928e-06
8 *122:12 *425:18 7.09459e-06
9 *406:10 *425:18 0
10 *415:10 *425:8 3.78e-06
11 *424:8 *425:8 0
*RES
1 *888:Y *425:8 44.537 
2 *425:8 *425:12 31.6403 
3 *425:12 *425:18 44.537 
4 *425:18 *889:B 30.5706 
5 *425:12 *957:B 17.2 
*END

*D_NET *426 1.84541e-05
*CONN
*I *890:B I *D XNOR2x1_ASAP7_75t_R
*I *889:Y O *D AND2x4_ASAP7_75t_R
*CAP
1 *890:B 0
2 *889:Y 8.82365e-06
3 *426:8 8.82365e-06
4 *65:8 *426:8 8.06799e-07
5 *122:12 *426:8 0
6 *155:8 *426:8 0
*RES
1 *889:Y *426:8 42.2843 
2 *426:8 *890:B 17.2 
*END

*D_NET *427 9.05876e-05
*CONN
*I *893:B I *D XNOR2x2_ASAP7_75t_R
*I *892:Y O *D XNOR2x2_ASAP7_75t_R
*CAP
1 *893:B 0
2 *892:Y 0
3 *427:12 2.50825e-05
4 *427:6 2.50825e-05
5 *427:12 *575:16 1.04475e-06
6 *124:8 *427:12 7.2538e-06
7 *212:25 *427:12 3.04763e-05
8 *223:12 *427:12 1.64764e-06
*RES
1 *892:Y *427:6 34.4 
2 *427:6 *427:12 39.5283 
3 *427:12 *893:B 17.2 
*END

*D_NET *428 0.00035161
*CONN
*I *896:B I *D XNOR2x2_ASAP7_75t_R
*I *895:Y O *D OR3x1_ASAP7_75t_R
*CAP
1 *896:B 5.68641e-06
2 *895:Y 2.11595e-06
3 *428:10 9.84243e-05
4 *428:8 9.48539e-05
5 *428:10 *696:B 3.3563e-06
6 *428:10 *1210:A 0
7 *428:10 *571:8 4.41094e-06
8 *428:10 *577:17 5.52807e-07
9 *428:10 *577:32 1.76159e-05
10 *428:10 *580:8 0
11 *428:10 *580:14 0
12 *692:C *428:10 3.90551e-06
13 *702:A *428:10 4.74248e-06
14 *702:B *428:10 2.93321e-05
15 *712:A1 *428:10 1.08882e-05
16 *1172:A *428:10 0
17 *203:16 *428:10 1.19507e-05
18 *203:24 *428:10 4.97654e-06
19 *203:30 *428:10 5.52807e-07
20 *204:20 *896:B 1.5804e-05
21 *242:18 *428:10 1.67815e-06
22 *248:16 *428:10 3.3563e-06
23 *248:44 *428:10 2.28488e-05
24 *249:20 *428:10 0
25 *254:10 *428:10 2.4263e-06
26 *255:10 *428:10 0
27 *262:16 *428:8 2.8275e-06
28 *308:12 *428:10 0
29 *325:18 *428:10 9.30425e-06
*RES
1 *895:Y *428:8 36.0045 
2 *428:8 *428:10 85.0381 
3 *428:10 *896:B 39.2134 
*END

*D_NET *429 0.000167862
*CONN
*I *898:B I *D AND2x2_ASAP7_75t_R
*I *1166:A I *D BUFx3_ASAP7_75t_R
*I *896:Y O *D XNOR2x2_ASAP7_75t_R
*CAP
1 *898:B 0
2 *1166:A 1.58709e-05
3 *896:Y 4.15496e-05
4 *429:14 2.34487e-05
5 *429:6 4.91274e-05
6 *429:14 *897:A 0
7 *429:14 *898:A 5.37569e-06
8 *429:14 *578:12 0
9 *204:20 *429:6 3.249e-05
*RES
1 *896:Y *429:6 40.1975 
2 *429:6 *429:14 39.975 
3 *429:14 *1166:A 26.8269 
4 *429:14 *898:B 17.2 
*END

*D_NET *430 4.14513e-05
*CONN
*I *899:B I *D XNOR2x2_ASAP7_75t_R
*I *898:Y O *D AND2x2_ASAP7_75t_R
*CAP
1 *899:B 1.66102e-05
2 *898:Y 1.66102e-05
3 *899:B *614:91 8.23084e-06
*RES
1 *898:Y *899:B 46.1661 
*END

*D_NET *431 6.08253e-05
*CONN
*I *900:B I *D XNOR2x2_ASAP7_75t_R
*I *899:Y O *D XNOR2x2_ASAP7_75t_R
*CAP
1 *900:B 0
2 *899:Y 2.85992e-05
3 *431:10 2.85992e-05
4 *431:10 *579:8 3.6269e-06
*RES
1 *899:Y *431:10 49.5168 
2 *431:10 *900:B 34.4 
*END

*D_NET *432 8.26363e-05
*CONN
*I *907:A I *D XNOR2x2_ASAP7_75t_R
*I *902:Y O *D XNOR2x2_ASAP7_75t_R
*CAP
1 *907:A 0
2 *902:Y 0
3 *432:10 3.84795e-05
4 *432:6 3.84795e-05
5 *432:10 *617:8 4.89331e-06
6 *432:10 *617:14 7.84037e-07
7 *432:10 *641:31 0
8 *432:10 *641:37 0
9 *198:18 *432:10 0
10 *198:32 *432:10 0
11 *270:8 *432:10 0
*RES
1 *902:Y *432:6 34.4 
2 *432:6 *432:10 48.1741 
3 *432:10 *907:A 17.2 
*END

*D_NET *433 3.70277e-05
*CONN
*I *904:A I *D NAND2x1_ASAP7_75t_R
*I *903:Y O *D INVx1_ASAP7_75t_R
*CAP
1 *904:A 3.53199e-06
2 *903:Y 4.27553e-06
3 *433:8 7.80752e-06
4 *904:B *904:A 1.04475e-06
5 *136:8 *904:A 2.52755e-07
6 *196:10 *433:8 1.67893e-05
7 *310:10 *433:8 3.32579e-06
*RES
1 *903:Y *433:8 40.0317 
2 *433:8 *904:A 36.5393 
*END

*D_NET *434 0.00011466
*CONN
*I *905:B I *D XNOR2x2_ASAP7_75t_R
*I *904:Y O *D NAND2x1_ASAP7_75t_R
*CAP
1 *905:B 6.67699e-06
2 *904:Y 3.25867e-05
3 *434:8 3.92637e-05
4 *904:B *434:8 6.92634e-06
5 *1238:A *434:8 9.08513e-06
6 *200:14 *434:8 2.01215e-05
7 *201:12 *905:B 0
*RES
1 *904:Y *434:8 49.9099 
2 *434:8 *905:B 38.9053 
*END

*D_NET *435 8.70857e-05
*CONN
*I *906:B I *D NOR2x1_ASAP7_75t_R
*I *905:Y O *D XNOR2x2_ASAP7_75t_R
*CAP
1 *906:B 1.36327e-05
2 *905:Y 1.63502e-05
3 *435:8 2.99829e-05
4 *906:B *641:31 2.71199e-05
*RES
1 *905:Y *435:8 41.3527 
2 *435:8 *906:B 47.3528 
*END

*D_NET *436 4.34096e-05
*CONN
*I *907:B I *D XNOR2x2_ASAP7_75t_R
*I *906:Y O *D NOR2x1_ASAP7_75t_R
*CAP
1 *907:B 2.17048e-05
2 *906:Y 2.17048e-05
*RES
1 *906:Y *907:B 46.1661 
*END

*D_NET *437 5.57458e-05
*CONN
*I *909:A I *D XOR2x2_ASAP7_75t_R
*I *908:Y O *D AND2x2_ASAP7_75t_R
*CAP
1 *909:A 1.61595e-05
2 *908:Y 6.9115e-06
3 *437:8 2.3071e-05
4 *909:A *438:10 6.49184e-07
5 *909:A *649:12 7.42565e-06
6 *437:8 *722:A 7.21451e-07
7 *437:8 *910:A 8.07455e-07
8 *244:8 *437:8 0
*RES
1 *908:Y *437:8 40.0317 
2 *437:8 *909:A 43.492 
*END

*D_NET *438 8.0134e-05
*CONN
*I *910:B I *D XNOR2x2_ASAP7_75t_R
*I *909:Y O *D XOR2x2_ASAP7_75t_R
*CAP
1 *910:B 0
2 *909:Y 2.1293e-05
3 *438:10 2.1293e-05
4 *438:10 *909:B 1.88408e-06
5 *909:A *438:10 6.49184e-07
6 *274:16 *438:10 1.19729e-05
7 *275:16 *438:10 2.30418e-05
*RES
1 *909:Y *438:10 48.1674 
2 *438:10 *910:B 34.4 
*END

*D_NET *439 6.96351e-05
*CONN
*I *915:B I *D AND2x2_ASAP7_75t_R
*I *912:Y O *D OR4x1_ASAP7_75t_R
*CAP
1 *915:B 2.5184e-05
2 *912:Y 2.5184e-05
3 *915:B *915:A 1.92671e-05
*RES
1 *912:Y *915:B 46.701 
*END

*D_NET *440 8.33279e-05
*CONN
*I *914:B I *D OAI21x1_ASAP7_75t_R
*I *913:Y O *D NOR2x1_ASAP7_75t_R
*CAP
1 *914:B 8.561e-06
2 *913:Y 8.74727e-06
3 *440:8 1.73083e-05
4 *914:B *570:10 1.09842e-06
5 *914:B *588:22 1.31716e-05
6 *274:16 *914:B 0
7 *274:24 *914:B 5.52807e-07
8 *275:24 *914:B 8.33296e-06
9 *275:24 *440:8 1.99018e-05
10 *275:28 *440:8 2.03526e-06
11 *275:39 *914:B 2.98532e-06
12 *322:12 *914:B 6.33206e-07
*RES
1 *913:Y *440:8 41.3527 
2 *440:8 *914:B 43.4107 
*END

*D_NET *441 4.65122e-05
*CONN
*I *915:A I *D AND2x2_ASAP7_75t_R
*I *914:Y O *D OAI21x1_ASAP7_75t_R
*CAP
1 *915:A 6.30436e-06
2 *914:Y 7.31816e-06
3 *441:8 1.36225e-05
4 *915:B *915:A 1.92671e-05
5 *275:39 *441:8 0
*RES
1 *914:Y *441:8 38.9053 
2 *441:8 *915:A 40.2831 
*END

*D_NET *442 8.6003e-05
*CONN
*I *916:A I *D XNOR2x2_ASAP7_75t_R
*I *915:Y O *D AND2x2_ASAP7_75t_R
*CAP
1 *916:A 0
2 *915:Y 2.01569e-05
3 *442:16 1.72366e-05
4 *442:8 3.73935e-05
5 *442:8 *916:B 0
6 *442:16 *916:B 1.67815e-06
7 *442:16 *443:10 2.28976e-06
8 *442:16 *589:42 6.61478e-06
9 *321:35 *442:8 6.33206e-07
10 *324:18 *442:8 0
*RES
1 *915:Y *442:8 49.6055 
2 *442:8 *442:16 47.3775 
3 *442:16 *916:A 34.4 
*END

*D_NET *443 6.31697e-05
*CONN
*I *917:B I *D NOR2x1p5_ASAP7_75t_R
*I *916:Y O *D XNOR2x2_ASAP7_75t_R
*CAP
1 *917:B 2.65643e-06
2 *916:Y 2.22505e-05
3 *443:10 2.49069e-05
4 *443:10 *589:23 5.49212e-07
5 *443:10 *589:36 0
6 *294:6 *917:B 1.04475e-06
7 *321:35 *443:10 7.43697e-06
8 *321:39 *443:10 2.03526e-06
9 *442:16 *443:10 2.28976e-06
*RES
1 *916:Y *443:10 47.0977 
2 *443:10 *917:B 36.0045 
*END

*D_NET *444 5.84857e-05
*CONN
*I *918:B I *D XNOR2x2_ASAP7_75t_R
*I *917:Y O *D NOR2x1p5_ASAP7_75t_R
*CAP
1 *918:B 2.04064e-05
2 *917:Y 6.94082e-06
3 *444:8 2.73472e-05
4 *918:B *445:6 3.79133e-06
5 *444:8 *589:10 0
6 *444:8 *589:23 0
7 *746:B *444:8 0
*RES
1 *917:Y *444:8 38.9053 
2 *444:8 *918:B 47.7706 
*END

*D_NET *445 0.000213278
*CONN
*I *1273:A I *D BUFx3_ASAP7_75t_R
*I *920:B I *D AND2x2_ASAP7_75t_R
*I *918:Y O *D XNOR2x2_ASAP7_75t_R
*CAP
1 *1273:A 1.13393e-05
2 *920:B 0
3 *918:Y 5.8255e-05
4 *445:22 1.401e-05
5 *445:14 2.9715e-05
6 *445:6 6.26207e-05
7 *1273:A *447:10 3.73144e-06
8 *445:22 *446:10 0
9 *445:22 *447:10 5.52264e-06
10 *918:B *445:6 3.79133e-06
11 *920:A *445:22 1.04475e-06
12 *293:8 *445:14 8.46363e-06
13 *293:8 *445:22 1.47841e-05
*RES
1 *918:Y *445:6 43.4064 
2 *445:6 *445:14 38.8203 
3 *445:14 *445:22 49.5488 
4 *445:22 *920:B 17.2 
5 *445:14 *1273:A 25.2224 
*END

*D_NET *446 2.53378e-05
*CONN
*I *922:B I *D XNOR2x2_ASAP7_75t_R
*I *920:Y O *D AND2x2_ASAP7_75t_R
*CAP
1 *922:B 0
2 *920:Y 1.23925e-05
3 *446:10 1.23925e-05
4 *446:10 *447:10 0
5 *446:10 *590:38 0
6 *104:8 *446:10 5.52807e-07
7 *283:26 *446:10 0
8 *445:22 *446:10 0
*RES
1 *920:Y *446:10 41.5795 
2 *446:10 *922:B 34.4 
*END

*D_NET *447 3.67751e-05
*CONN
*I *922:A I *D XNOR2x2_ASAP7_75t_R
*I *921:Y O *D XNOR2x2_ASAP7_75t_R
*CAP
1 *922:A 0
2 *921:Y 1.37605e-05
3 *447:10 1.37605e-05
4 *1273:A *447:10 3.73144e-06
5 *445:22 *447:10 5.52264e-06
6 *446:10 *447:10 0
*RES
1 *921:Y *447:10 44.9585 
2 *447:10 *922:A 34.4 
*END

*D_NET *448 3.92476e-05
*CONN
*I *925:A I *D XNOR2x2_ASAP7_75t_R
*I *924:Y O *D OR2x2_ASAP7_75t_R
*CAP
1 *925:A 0
2 *924:Y 9.67797e-06
3 *448:10 9.67797e-06
4 *448:10 *532:8 9.94583e-06
5 *448:10 *626:10 9.94583e-06
*RES
1 *924:Y *448:10 40.4531 
2 *448:10 *925:A 34.4 
*END

*D_NET *449 2.43481e-05
*CONN
*I *926:B I *D NOR2x1_ASAP7_75t_R
*I *925:Y O *D XNOR2x2_ASAP7_75t_R
*CAP
1 *926:B 5.80582e-06
2 *925:Y 5.80582e-06
3 *926:B *926:A 9.08513e-06
4 *926:B *450:10 3.65131e-06
*RES
1 *925:Y *926:B 39.2134 
*END

*D_NET *450 5.00137e-05
*CONN
*I *927:A I *D XNOR2x2_ASAP7_75t_R
*I *926:Y O *D NOR2x1_ASAP7_75t_R
*CAP
1 *927:A 0
2 *926:Y 1.8349e-05
3 *450:10 1.8349e-05
4 *450:10 *591:16 9.11516e-06
5 *450:10 *627:40 5.49212e-07
6 *926:B *450:10 3.65131e-06
*RES
1 *926:Y *450:10 49.1804 
2 *450:10 *927:A 34.4 
*END

*D_NET *451 0.000230379
*CONN
*I *929:B I *D AND2x2_ASAP7_75t_R
*I *1160:A I *D BUFx3_ASAP7_75t_R
*I *927:Y O *D XNOR2x2_ASAP7_75t_R
*CAP
1 *929:B 2.92359e-06
2 *1160:A 0
3 *927:Y 4.44577e-06
4 *451:22 2.5402e-05
5 *451:16 4.49904e-05
6 *451:12 5.68294e-05
7 *451:8 4.46103e-05
8 *451:8 *627:40 0
9 *451:22 *795:A 0
10 *451:22 *594:8 0
11 *788:A1 *451:16 1.09067e-06
12 *788:A1 *451:22 2.68933e-07
13 *929:A *929:B 1.36155e-06
14 *929:A *451:22 5.52807e-07
15 *342:10 *451:16 2.01299e-05
16 *342:10 *451:22 2.26439e-05
17 *342:18 *451:16 5.37866e-07
18 *345:12 *451:8 3.95845e-06
19 *346:10 *451:16 6.33206e-07
*RES
1 *927:Y *451:8 37.779 
2 *451:8 *451:12 33.7796 
3 *451:12 *451:16 34.6581 
4 *451:16 *451:22 37.389 
5 *451:22 *1160:A 17.2 
6 *451:16 *929:B 35.4697 
*END

*D_NET *452 0.000166954
*CONN
*I *931:B I *D XNOR2x2_ASAP7_75t_R
*I *929:Y O *D AND2x2_ASAP7_75t_R
*CAP
1 *931:B 0
2 *929:Y 2.23249e-05
3 *452:10 1.9523e-05
4 *452:6 4.18479e-05
5 *452:10 *453:10 4.62088e-06
6 *178:12 *452:6 1.4417e-05
7 *178:12 *452:10 0
8 *178:16 *452:6 3.65131e-06
9 *179:12 *452:6 5.25794e-06
10 *179:12 *452:10 5.2081e-05
11 *179:20 *452:6 2.12481e-06
12 *179:20 *452:10 1.10561e-06
*RES
1 *929:Y *452:6 35.9189 
2 *452:6 *452:10 36.9108 
3 *452:10 *931:B 34.4 
*END

*D_NET *453 6.40009e-05
*CONN
*I *931:A I *D XNOR2x2_ASAP7_75t_R
*I *930:Y O *D XNOR2x2_ASAP7_75t_R
*CAP
1 *931:A 0
2 *930:Y 2.30591e-05
3 *453:10 2.30591e-05
4 *453:10 *930:B 8.06117e-06
5 *178:12 *453:10 5.2006e-06
6 *452:10 *453:10 4.62088e-06
*RES
1 *930:Y *453:10 49.237 
2 *453:10 *931:A 34.4 
*END

*D_NET *454 3.01033e-05
*CONN
*I *938:A I *D XNOR2x2_ASAP7_75t_R
*I *933:Y O *D XNOR2x2_ASAP7_75t_R
*CAP
1 *938:A 0
2 *933:Y 1.50517e-05
3 *454:8 1.50517e-05
4 *454:8 *622:8 0
*RES
1 *933:Y *454:8 46.2265 
2 *454:8 *938:A 34.4 
*END

*D_NET *455 3.31828e-05
*CONN
*I *937:B I *D AND3x1_ASAP7_75t_R
*I *934:Y O *D INVx1_ASAP7_75t_R
*CAP
1 *937:B 5.16478e-06
2 *934:Y 9.07836e-06
3 *455:8 1.42431e-05
4 *937:B *937:C 3.05302e-06
5 *455:8 *598:10 1.64348e-06
*RES
1 *934:Y *455:8 41.158 
2 *455:8 *937:B 38.1438 
*END

*D_NET *456 7.90101e-05
*CONN
*I *937:C I *D AND3x1_ASAP7_75t_R
*I *935:Y O *D OR3x1_ASAP7_75t_R
*CAP
1 *937:C 8.92775e-06
2 *935:Y 2.05342e-05
3 *456:10 2.9462e-05
4 *937:C *937:A 1.07377e-06
5 *456:10 *598:10 9.17492e-06
6 *456:10 *624:23 0
7 *937:B *937:C 3.05302e-06
8 *1229:A *456:10 6.78445e-06
*RES
1 *935:Y *456:10 47.0977 
2 *456:10 *937:C 39.7482 
*END

*D_NET *457 7.54346e-05
*CONN
*I *937:A I *D AND3x1_ASAP7_75t_R
*I *936:Y O *D OAI21x1_ASAP7_75t_R
*CAP
1 *937:A 2.25556e-05
2 *936:Y 2.25556e-05
3 *937:A *936:B 3.48165e-06
4 *936:A2 *937:A 1.29877e-05
5 *937:C *937:A 1.07377e-06
6 *177:29 *937:A 1.27802e-05
*RES
1 *936:Y *937:A 49.3751 
*END

*D_NET *458 5.80725e-05
*CONN
*I *938:B I *D XNOR2x2_ASAP7_75t_R
*I *937:Y O *D AND3x1_ASAP7_75t_R
*CAP
1 *938:B 2.00666e-05
2 *937:Y 8.63038e-06
3 *458:8 2.8697e-05
4 *112:10 *938:B 6.7842e-07
*RES
1 *937:Y *458:8 40.0317 
2 *458:8 *938:B 46.701 
*END

*D_NET *459 7.86013e-05
*CONN
*I *941:B I *D XNOR2x2_ASAP7_75t_R
*I *939:Y O *D OR2x2_ASAP7_75t_R
*CAP
1 *941:B 1.77087e-05
2 *939:Y 7.21554e-06
3 *459:8 2.49242e-05
4 *113:10 *941:B 1.06925e-05
5 *171:12 *941:B 2.03526e-06
6 *172:10 *941:B 1.67815e-06
7 *348:25 *459:8 1.04475e-06
8 *356:8 *941:B 1.33022e-05
*RES
1 *939:Y *459:8 37.0741 
2 *459:8 *941:B 48.9573 
*END

*D_NET *460 2.46395e-05
*CONN
*I *941:A I *D XNOR2x2_ASAP7_75t_R
*I *940:Y O *D XOR2x2_ASAP7_75t_R
*CAP
1 *941:A 0
2 *940:Y 1.14807e-05
3 *460:8 1.14807e-05
4 *460:8 *543:8 0
5 *113:10 *460:8 1.67815e-06
*RES
1 *940:Y *460:8 42.2843 
2 *460:8 *941:A 34.4 
*END

*D_NET *461 6.11053e-05
*CONN
*I *947:A I *D XNOR2x2_ASAP7_75t_R
*I *943:Y O *D XNOR2x2_ASAP7_75t_R
*CAP
1 *947:A 0
2 *943:Y 2.68259e-05
3 *461:10 2.68259e-05
4 *461:10 *464:12 9.97906e-07
5 *50:8 *461:10 0
6 *165:8 *461:10 4.97295e-06
7 *165:88 *461:10 1.4826e-06
*RES
1 *943:Y *461:10 48.1674 
2 *461:10 *947:A 34.4 
*END

*D_NET *462 4.20886e-05
*CONN
*I *945:B I *D XNOR2x2_ASAP7_75t_R
*I *944:Y O *D OR2x4_ASAP7_75t_R
*CAP
1 *945:B 1.37934e-05
2 *944:Y 1.37934e-05
3 *168:16 *945:B 4.57952e-06
4 *169:22 *945:B 9.9223e-06
*RES
1 *944:Y *945:B 46.1661 
*END

*D_NET *463 2.11658e-05
*CONN
*I *946:B I *D NOR2x1_ASAP7_75t_R
*I *945:Y O *D XNOR2x2_ASAP7_75t_R
*CAP
1 *946:B 0
2 *945:Y 3.73575e-06
3 *463:8 3.73575e-06
4 *463:8 *659:18 1.36943e-05
*RES
1 *945:Y *463:8 38.9053 
2 *463:8 *946:B 34.4 
*END

*D_NET *464 0.000172948
*CONN
*I *947:B I *D XNOR2x2_ASAP7_75t_R
*I *946:Y O *D NOR2x1_ASAP7_75t_R
*CAP
1 *947:B 0
2 *946:Y 1.96282e-05
3 *464:12 2.91661e-05
4 *464:8 4.87943e-05
5 *943:B *464:12 1.09842e-06
6 *972:B *464:12 1.34257e-05
7 *165:8 *464:12 1.17229e-05
8 *165:88 *464:12 0
9 *166:8 *464:12 8.46363e-06
10 *166:16 *464:12 1.12894e-06
11 *167:8 *464:12 0
12 *167:12 *464:8 2.94369e-05
13 *167:20 *464:8 9.08513e-06
14 *167:20 *464:12 0
15 *461:10 *464:12 9.97906e-07
*RES
1 *946:Y *464:8 45.6313 
2 *464:8 *464:12 41.9793 
3 *464:12 *947:B 17.2 
*END

*D_NET *465 3.21573e-05
*CONN
*I *949:A I *D XNOR2x2_ASAP7_75t_R
*I *948:Y O *D NAND2x2_ASAP7_75t_R
*CAP
1 *949:A 2.72768e-06
2 *948:Y 9.52114e-06
3 *465:8 1.22488e-05
4 *949:A *949:B 1.95129e-06
5 *465:8 *530:8 2.35211e-06
6 *396:10 *465:8 3.3563e-06
*RES
1 *948:Y *465:8 42.2843 
2 *465:8 *949:A 36.0045 
*END

*D_NET *466 6.91198e-05
*CONN
*I *950:B I *D XNOR2x2_ASAP7_75t_R
*I *949:Y O *D XNOR2x2_ASAP7_75t_R
*CAP
1 *950:B 6.6015e-06
2 *949:Y 2.79584e-05
3 *466:8 3.45599e-05
*RES
1 *949:Y *466:8 47.7706 
2 *466:8 *950:B 38.9053 
*END

*D_NET *467 6.91798e-05
*CONN
*I *953:B I *D XNOR2x1_ASAP7_75t_R
*I *952:Y O *D AND4x1_ASAP7_75t_R
*CAP
1 *953:B 8.55677e-06
2 *952:Y 1.76501e-05
3 *467:8 2.62069e-05
4 *881:E *467:8 1.12894e-06
5 *886:A2 *467:8 3.16603e-06
6 *160:41 *953:B 1.16548e-06
7 *161:12 *467:8 1.09842e-06
8 *161:29 *467:8 0
9 *410:16 *467:8 1.02072e-05
10 *420:10 *467:8 0
*RES
1 *952:Y *467:8 47.3528 
2 *467:8 *953:B 21.746 
*END

*D_NET *468 2.5797e-05
*CONN
*I *954:B I *D NOR2x1_ASAP7_75t_R
*I *953:Y O *D XNOR2x1_ASAP7_75t_R
*CAP
1 *954:B 0
2 *953:Y 1.23532e-05
3 *468:10 1.23532e-05
4 *953:A *468:10 0
5 *418:8 *468:10 1.09067e-06
*RES
1 *953:Y *468:10 41.5795 
2 *468:10 *954:B 34.4 
*END

*D_NET *469 1.62197e-05
*CONN
*I *955:B I *D XNOR2x1_ASAP7_75t_R
*I *954:Y O *D NOR2x1_ASAP7_75t_R
*CAP
1 *955:B 0
2 *954:Y 6.66011e-06
3 *469:8 6.66011e-06
4 *469:8 *470:8 2.25787e-06
5 *159:38 *469:8 6.41585e-07
*RES
1 *954:Y *469:8 38.9053 
2 *469:8 *955:B 17.2 
*END

*D_NET *470 3.65381e-05
*CONN
*I *956:B I *D XNOR2x1_ASAP7_75t_R
*I *955:Y O *D XNOR2x1_ASAP7_75t_R
*CAP
1 *956:B 6.85134e-06
2 *955:Y 7.61738e-06
3 *470:8 1.44687e-05
4 *872:A *470:8 0
5 *157:45 *956:B 5.34278e-06
6 *159:10 *470:8 0
7 *469:8 *470:8 2.25787e-06
*RES
1 *955:Y *470:8 40.0317 
2 *470:8 *956:B 38.1438 
*END

*D_NET *473 0.000176467
*CONN
*P B[19] I
*I *1104:A I *D BUFx2_ASAP7_75t_R
*CAP
1 B[19] 2.21385e-05
2 *1104:A 2.32931e-05
3 *473:15 5.51436e-05
4 *473:11 5.3989e-05
5 *473:15 *529:12 6.33206e-07
6 *42:10 *1104:A 1.76928e-06
7 *88:9 *473:11 1.95002e-05
8 *88:15 *473:15 0
*RES
1 B[19] *473:11 42.1269 
2 *473:11 *473:15 45.0767 
3 *473:15 *1104:A 31.6403 
*END

*D_NET *474 0.00013217
*CONN
*P B[1] I
*I *1105:A I *D BUFx2_ASAP7_75t_R
*CAP
1 B[1] 3.75226e-05
2 *1105:A 0
3 *474:15 1.18706e-06
4 *474:9 3.87096e-05
5 *474:9 S[2] 3.16364e-05
6 *474:9 S[3] 0
7 *87:9 *474:9 2.31142e-05
*RES
1 B[1] *474:9 37.5659 
2 *474:9 *474:15 35.057 
3 *474:15 *1105:A 17.2 
*END

*D_NET *475 0.000132801
*CONN
*P B[20] I
*I *1106:A I *D BUFx2_ASAP7_75t_R
*CAP
1 B[20] 1.0531e-05
2 *1106:A 0
3 *475:17 2.81042e-05
4 *475:11 3.86351e-05
5 *86:9 *475:11 2.67819e-05
6 *88:9 *475:11 2.71041e-05
7 *107:10 *475:17 1.64423e-06
*RES
1 B[20] *475:11 39.9921 
2 *475:11 *475:17 39.8665 
3 *475:17 *1106:A 17.2 
*END

*D_NET *476 0.000130078
*CONN
*P B[21] I
*I *1107:A I *D BUFx2_ASAP7_75t_R
*CAP
1 B[21] 5.04577e-05
2 *1107:A 0
3 *476:15 1.19035e-06
4 *476:9 5.1648e-05
5 *85:11 *476:9 2.67819e-05
*RES
1 B[21] *476:9 39.7303 
2 *476:9 *476:15 35.057 
3 *476:15 *1107:A 17.2 
*END

*D_NET *477 0.000136688
*CONN
*P B[22] I
*I *1108:A I *D BUFx2_ASAP7_75t_R
*CAP
1 B[22] 2.08041e-05
2 *1108:A 1.88158e-05
3 *477:11 3.96199e-05
4 *1016:A *1108:A 2.97669e-05
5 *84:11 *477:11 2.76812e-05
*RES
1 B[22] *477:11 47.0594 
2 *477:11 *1108:A 38.0582 
*END

*D_NET *478 0.000238043
*CONN
*P B[23] I
*I *1109:A I *D BUFx2_ASAP7_75t_R
*CAP
1 B[23] 1.24924e-05
2 *1109:A 7.99273e-06
3 *478:17 4.68709e-05
4 *478:11 7.0003e-05
5 *478:7 4.36172e-05
6 *478:7 S[24] 2.40548e-05
7 *478:11 *479:9 2.85464e-06
8 *478:11 *512:12 2.01232e-05
9 *975:B *1109:A 5.25794e-06
10 *47:8 *478:17 2.05045e-06
11 *83:11 *478:11 2.72524e-06
*RES
1 B[23] *478:7 26.1281 
2 *478:7 *478:11 45.0767 
3 *478:11 *478:17 46.2789 
4 *478:17 *1109:A 40.2831 
*END

*D_NET *479 0.000165721
*CONN
*P B[24] I
*I *1110:A I *D BUFx2_ASAP7_75t_R
*CAP
1 B[24] 1.52787e-05
2 *1110:A 0
3 *479:13 2.95662e-05
4 *479:9 4.48448e-05
5 *479:9 S[24] 2.53074e-05
6 *479:9 *512:12 1.08343e-05
7 *479:13 *512:6 0
8 *1014:A *479:13 0
9 *48:8 *479:13 9.9223e-06
10 *82:11 *479:9 2.71131e-05
11 *478:11 *479:9 2.85464e-06
*RES
1 B[24] *479:9 33.1522 
2 *479:9 *479:13 41.2671 
3 *479:13 *1110:A 17.2 
*END

*D_NET *480 0.000220655
*CONN
*P B[25] I
*I *1111:A I *D BUFx2_ASAP7_75t_R
*CAP
1 B[25] 2.31146e-05
2 *1111:A 0
3 *480:13 2.54397e-05
4 *480:11 2.54397e-05
5 *480:9 2.31146e-05
6 *480:9 S[26] 0
7 *17:6 *480:13 3.98264e-05
8 *49:22 *480:13 8.31096e-06
9 *81:9 *480:9 3.80942e-05
10 *81:13 *480:13 3.73146e-05
*RES
1 B[25] *480:9 33.8015 
2 *480:9 *480:11 17.2 
3 *480:11 *480:13 33.694 
4 *480:13 *1111:A 17.2 
*END

*D_NET *481 0.000210462
*CONN
*P B[26] I
*I *1112:A I *D BUFx2_ASAP7_75t_R
*CAP
1 B[26] 1.83986e-05
2 *1112:A 0
3 *481:13 4.08528e-05
4 *481:9 5.92514e-05
5 *481:9 *482:9 2.76363e-05
6 *50:8 *481:13 1.55843e-05
7 *79:9 *481:9 3.84706e-05
8 *79:13 *481:13 0
9 *80:9 *481:9 1.02678e-05
10 *80:13 *481:13 0
*RES
1 B[26] *481:9 36.9067 
2 *481:9 *481:13 47.685 
3 *481:13 *1112:A 17.2 
*END

*D_NET *482 0.000233
*CONN
*P B[27] I
*I *1113:A I *D BUFx2_ASAP7_75t_R
*CAP
1 B[27] 1.7102e-05
2 *1113:A 0
3 *482:13 5.16363e-05
4 *482:11 5.16363e-05
5 *482:9 1.7102e-05
6 *482:9 S[27] 3.51737e-05
7 *482:13 *515:6 0
8 *482:13 *516:6 0
9 *19:12 *482:13 3.27135e-05
10 *481:9 *482:9 2.76363e-05
*RES
1 B[27] *482:9 34.0908 
2 *482:9 *482:11 17.2 
3 *482:11 *482:13 36.9029 
4 *482:13 *1113:A 17.2 
*END

*D_NET *483 0.000386092
*CONN
*P B[28] I
*I *1114:A I *D BUFx2_ASAP7_75t_R
*CAP
1 B[28] 1.7886e-05
2 *1114:A 1.67074e-05
3 *483:21 5.05982e-05
4 *483:17 6.98142e-05
5 *483:11 5.38094e-05
6 *483:11 S[11] 2.78514e-05
7 *483:11 *488:9 3.44252e-05
8 *483:11 *498:16 3.68302e-06
9 *483:17 *498:16 0
10 *483:17 *641:8 6.7842e-07
11 *483:21 *641:12 1.41808e-05
12 *957:A *483:21 0
13 *966:B *483:17 3.85895e-06
14 *1005:A *483:17 0
15 *52:8 *1114:A 1.3149e-06
16 *57:18 *483:17 2.47759e-06
17 *78:11 *483:11 5.44054e-06
18 *97:9 *483:11 2.84958e-05
19 *99:10 *483:21 2.71199e-05
20 *99:22 *483:17 2.2267e-05
21 *99:22 *483:21 5.00998e-07
22 *155:8 *483:21 0
23 *198:10 *483:21 4.98214e-06
*RES
1 B[28] *483:11 45.7299 
2 *483:11 *483:17 46.6245 
3 *483:17 *483:21 49.3005 
4 *483:21 *1114:A 42.4224 
*END

*D_NET *484 0.000157779
*CONN
*P B[29] I
*I *1115:A I *D BUFx2_ASAP7_75t_R
*CAP
1 B[29] 2.89028e-05
2 *1115:A 0
3 *484:13 2.91233e-05
4 *484:9 5.80261e-05
5 *53:10 *484:13 1.76928e-06
6 *77:9 *484:9 3.9958e-05
7 *77:13 *484:13 0
*RES
1 B[29] *484:9 41.9752 
2 *484:9 *484:13 39.1278 
3 *484:13 *1115:A 17.2 
*END

*D_NET *485 0.000123398
*CONN
*P B[2] I
*I *1116:A I *D BUFx6f_ASAP7_75t_R
*CAP
1 B[2] 3.44303e-05
2 *1116:A 0
3 *485:9 3.44303e-05
4 *76:9 *485:9 5.45373e-05
*RES
1 B[2] *485:9 40.255 
2 *485:9 *1116:A 34.4 
*END

*D_NET *486 0.000100461
*CONN
*P B[30] I
*I *1117:A I *D BUFx2_ASAP7_75t_R
*CAP
1 B[30] 1.8399e-05
2 *1117:A 1.63702e-05
3 *486:11 3.47692e-05
4 *1007:A *1117:A 0
5 *75:11 *486:11 3.09231e-05
*RES
1 B[30] *486:11 41.5553 
2 *486:11 *1117:A 48.9485 
*END

*D_NET *487 0.000126226
*CONN
*P B[31] I
*I *1118:A I *D BUFx2_ASAP7_75t_R
*CAP
1 B[31] 4.58736e-05
2 *1118:A 0
3 *487:15 2.67617e-06
4 *487:9 4.85498e-05
5 *487:9 S[32] 0
6 *24:10 *487:15 0
7 *74:11 *487:9 2.91268e-05
*RES
1 B[31] *487:9 38.7422 
2 *487:9 *487:15 36.3711 
3 *487:15 *1118:A 17.2 
*END

*D_NET *488 0.000184621
*CONN
*P B[32] I
*I *1119:A I *D BUFx2_ASAP7_75t_R
*CAP
1 B[32] 3.35445e-05
2 *1119:A 0
3 *488:13 2.05957e-05
4 *488:9 5.41402e-05
5 *488:13 *497:10 0
6 *488:13 *498:16 0
7 *73:11 *488:9 2.60686e-05
8 *78:11 *488:9 1.47513e-05
9 *398:11 *488:9 1.09596e-06
10 *483:11 *488:9 3.44252e-05
*RES
1 B[32] *488:9 32.921 
2 *488:9 *488:13 34.752 
3 *488:13 *1119:A 34.4 
*END

*D_NET *489 0.000162069
*CONN
*P B[3] I
*I *1120:A I *D BUFx2_ASAP7_75t_R
*CAP
1 B[3] 1.5792e-05
2 *1120:A 5.13684e-05
3 *489:11 6.71604e-05
4 *72:9 *489:11 2.77482e-05
5 *72:13 *1120:A 0
*RES
1 B[3] *489:11 46.346 
2 *489:11 *1120:A 48.7547 
*END

*D_NET *490 9.73924e-05
*CONN
*P B[4] I
*I *1121:A I *D BUFx2_ASAP7_75t_R
*CAP
1 B[4] 3.53402e-05
2 *1121:A 0
3 *490:9 3.53402e-05
4 *490:9 S[4] 0
5 *71:9 *490:9 2.6712e-05
*RES
1 B[4] *490:9 38.8703 
2 *490:9 *1121:A 34.4 
*END

*D_NET *491 0.000127461
*CONN
*P B[5] I
*I *1122:A I *D BUFx2_ASAP7_75t_R
*CAP
1 B[5] 1.23621e-05
2 *1122:A 2.66043e-05
3 *491:11 3.89664e-05
4 *491:11 S[12] 2.49213e-05
5 *70:9 *491:11 2.46074e-05
*RES
1 B[5] *491:11 46.9091 
2 *491:11 *1122:A 38.0582 
*END

*D_NET *492 0.000101505
*CONN
*P B[6] I
*I *1123:A I *D BUFx2_ASAP7_75t_R
*CAP
1 B[6] 3.84488e-05
2 *1123:A 0
3 *492:9 3.84488e-05
4 *29:8 *492:9 0
5 *69:11 *492:9 2.46074e-05
*RES
1 B[6] *492:9 38.8703 
2 *492:9 *1123:A 34.4 
*END

*D_NET *493 0.00011687
*CONN
*P B[7] I
*I *1124:A I *D BUFx2_ASAP7_75t_R
*CAP
1 B[7] 2.22949e-05
2 *1124:A 0
3 *493:13 2.38363e-05
4 *493:9 4.61313e-05
5 *68:9 *493:9 2.46074e-05
*RES
1 B[7] *493:9 33.0881 
2 *493:9 *493:13 35.9189 
3 *493:13 *1124:A 17.2 
*END

*D_NET *494 0.000154529
*CONN
*P B[8] I
*I *1125:A I *D BUFx2_ASAP7_75t_R
*CAP
1 B[8] 1.36016e-05
2 *1125:A 0
3 *494:15 1.52167e-05
4 *494:11 2.88183e-05
5 *494:11 S[8] 2.60686e-05
6 *494:11 *527:12 6.70755e-08
7 *494:15 *527:12 4.46881e-05
8 *67:9 *494:11 2.60686e-05
*RES
1 B[8] *494:11 40.8141 
2 *494:11 *494:15 34.752 
3 *494:15 *1125:A 17.2 
*END

*D_NET *495 0.000164931
*CONN
*P B[9] I
*I *1126:A I *D BUFx2_ASAP7_75t_R
*CAP
1 B[9] 1.63231e-05
2 *1126:A 0
3 *495:17 3.93035e-05
4 *495:11 5.56266e-05
5 *832:A *495:17 0
6 *998:A *495:17 0
7 *34:12 *495:17 5.22486e-06
8 *64:8 *495:17 7.58265e-07
9 *66:11 *495:11 3.09231e-05
10 *380:11 *495:11 1.67711e-05
*RES
1 B[9] *495:11 42.6375 
2 *495:11 *495:17 47.1487 
3 *495:17 *1126:A 17.2 
*END

*D_NET *496 8.9155e-05
*CONN
*P C32 O
*I *1127:Y O *D BUFx2_ASAP7_75t_R
*CAP
1 C32 3.08967e-05
2 *1127:Y 1.36808e-05
3 *496:8 4.45775e-05
4 C32 S[32] 0
5 *73:11 C32 0
*RES
1 *1127:Y *496:8 46.3203 
2 *496:8 C32 44.3067 
*END

*D_NET *497 0.00020176
*CONN
*P S[10] O
*I *1128:Y O *D BUFx3_ASAP7_75t_R
*CAP
1 S[10] 4.40151e-05
2 *1128:Y 0
3 *497:10 6.87052e-05
4 *497:6 2.46901e-05
5 S[10] S[9] 2.18251e-06
6 *850:A *497:10 4.46881e-05
7 *33:12 *497:10 0
8 *66:11 S[10] 1.53468e-05
9 *97:17 *497:10 0
10 *398:11 S[10] 2.13254e-06
11 *488:13 *497:10 0
*RES
1 *1128:Y *497:6 34.4 
2 *497:6 *497:10 42.0732 
3 *497:10 S[10] 36.4922 
*END

*D_NET *498 0.000143502
*CONN
*P S[11] O
*I *1129:Y O *D BUFx3_ASAP7_75t_R
*CAP
1 S[11] 1.11517e-05
2 *1129:Y 9.49774e-06
3 *498:16 2.86549e-05
4 *498:8 2.7001e-05
5 *57:18 *498:8 4.10256e-06
6 *78:11 S[11] 2.96343e-05
7 *97:9 S[11] 1.39517e-06
8 *99:22 *498:8 5.30528e-07
9 *483:11 S[11] 2.78514e-05
10 *483:11 *498:16 3.68302e-06
11 *483:17 *498:16 0
12 *488:13 *498:16 0
*RES
1 *1129:Y *498:8 38.1438 
2 *498:8 *498:16 43.1255 
3 *498:16 S[11] 11.8519 
*END

*D_NET *499 0.000275562
*CONN
*P S[12] O
*I *1130:Y O *D BUFx3_ASAP7_75t_R
*CAP
1 S[12] 8.29942e-05
2 *1130:Y 1.53056e-06
3 *499:10 8.29942e-05
4 *499:8 1.53056e-06
5 S[12] S[5] 6.25232e-05
6 *499:8 *576:21 2.0915e-06
7 *499:8 *612:25 0
8 *70:9 S[12] 1.69761e-05
9 *491:11 S[12] 2.49213e-05
*RES
1 *1130:Y *499:8 35.9956 
2 *499:8 *499:10 17.2 
3 *499:10 S[12] 42.8006 
*END

*D_NET *500 0.00012172
*CONN
*P S[13] O
*I *1131:Y O *D BUFx3_ASAP7_75t_R
*CAP
1 S[13] 8.11283e-06
2 *1131:Y 0
3 *500:14 3.14897e-05
4 *500:6 2.33769e-05
5 S[13] S[14] 2.95314e-05
6 *500:14 *502:8 0
7 *500:14 *504:8 0
8 *227:9 S[13] 2.92092e-05
*RES
1 *1131:Y *500:6 34.4 
2 *500:6 *500:14 47.0677 
3 *500:14 S[13] 11.0921 
*END

*D_NET *501 0.000172339
*CONN
*P S[14] O
*I *1132:Y O *D BUFx3_ASAP7_75t_R
*CAP
1 S[14] 1.03474e-05
2 *1132:Y 0
3 *501:14 3.2335e-05
4 *501:6 2.19876e-05
5 S[14] S[15] 2.67819e-05
6 *501:14 S[15] 2.27238e-06
7 *501:14 *502:8 4.83862e-05
8 S[13] S[14] 2.95314e-05
9 *227:9 S[14] 6.97583e-07
10 *282:9 S[14] 0
*RES
1 *1132:Y *501:6 34.4 
2 *501:6 *501:14 48.3796 
3 *501:14 S[14] 12.0038 
*END

*D_NET *502 0.000275252
*CONN
*P S[15] O
*I *1133:Y O *D BUFx3_ASAP7_75t_R
*CAP
1 S[15] 1.59774e-05
2 *1133:Y 0
3 *502:8 9.36587e-05
4 *502:6 7.76812e-05
5 S[14] S[15] 2.67819e-05
6 *40:27 *502:8 0
7 *101:10 *502:8 5.66897e-06
8 *102:10 *502:8 0
9 *103:10 *502:8 6.33206e-07
10 *105:8 *502:8 3.32579e-06
11 *139:18 *502:8 0
12 *227:15 *502:8 8.66562e-07
13 *282:9 S[15] 0
14 *500:14 *502:8 0
15 *501:14 S[15] 2.27238e-06
16 *501:14 *502:8 4.83862e-05
*RES
1 *1133:Y *502:6 34.4 
2 *502:6 *502:8 69.551 
3 *502:8 S[15] 40.3168 
*END

*D_NET *503 0.000297657
*CONN
*P S[16] O
*I *1134:Y O *D BUFx3_ASAP7_75t_R
*CAP
1 S[16] 1.54615e-05
2 *1134:Y 0
3 *503:8 6.56106e-05
4 *503:6 5.01491e-05
5 *503:8 *586:12 6.27627e-05
6 *36:12 *503:8 6.95676e-06
7 *94:11 S[16] 2.46769e-05
8 *94:15 *503:8 2.96606e-05
9 *139:18 *503:8 0
10 *186:10 *503:8 3.97462e-05
11 *282:9 S[16] 6.97583e-07
12 *282:15 *503:8 1.93482e-06
*RES
1 *1134:Y *503:6 34.4 
2 *503:6 *503:8 61.1035 
3 *503:8 S[16] 39.6674 
*END

*D_NET *504 0.000256248
*CONN
*P S[17] O
*I *1135:Y O *D BUFx2_ASAP7_75t_R
*CAP
1 S[17] 1.05207e-05
2 *1135:Y 0
3 *504:8 6.44662e-05
4 *504:6 5.39455e-05
5 S[17] S[18] 6.97583e-07
6 *9:8 *504:8 1.67009e-05
7 *40:8 *504:8 3.50295e-05
8 *89:9 S[17] 2.71041e-05
9 *89:15 *504:8 4.97876e-07
10 *227:15 *504:8 0
11 *230:11 S[17] 2.46769e-05
12 *230:13 *504:8 2.18737e-05
13 *230:21 *504:8 7.35063e-07
14 *500:14 *504:8 0
*RES
1 *1135:Y *504:6 34.4 
2 *504:6 *504:8 52.656 
3 *504:8 S[17] 39.8839 
*END

*D_NET *505 0.000127147
*CONN
*P S[18] O
*I *1136:Y O *D BUFx3_ASAP7_75t_R
*CAP
1 S[18] 9.49448e-06
2 *1136:Y 0
3 *505:14 3.64428e-05
4 *505:6 2.69483e-05
5 S[17] S[18] 6.97583e-07
6 *89:9 S[18] 0
7 *90:9 S[18] 2.92092e-05
8 *230:11 S[18] 2.43547e-05
9 *230:13 *505:14 0
*RES
1 *1136:Y *505:6 34.4 
2 *505:6 *505:14 48.2581 
3 *505:14 S[18] 11.0921 
*END

*D_NET *506 8.58505e-05
*CONN
*P S[19] O
*I *1137:Y O *D BUFx3_ASAP7_75t_R
*CAP
1 S[19] 1.97863e-05
2 *1137:Y 0
3 *506:14 4.29253e-05
4 *506:6 2.31389e-05
5 S[19] S[20] 0
6 *506:14 *508:14 0
7 *86:9 S[19] 0
*RES
1 *1137:Y *506:6 34.4 
2 *506:6 *506:14 46.9595 
3 *506:14 S[19] 11.0921 
*END

*D_NET *507 0.000148366
*CONN
*P S[1] O
*I *1138:Y O *D BUFx2_ASAP7_75t_R
*CAP
1 S[1] 3.21897e-05
2 *1138:Y 6.22171e-06
3 *507:14 4.50147e-05
4 *507:8 1.90467e-05
5 *87:9 S[1] 0
6 *93:9 S[1] 3.2717e-05
7 *93:9 *507:14 4.98627e-06
8 *93:17 *507:8 8.18955e-06
9 *246:11 S[1] 0
*RES
1 *1138:Y *507:8 40.6887 
2 *507:8 *507:14 34.6815 
3 *507:14 S[1] 22.944 
*END

*D_NET *508 8.71631e-05
*CONN
*P S[20] O
*I *1139:Y O *D BUFx3_ASAP7_75t_R
*CAP
1 S[20] 2.00802e-05
2 *1139:Y 0
3 *508:14 4.35815e-05
4 *508:6 2.35014e-05
5 S[19] S[20] 0
6 *85:11 S[20] 0
7 *506:14 *508:14 0
*RES
1 *1139:Y *508:6 34.4 
2 *508:6 *508:14 47.0677 
3 *508:14 S[20] 11.0921 
*END

*D_NET *509 0.000147535
*CONN
*P S[21] O
*I *1140:Y O *D BUFx3_ASAP7_75t_R
*CAP
1 S[21] 1.49282e-05
2 *1140:Y 2.85015e-05
3 *509:12 3.053e-05
4 *509:6 4.41033e-05
5 S[21] S[22] 2.94719e-05
*RES
1 *1140:Y *509:6 35.9189 
2 *509:6 *509:12 48.1976 
3 *509:12 S[21] 10.876 
*END

*D_NET *510 0.000110705
*CONN
*P S[22] O
*I *1141:Y O *D BUFx3_ASAP7_75t_R
*CAP
1 S[22] 1.73056e-05
2 *1141:Y 2.33109e-05
3 *510:8 4.06165e-05
4 S[21] S[22] 2.94719e-05
*RES
1 *1141:Y *510:8 49.9099 
2 *510:8 S[22] 29.2962 
*END

*D_NET *511 0.000111318
*CONN
*P S[23] O
*I *1142:Y O *D BUFx3_ASAP7_75t_R
*CAP
1 S[23] 2.51253e-05
2 *1142:Y 3.05336e-05
3 *511:6 5.56589e-05
*RES
1 *1142:Y *511:6 35.9189 
2 *511:6 S[23] 47.2471 
*END

*D_NET *512 0.0002275
*CONN
*P S[24] O
*I *1143:Y O *D BUFx3_ASAP7_75t_R
*CAP
1 S[24] 9.18104e-06
2 *1143:Y 3.26044e-05
3 *512:12 1.50263e-05
4 *512:6 3.84496e-05
5 *1014:A *512:6 3.50249e-05
6 *1015:A *512:6 0
7 *82:11 *512:12 1.30997e-06
8 *171:12 *512:6 1.55843e-05
9 *478:7 S[24] 2.40548e-05
10 *478:11 *512:12 2.01232e-05
11 *479:9 S[24] 2.53074e-05
12 *479:9 *512:12 1.08343e-05
13 *479:13 *512:6 0
*RES
1 *1143:Y *512:6 48.7547 
2 *512:6 *512:12 41.2519 
3 *512:12 S[24] 9.57738 
*END

*D_NET *513 0.000173721
*CONN
*P S[25] O
*I *1144:Y O *D BUFx3_ASAP7_75t_R
*CAP
1 S[25] 8.08566e-06
2 *1144:Y 3.16609e-05
3 *513:12 2.43758e-05
4 *513:6 4.79511e-05
5 S[25] S[26] 2.76363e-05
6 *513:6 *514:6 0
7 *513:12 S[26] 6.33018e-06
8 *81:9 S[25] 2.76812e-05
*RES
1 *1144:Y *513:6 36.9885 
2 *513:6 *513:12 48.0098 
3 *513:12 S[25] 10.2267 
*END

*D_NET *514 0.000147012
*CONN
*P S[26] O
*I *1145:Y O *D BUFx3_ASAP7_75t_R
*CAP
1 S[26] 1.89286e-05
2 *1145:Y 3.75943e-05
3 *514:6 5.65229e-05
4 S[25] S[26] 2.76363e-05
5 *480:9 S[26] 0
6 *513:6 *514:6 0
7 *513:12 S[26] 6.33018e-06
*RES
1 *1145:Y *514:6 39.1278 
2 *514:6 S[26] 47.4348 
*END

*D_NET *515 0.000178404
*CONN
*P S[27] O
*I *1146:Y O *D BUFx2_ASAP7_75t_R
*CAP
1 S[27] 1.94063e-05
2 *1146:Y 3.59216e-05
3 *515:6 5.5328e-05
4 S[27] S[28] 0
5 *79:9 S[27] 0
6 *79:13 *515:6 3.25743e-05
7 *482:9 S[27] 3.51737e-05
8 *482:13 *515:6 0
*RES
1 *1146:Y *515:6 39.1278 
2 *515:6 S[27] 47.8103 
*END

*D_NET *516 0.000108875
*CONN
*P S[28] O
*I *1147:Y O *D BUFx3_ASAP7_75t_R
*CAP
1 S[28] 2.35473e-05
2 *1147:Y 3.08903e-05
3 *516:6 5.44376e-05
4 S[27] S[28] 0
5 *482:13 *516:6 0
*RES
1 *1147:Y *516:6 36.9885 
2 *516:6 S[28] 46.1208 
*END

*D_NET *517 0.000115023
*CONN
*P S[29] O
*I *1148:Y O *D BUFx3_ASAP7_75t_R
*CAP
1 S[29] 1.66273e-05
2 *1148:Y 2.61481e-05
3 *517:6 4.27753e-05
4 S[29] S[30] 2.94719e-05
5 *517:6 *519:6 0
*RES
1 *1148:Y *517:6 36.9885 
2 *517:6 S[29] 46.1208 
*END

*D_NET *518 0.000155551
*CONN
*P S[2] O
*I *1149:Y O *D BUFx2_ASAP7_75t_R
*CAP
1 S[2] 9.56867e-06
2 *1149:Y 0
3 *518:12 4.39682e-05
4 *518:6 3.43995e-05
5 *518:12 *522:14 0
6 *87:9 S[2] 3.0992e-05
7 *259:11 *518:12 4.98627e-06
8 *259:15 *518:12 0
9 *474:9 S[2] 3.16364e-05
*RES
1 *1149:Y *518:6 34.4 
2 *518:6 *518:12 39.8262 
3 *518:12 S[2] 23.8038 
*END

*D_NET *519 0.000135332
*CONN
*P S[30] O
*I *1150:Y O *D BUFx3_ASAP7_75t_R
*CAP
1 S[30] 1.48702e-05
2 *1150:Y 3.07033e-05
3 *519:12 2.22269e-05
4 *519:6 3.806e-05
5 S[29] S[30] 2.94719e-05
6 *77:9 S[30] 0
7 *77:13 *519:6 0
8 *517:6 *519:6 0
*RES
1 *1150:Y *519:6 36.9885 
2 *519:6 *519:12 39.5624 
3 *519:12 S[30] 10.876 
*END

*D_NET *520 8.61289e-05
*CONN
*P S[31] O
*I *1151:Y O *D BUFx2_ASAP7_75t_R
*CAP
1 S[31] 3.82201e-05
2 *1151:Y 4.84435e-06
3 *520:8 4.30645e-05
*RES
1 *1151:Y *520:8 37.6851 
2 *520:8 S[31] 37.1664 
*END

*D_NET *521 9.14301e-05
*CONN
*P S[32] O
*I *1152:Y O *D BUFx3_ASAP7_75t_R
*CAP
1 S[32] 3.53708e-05
2 *1152:Y 1.99823e-06
3 *521:14 4.37168e-05
4 *521:8 1.03442e-05
5 C32 S[32] 0
6 *74:15 *521:8 0
7 *487:9 S[32] 0
*RES
1 *1152:Y *521:8 35.8079 
2 *521:8 *521:14 32.4089 
3 *521:14 S[32] 19.1453 
*END

*D_NET *522 9.13327e-05
*CONN
*P S[3] O
*I *1153:Y O *D BUFx2_ASAP7_75t_R
*CAP
1 S[3] 2.00802e-05
2 *1153:Y 0
3 *522:14 4.56664e-05
4 *522:6 2.55862e-05
5 *522:14 *958:B 0
6 *474:9 S[3] 0
7 *518:12 *522:14 0
*RES
1 *1153:Y *522:6 34.4 
2 *522:6 *522:14 47.9335 
3 *522:14 S[3] 11.0921 
*END

*D_NET *523 0.000120655
*CONN
*P S[4] O
*I *1154:Y O *D BUFx2_ASAP7_75t_R
*CAP
1 S[4] 2.18995e-05
2 *1154:Y 3.47174e-05
3 *523:6 5.66169e-05
4 *124:12 *523:6 7.4208e-06
5 *490:9 S[4] 0
*RES
1 *1154:Y *523:6 40.1975 
2 *523:6 S[4] 46.346 
*END

*D_NET *524 0.000157868
*CONN
*P S[5] O
*I *1155:Y O *D BUFx2_ASAP7_75t_R
*CAP
1 S[5] 2.43222e-05
2 *1155:Y 1.8381e-06
3 *524:8 2.61603e-05
4 S[12] S[5] 6.25232e-05
5 *28:36 *524:8 1.41313e-06
6 *95:9 S[5] 1.70039e-05
7 *334:9 S[5] 2.46074e-05
*RES
1 *1155:Y *524:8 35.8079 
2 *524:8 S[5] 40.5212 
*END

*D_NET *525 0.000197374
*CONN
*P S[6] O
*I *1156:Y O *D BUFx2_ASAP7_75t_R
*CAP
1 S[6] 3.79412e-05
2 *1156:Y 7.42076e-06
3 *525:18 4.02879e-05
4 *525:12 5.04911e-05
5 *525:8 5.55652e-05
6 *525:12 *894:A 4.02391e-06
7 *208:8 *525:8 1.64348e-06
*RES
1 *1156:Y *525:8 40.0317 
2 *525:8 *525:12 42.3368 
3 *525:12 *525:18 35.6202 
4 *525:18 S[6] 20.0746 
*END

*D_NET *526 7.85049e-05
*CONN
*P S[7] O
*I *1157:Y O *D BUFx3_ASAP7_75t_R
*CAP
1 S[7] 2.55716e-05
2 *1157:Y 1.36808e-05
3 *526:8 3.92525e-05
*RES
1 *1157:Y *526:8 46.3203 
2 *526:8 S[7] 42.2505 
*END

*D_NET *527 0.000153831
*CONN
*P S[8] O
*I *1158:Y O *D BUFx3_ASAP7_75t_R
*CAP
1 S[8] 1.75263e-05
2 *1158:Y 0
3 *527:12 4.0657e-05
4 *527:6 2.31307e-05
5 *63:8 *527:12 0
6 *67:9 S[8] 1.42423e-06
7 *67:15 *527:12 2.68933e-07
8 *494:11 S[8] 2.60686e-05
9 *494:11 *527:12 6.70755e-08
10 *494:15 *527:12 4.46881e-05
*RES
1 *1158:Y *527:6 34.4 
2 *527:6 *527:12 39.773 
3 *527:12 S[8] 23.6519 
*END

*D_NET *528 8.92182e-05
*CONN
*P S[9] O
*I *1159:Y O *D BUFx3_ASAP7_75t_R
*CAP
1 S[9] 2.9837e-05
2 *1159:Y 1.36808e-05
3 *528:8 4.35179e-05
4 S[10] S[9] 2.18251e-06
5 *66:11 S[9] 0
*RES
1 *1159:Y *528:8 46.3203 
2 *528:8 S[9] 43.441 
*END

*D_NET *529 9.86595e-05
*CONN
*I *928:A I *D XNOR2x2_ASAP7_75t_R
*I *1160:Y O *D BUFx3_ASAP7_75t_R
*CAP
1 *928:A 0
2 *1160:Y 9.91092e-06
3 *529:12 2.65006e-05
4 *529:8 3.64116e-05
5 *529:12 *595:10 2.19685e-06
6 *88:15 *529:12 0
7 *342:10 *529:12 2.30063e-05
8 *473:15 *529:12 6.33206e-07
*RES
1 *1160:Y *529:8 38.1438 
2 *529:8 *529:12 38.6003 
3 *529:12 *928:A 17.2 
*END

*D_NET *530 4.24164e-05
*CONN
*I *948:B I *D NAND2x2_ASAP7_75t_R
*I *1161:Y O *D BUFx3_ASAP7_75t_R
*CAP
1 *948:B 8.9386e-06
2 *1161:Y 3.24758e-06
3 *530:8 1.21862e-05
4 *396:10 *530:8 1.56919e-05
5 *465:8 *530:8 2.35211e-06
*RES
1 *1161:Y *530:8 39.4685 
2 *530:8 *948:B 39.2134 
*END

*D_NET *531 2.10798e-05
*CONN
*I *769:A I *D XOR2x2_ASAP7_75t_R
*I *1162:Y O *D BUFx3_ASAP7_75t_R
*CAP
1 *769:A 0
2 *1162:Y 1.05399e-05
3 *531:8 1.05399e-05
*RES
1 *1162:Y *531:8 42.2843 
2 *531:8 *769:A 34.4 
*END

*D_NET *532 0.000191382
*CONN
*I *796:A I *D NOR2x2_ASAP7_75t_R
*I *1294:A I *D BUFx6f_ASAP7_75t_R
*I *1163:Y O *D BUFx6f_ASAP7_75t_R
*CAP
1 *796:A 0
2 *1294:A 8.97132e-06
3 *1163:Y 1.35444e-05
4 *532:23 3.70993e-05
5 *532:8 5.96151e-05
6 *1294:A *591:16 2.22736e-06
7 *1294:A *626:10 8.51183e-06
8 *1294:A *626:25 1.01102e-06
9 *1294:A *663:6 7.35354e-06
10 *532:8 *591:16 9.94685e-06
11 *532:8 *626:10 6.75467e-06
12 *345:14 *532:23 2.6401e-05
13 *448:10 *532:8 9.94583e-06
*RES
1 *1163:Y *532:8 49.6055 
2 *532:8 *1294:A 43.2973 
3 *532:8 *532:23 41.2671 
4 *532:23 *796:A 17.2 
*END

*D_NET *533 8.21867e-05
*CONN
*I *724:A I *D OR2x2_ASAP7_75t_R
*I *914:A2 I *D OAI21x1_ASAP7_75t_R
*I *1164:Y O *D BUFx3_ASAP7_75t_R
*CAP
1 *724:A 1.4667e-05
2 *914:A2 0
3 *1164:Y 6.10425e-06
4 *533:10 1.4667e-05
5 *533:8 6.10425e-06
6 *914:A1 *724:A 1.96943e-05
7 *274:20 *724:A 4.41457e-06
8 *275:39 *533:8 1.65352e-05
*RES
1 *1164:Y *533:8 40.0317 
2 *533:8 *533:10 17.2 
3 *533:10 *914:A2 17.2 
4 *533:10 *724:A 27.8965 
*END

*D_NET *534 8.14142e-05
*CONN
*I *960:CI I *D FAx1_ASAP7_75t_R
*I *1165:Y O *D BUFx3_ASAP7_75t_R
*CAP
1 *960:CI 2.1102e-05
2 *1165:Y 0
3 *534:6 2.1102e-05
4 *960:CI *632:8 8.81791e-06
5 *32:23 *960:CI 1.78077e-05
6 *34:20 *960:CI 0
7 *196:10 *960:CI 2.77657e-06
8 *197:10 *960:CI 9.8079e-06
9 *200:8 *960:CI 0
*RES
1 *1165:Y *534:6 34.4 
2 *534:6 *960:CI 39.7266 
*END

*D_NET *535 1.33764e-05
*CONN
*I *897:B I *D XNOR2x2_ASAP7_75t_R
*I *1166:Y O *D BUFx3_ASAP7_75t_R
*CAP
1 *897:B 0
2 *1166:Y 4.48272e-06
3 *535:8 4.48272e-06
4 *535:8 *897:A 4.41094e-06
*RES
1 *1166:Y *535:8 38.9053 
2 *535:8 *897:B 34.4 
*END

*D_NET *536 0.000203543
*CONN
*I *829:C I *D OR4x2_ASAP7_75t_R
*I *1292:A I *D BUFx3_ASAP7_75t_R
*I *1167:Y O *D BUFx3_ASAP7_75t_R
*CAP
1 *829:C 2.6875e-06
2 *1292:A 0
3 *1167:Y 2.48706e-05
4 *536:25 3.60339e-05
5 *536:14 1.90767e-05
6 *536:6 7.72936e-05
7 *829:C *537:25 3.90258e-06
8 *536:6 *831:B 2.52755e-07
9 *536:14 *537:10 3.51553e-06
10 *536:14 *661:8 0
11 *536:25 *831:B 1.54461e-06
12 *536:25 *537:25 1.70557e-06
13 *829:B *536:25 8.27368e-06
14 *831:C *536:6 1.29753e-05
15 *376:25 *536:25 4.65366e-06
16 *378:51 *536:25 1.23321e-06
17 *378:59 *536:14 1.70708e-06
18 *379:8 *536:25 3.81627e-06
19 *379:10 *536:14 0
*RES
1 *1167:Y *536:6 30.5706 
2 *536:6 *536:14 47.2111 
3 *536:14 *1292:A 17.2 
4 *536:6 *536:25 36.7654 
5 *536:25 *829:C 35.4697 
*END

*D_NET *537 0.000181786
*CONN
*I *829:D I *D OR4x2_ASAP7_75t_R
*I *831:A I *D NAND3x1_ASAP7_75t_R
*I *1168:Y O *D BUFx3_ASAP7_75t_R
*CAP
1 *829:D 0
2 *831:A 0
3 *1168:Y 0
4 *537:25 1.71396e-05
5 *537:10 3.45113e-05
6 *537:4 5.16509e-05
7 *537:25 *829:A 1.20741e-05
8 *829:B *537:25 5.85387e-06
9 *829:C *537:25 3.90258e-06
10 *944:B *537:25 2.83874e-07
11 *361:25 *537:10 4.04733e-05
12 *376:14 *537:10 2.97289e-06
13 *376:25 *537:10 0
14 *378:51 *537:25 7.70271e-06
15 *536:14 *537:10 3.51553e-06
16 *536:25 *537:25 1.70557e-06
*RES
1 *1168:Y *537:4 17.2 
2 *537:4 *537:10 37.2719 
3 *537:10 *831:A 34.4 
4 *537:4 *537:25 47.0977 
5 *537:25 *829:D 17.2 
*END

*D_NET *538 6.51545e-05
*CONN
*I *723:A1 I *D AOI211x1_ASAP7_75t_R
*I *1169:Y O *D BUFx3_ASAP7_75t_R
*CAP
1 *723:A1 0
2 *1169:Y 1.88601e-05
3 *538:10 1.88601e-05
4 *268:12 *538:10 8.31096e-06
5 *268:18 *538:10 3.81627e-06
6 *308:26 *538:10 1.53071e-05
*RES
1 *1169:Y *538:10 47.4909 
2 *538:10 *723:A1 34.4 
*END

*D_NET *539 0.000117933
*CONN
*I *781:A I *D XNOR2x2_ASAP7_75t_R
*I *1170:Y O *D BUFx3_ASAP7_75t_R
*CAP
1 *781:A 0
2 *1170:Y 0
3 *539:10 1.9124e-05
4 *539:6 1.9124e-05
5 *292:23 *539:10 1.31716e-05
6 *314:16 *539:10 2.19685e-06
7 *318:10 *539:10 6.43163e-05
*RES
1 *1170:Y *539:6 34.4 
2 *539:6 *539:10 41.9793 
3 *539:10 *781:A 17.2 
*END

*D_NET *540 5.74374e-05
*CONN
*I *769:B I *D XOR2x2_ASAP7_75t_R
*I *1171:Y O *D BUFx3_ASAP7_75t_R
*CAP
1 *769:B 0
2 *1171:Y 2.55208e-05
3 *540:10 2.55208e-05
4 *314:16 *540:10 6.39567e-06
*RES
1 *1171:Y *540:10 48.1674 
2 *540:10 *769:B 34.4 
*END

*D_NET *541 3.98599e-05
*CONN
*I *716:A3 I *D AO31x2_ASAP7_75t_R
*I *1172:Y O *D BUFx3_ASAP7_75t_R
*CAP
1 *716:A3 0
2 *1172:Y 1.74697e-05
3 *541:8 1.74697e-05
4 *709:C *541:8 1.09067e-06
5 *709:D *541:8 0
6 *247:29 *541:8 2.20128e-06
7 *261:8 *541:8 0
8 *308:18 *541:8 1.62854e-06
*RES
1 *1172:Y *541:8 47.3528 
2 *541:8 *716:A3 34.4 
*END

*D_NET *542 0.000102545
*CONN
*I *697:A2 I *D AOI22x1_ASAP7_75t_R
*I *713:A1 I *D AO22x1_ASAP7_75t_R
*I *1173:Y O *D BUFx3_ASAP7_75t_R
*CAP
1 *697:A2 3.59846e-06
2 *713:A1 1.18522e-05
3 *1173:Y 1.94715e-05
4 *542:10 3.49222e-05
5 *697:A1 *697:A2 4.89331e-06
6 *697:A1 *542:10 5.69885e-06
7 *713:B2 *713:A1 7.46759e-06
8 *244:8 *542:10 5.06565e-06
9 *247:29 *697:A2 5.52652e-06
10 *247:29 *542:10 1.89962e-06
11 *264:14 *542:10 1.59615e-06
12 *264:20 *542:10 5.52807e-07
*RES
1 *1173:Y *542:10 46.0848 
2 *542:10 *713:A1 40.2831 
3 *542:10 *697:A2 38.9053 
*END

*D_NET *543 3.36607e-05
*CONN
*I *940:B I *D XOR2x2_ASAP7_75t_R
*I *1174:Y O *D BUFx3_ASAP7_75t_R
*CAP
1 *940:B 0
2 *1174:Y 1.68303e-05
3 *543:8 1.68303e-05
4 *543:8 *601:8 0
5 *113:10 *543:8 0
6 *460:8 *543:8 0
*RES
1 *1174:Y *543:8 46.2265 
2 *543:8 *940:B 34.4 
*END

*D_NET *544 2.96222e-05
*CONN
*I *810:A1 I *D OAI21x1_ASAP7_75t_R
*I *1175:Y O *D BUFx3_ASAP7_75t_R
*CAP
1 *810:A1 0
2 *1175:Y 1.36351e-05
3 *544:10 1.36351e-05
4 *352:25 *544:10 2.35211e-06
*RES
1 *1175:Y *544:10 43.0989 
2 *544:10 *810:A1 34.4 
*END

*D_NET *545 1.92404e-05
*CONN
*I *767:A1 I *D OAI22x1_ASAP7_75t_R
*I *1176:Y O *D BUFx3_ASAP7_75t_R
*CAP
1 *767:A1 0
2 *1176:Y 6.07708e-06
3 *545:8 6.07708e-06
4 *313:25 *545:8 7.08621e-06
*RES
1 *1176:Y *545:8 40.0317 
2 *545:8 *767:A1 34.4 
*END

*D_NET *546 7.15326e-05
*CONN
*I *909:B I *D XOR2x2_ASAP7_75t_R
*I *1177:Y O *D BUFx3_ASAP7_75t_R
*CAP
1 *909:B 2.0352e-05
2 *1177:Y 2.0352e-05
3 *909:B *649:12 1.40132e-05
4 *1177:A *909:B 1.49313e-05
5 *438:10 *909:B 1.88408e-06
*RES
1 *1177:Y *909:B 48.8403 
*END

*D_NET *547 2.55918e-05
*CONN
*I *711:A3 I *D OA31x2_ASAP7_75t_R
*I *1178:Y O *D BUFx3_ASAP7_75t_R
*CAP
1 *711:A3 0
2 *1178:Y 1.16555e-05
3 *547:8 1.16555e-05
4 *547:8 *711:B1 1.64764e-06
5 *547:8 *576:8 0
6 *547:8 *576:21 0
7 *547:8 *576:34 6.33206e-07
8 *239:10 *547:8 0
*RES
1 *1178:Y *547:8 42.2843 
2 *547:8 *711:A3 34.4 
*END

*D_NET *548 0.000196519
*CONN
*I *711:A2 I *D OA31x2_ASAP7_75t_R
*I *1179:Y O *D BUFx3_ASAP7_75t_R
*CAP
1 *711:A2 0
2 *1179:Y 1.22707e-05
3 *548:14 2.31719e-05
4 *548:8 3.54426e-05
5 *548:14 *711:B1 3.81627e-06
6 *194:26 *548:14 6.33018e-06
7 *194:28 *548:8 7.8915e-06
8 *195:6 *548:14 6.16795e-05
9 *195:10 *548:14 4.83862e-06
10 *209:31 *548:14 1.78333e-06
11 *209:35 *548:14 6.61478e-06
12 *229:10 *548:14 2.97595e-05
13 *239:10 *548:14 0
14 *240:12 *548:14 2.92008e-06
*RES
1 *1179:Y *548:8 40.2831 
2 *548:8 *548:14 47.1255 
3 *548:14 *711:A2 17.2 
*END

*D_NET *549 0.000185492
*CONN
*I *676:A I *D AND2x2_ASAP7_75t_R
*I *710:A I *D AND4x1_ASAP7_75t_R
*I *1180:Y O *D BUFx3_ASAP7_75t_R
*CAP
1 *676:A 0
2 *710:A 0
3 *1180:Y 9.48309e-06
4 *549:27 1.0799e-05
5 *549:12 2.78146e-05
6 *549:8 2.64987e-05
7 *239:10 *549:27 3.08505e-06
8 *242:18 *549:8 3.88165e-05
9 *243:18 *549:27 1.92255e-05
10 *243:22 *549:12 2.79851e-06
11 *243:33 *549:8 1.00883e-05
12 *243:33 *549:12 1.15428e-05
13 *263:8 *549:27 2.53404e-05
*RES
1 *1180:Y *549:8 47.3528 
2 *549:8 *549:12 27.8965 
3 *549:12 *710:A 17.2 
4 *549:12 *549:27 45.0151 
5 *549:27 *676:A 17.2 
*END

*D_NET *550 8.80785e-05
*CONN
*I *793:B I *D NAND2x1_ASAP7_75t_R
*I *1181:Y O *D BUFx3_ASAP7_75t_R
*CAP
1 *793:B 0
2 *1181:Y 1.75421e-06
3 *550:12 3.16058e-05
4 *550:8 3.336e-05
5 *550:12 *793:A 3.81627e-06
6 *178:18 *550:8 1.22048e-05
7 *338:10 *550:8 5.33743e-06
*RES
1 *1181:Y *550:8 38.3422 
2 *550:8 *550:12 35.9189 
3 *550:12 *793:B 17.2 
*END

*D_NET *551 3.28855e-05
*CONN
*I *825:C I *D AOI221x1_ASAP7_75t_R
*I *1182:Y O *D BUFx3_ASAP7_75t_R
*CAP
1 *825:C 4.05053e-06
2 *1182:Y 7.2125e-06
3 *551:8 1.1263e-05
4 *826:C *551:8 0
5 *319:23 *551:8 6.79293e-06
6 *366:16 *825:C 3.56648e-06
*RES
1 *1182:Y *551:8 40.0317 
2 *551:8 *825:C 37.0741 
*END

*D_NET *552 1.01008e-05
*CONN
*I *803:A2 I *D AOI211x1_ASAP7_75t_R
*I *1183:Y O *D BUFx3_ASAP7_75t_R
*CAP
1 *803:A2 0
2 *1183:Y 3.93671e-06
3 *552:8 3.93671e-06
4 *803:A1 *552:8 0
5 *345:18 *552:8 2.22736e-06
*RES
1 *1183:Y *552:8 37.779 
2 *552:8 *803:A2 34.4 
*END

*D_NET *553 1.28322e-05
*CONN
*I *793:A I *D NAND2x1_ASAP7_75t_R
*I *1184:Y O *D BUFx3_ASAP7_75t_R
*CAP
1 *793:A 4.50798e-06
2 *1184:Y 4.50798e-06
3 *550:12 *793:A 3.81627e-06
*RES
1 *1184:Y *793:A 37.0741 
*END

*D_NET *554 6.82331e-05
*CONN
*I *818:B I *D AOI211x1_ASAP7_75t_R
*I *1185:Y O *D BUFx3_ASAP7_75t_R
*CAP
1 *818:B 1.4109e-05
2 *1185:Y 4.78578e-06
3 *554:8 1.88948e-05
4 *818:B *560:31 8.58704e-06
5 *818:B *563:28 3.54095e-06
6 *554:8 *559:38 3.81627e-06
7 *310:18 *818:B 1.44992e-05
*RES
1 *1185:Y *554:8 37.0741 
2 *554:8 *818:B 48.4791 
*END

*D_NET *555 2.26945e-05
*CONN
*I *892:B I *D XNOR2x2_ASAP7_75t_R
*I *1186:Y O *D BUFx3_ASAP7_75t_R
*CAP
1 *892:B 3.30266e-06
2 *1186:Y 4.81478e-06
3 *555:8 8.11745e-06
4 *892:B *572:8 5.4358e-07
5 *555:8 *892:A 2.38727e-07
6 *212:25 *555:8 5.67735e-06
*RES
1 *1186:Y *555:8 38.9053 
2 *555:8 *892:B 36.0045 
*END

*D_NET *556 4.22656e-05
*CONN
*I *762:C I *D NOR3x2_ASAP7_75t_R
*I *1187:Y O *D BUFx3_ASAP7_75t_R
*CAP
1 *762:C 6.81546e-06
2 *1187:Y 5.24289e-06
3 *556:8 1.20583e-05
4 *139:10 *556:8 1.67893e-05
5 *310:24 *556:8 1.35961e-06
*RES
1 *1187:Y *556:8 40.0317 
2 *556:8 *762:C 37.609 
*END

*D_NET *557 0.000128425
*CONN
*I *762:B I *D NOR3x2_ASAP7_75t_R
*I *1188:Y O *D BUFx3_ASAP7_75t_R
*CAP
1 *762:B 8.76822e-06
2 *1188:Y 2.70326e-05
3 *557:8 3.58008e-05
4 *760:A *557:8 3.89037e-06
5 *760:C *557:8 3.90258e-06
6 *139:10 *762:B 1.07573e-06
7 *302:14 *762:B 0
8 *303:12 *762:B 0
9 *308:32 *557:8 3.79133e-06
10 *310:18 *762:B 4.83862e-06
11 *310:24 *762:B 3.0607e-05
12 *311:8 *762:B 8.71771e-06
*RES
1 *1188:Y *557:8 46.701 
2 *557:8 *762:B 45.6633 
*END

*D_NET *558 3.02301e-05
*CONN
*I *766:A1 I *D AOI21x1_ASAP7_75t_R
*I *1189:Y O *D BUFx3_ASAP7_75t_R
*CAP
1 *766:A1 0
2 *1189:Y 2.75085e-06
3 *558:8 2.75085e-06
4 *558:8 *604:12 7.54709e-06
5 *317:10 *558:8 1.71813e-05
*RES
1 *1189:Y *558:8 40.0317 
2 *558:8 *766:A1 34.4 
*END

*D_NET *559 0.000508222
*CONN
*I *819:A2 I *D AOI21x1_ASAP7_75t_R
*I *1287:A I *D BUFx6f_ASAP7_75t_R
*I *675:A2 I *D AO21x2_ASAP7_75t_R
*I *1190:Y O *D BUFx3_ASAP7_75t_R
*CAP
1 *819:A2 0
2 *1287:A 0
3 *675:A2 3.67698e-06
4 *1190:Y 0
5 *559:44 2.79024e-05
6 *559:38 6.91616e-05
7 *559:20 2.4861e-05
8 *559:14 4.38716e-05
9 *559:12 3.45835e-05
10 *559:4 5.31551e-05
11 *675:A2 *611:25 2.83523e-05
12 *559:14 *611:16 1.73158e-05
13 *559:20 *611:16 3.8522e-05
14 *559:38 *563:18 5.77516e-06
15 *559:44 *819:B 2.28976e-06
16 *559:44 *560:35 4.4144e-05
17 *559:44 *561:10 2.25787e-06
18 *210:14 *675:A2 2.83523e-05
19 *274:16 *559:12 8.06436e-06
20 *275:16 *559:12 8.33296e-06
21 *283:32 *559:38 2.70479e-05
22 *310:18 *559:44 0
23 *322:18 *559:12 5.22376e-07
24 *322:18 *559:14 3.41817e-05
25 *324:39 *559:38 2.03526e-06
26 *554:8 *559:38 3.81627e-06
*RES
1 *1190:Y *559:4 17.2 
2 *559:4 *559:12 42.0293 
3 *559:12 *559:14 20.3234 
4 *559:14 *559:20 32.9083 
5 *559:20 *675:A2 42.9572 
6 *559:14 *1287:A 17.2 
7 *559:4 *559:38 45.5457 
8 *559:38 *559:44 40.5942 
9 *559:44 *819:A2 17.2 
*END

*D_NET *560 0.000398538
*CONN
*I *819:A1 I *D AOI21x1_ASAP7_75t_R
*I *674:C I *D NAND3x2_ASAP7_75t_R
*I *1191:Y O *D BUFx3_ASAP7_75t_R
*CAP
1 *819:A1 0
2 *674:C 4.04093e-06
3 *1191:Y 0
4 *560:35 2.44481e-05
5 *560:31 5.03969e-05
6 *560:16 3.43824e-05
7 *560:10 5.57235e-05
8 *560:4 5.13308e-05
9 *674:C *674:B 0
10 *674:C *656:27 0
11 *560:10 *570:10 2.22736e-06
12 *560:10 *656:8 0
13 *560:16 *656:21 0
14 *776:B *560:31 2.42438e-05
15 *818:B *560:31 8.58704e-06
16 *222:46 *560:10 1.29755e-05
17 *310:18 *560:31 8.33296e-06
18 *322:33 *560:10 9.52454e-06
19 *322:33 *560:31 4.89132e-05
20 *327:10 *560:35 1.92671e-05
21 *559:44 *560:35 4.4144e-05
*RES
1 *1191:Y *560:4 17.2 
2 *560:4 *560:10 33.4431 
3 *560:10 *560:16 47.7706 
4 *560:16 *674:C 37.2158 
5 *560:4 *560:31 40.874 
6 *560:31 *560:35 38.0582 
7 *560:35 *819:A1 17.2 
*END

*D_NET *561 0.000181659
*CONN
*I *761:B I *D OR2x6_ASAP7_75t_R
*I *754:A I *D NOR2x2_ASAP7_75t_R
*I *1192:Y O *D BUFx3_ASAP7_75t_R
*CAP
1 *761:B 0
2 *754:A 2.54659e-05
3 *1192:Y 0
4 *561:12 3.50372e-05
5 *561:10 5.49483e-05
6 *561:6 4.53771e-05
7 *754:A *563:22 1.23408e-05
8 *754:A *563:26 5.62196e-06
9 *561:10 *563:10 0
10 *561:10 *647:8 0
11 *776:C *561:10 0
12 *1278:A *561:10 6.10236e-07
13 *310:18 *561:10 0
14 *327:10 *561:10 0
15 *559:44 *561:10 2.25787e-06
*RES
1 *1192:Y *561:6 34.4 
2 *561:6 *561:10 48.1741 
3 *561:10 *561:12 5.88308 
4 *561:12 *754:A 32.7099 
5 *561:12 *761:B 17.2 
*END

*D_NET *562 1.6917e-05
*CONN
*I *818:A2 I *D AOI211x1_ASAP7_75t_R
*I *1193:Y O *D BUFx3_ASAP7_75t_R
*CAP
1 *818:A2 2.585e-06
2 *1193:Y 3.94941e-06
3 *562:8 6.53441e-06
4 *210:37 *562:8 2.22736e-06
5 *321:53 *562:8 1.09842e-06
6 *330:10 *818:A2 5.22376e-07
*RES
1 *1193:Y *562:8 37.779 
2 *562:8 *818:A2 35.4697 
*END

*D_NET *563 0.000587536
*CONN
*I *733:D I *D OR4x2_ASAP7_75t_R
*I *821:A I *D INVx1_ASAP7_75t_R
*I *761:A I *D OR2x6_ASAP7_75t_R
*I *754:B I *D NOR2x2_ASAP7_75t_R
*I *739:B I *D OR2x4_ASAP7_75t_R
*I *1194:Y O *D BUFx6f_ASAP7_75t_R
*CAP
1 *733:D 1.65494e-05
2 *821:A 0
3 *761:A 0
4 *754:B 0
5 *739:B 0
6 *1194:Y 1.25462e-05
7 *563:51 2.65277e-05
8 *563:28 5.67331e-05
9 *563:26 5.8804e-05
10 *563:22 6.00279e-06
11 *563:20 3.93189e-06
12 *563:18 5.28714e-05
13 *563:12 7.93991e-05
14 *563:10 4.34597e-05
15 *563:8 4.34597e-05
16 *563:6 2.90956e-05
17 *563:10 *647:8 5.68573e-06
18 *754:A *563:22 1.23408e-05
19 *754:A *563:26 5.62196e-06
20 *775:E *563:28 2.77657e-06
21 *778:B *563:28 5.04703e-06
22 *778:D *563:28 6.46139e-06
23 *780:B *563:10 0
24 *780:B *563:51 9.81516e-06
25 *815:B *563:51 0
26 *818:B *563:28 3.54095e-06
27 *210:56 *563:28 4.57263e-07
28 *280:28 *563:10 0
29 *281:20 *563:10 0
30 *283:26 *563:18 1.98844e-05
31 *283:26 *563:28 0
32 *283:32 *563:18 2.03526e-06
33 *283:34 *563:28 2.94029e-05
34 *284:6 *733:D 7.46759e-06
35 *304:10 *563:28 3.32524e-06
36 *304:29 *563:28 5.37866e-07
37 *310:18 *563:28 0
38 *324:26 *563:28 0
39 *327:10 *563:10 1.2903e-05
40 *327:14 *563:18 5.0551e-07
41 *327:14 *563:51 3.55261e-06
42 *328:10 *563:28 2.01457e-05
43 *329:8 *563:28 0
44 *329:14 *563:28 0
45 *330:10 *563:28 7.3874e-07
46 *330:18 *563:10 0
47 *367:14 *563:10 1.34467e-07
48 *370:10 *563:10 0
49 *372:22 *563:10 0
50 *559:38 *563:18 5.77516e-06
51 *561:10 *563:10 0
*RES
1 *1194:Y *563:6 23.0831 
2 *563:6 *563:8 17.2 
3 *563:8 *563:10 34.3531 
4 *563:10 *563:12 17.2 
5 *563:12 *563:18 46.9555 
6 *563:18 *563:20 17.2 
7 *563:20 *563:22 3.74377 
8 *563:22 *563:26 18.8045 
9 *563:26 *563:28 48.9954 
10 *563:28 *739:B 34.4 
11 *563:22 *754:B 17.2 
12 *563:20 *761:A 17.2 
13 *563:12 *563:51 35.3027 
14 *563:51 *821:A 34.4 
15 *563:6 *733:D 25.7572 
*END

*D_NET *564 0.000177997
*CONN
*I *735:A3 I *D AO31x2_ASAP7_75t_R
*I *720:C I *D AND3x1_ASAP7_75t_R
*I *1195:Y O *D BUFx3_ASAP7_75t_R
*CAP
1 *735:A3 4.84046e-06
2 *720:C 0
3 *1195:Y 1.73282e-05
4 *564:20 7.70041e-06
5 *564:14 5.44656e-05
6 *564:8 6.89338e-05
7 *564:8 *727:B 0
8 *564:8 *585:77 0
9 *564:20 *565:8 1.28893e-05
10 *737:E *564:14 0
11 *1197:A *564:8 5.37866e-07
12 *269:12 *564:8 2.83874e-07
13 *270:8 *564:8 0
14 *270:14 *564:14 9.13667e-07
15 *278:8 *564:14 0
16 *280:14 *564:14 1.22643e-06
17 *285:6 *735:A3 8.87763e-06
*RES
1 *1195:Y *564:8 46.2265 
2 *564:8 *564:14 44.9332 
3 *564:14 *564:20 41.158 
4 *564:20 *720:C 17.2 
5 *564:8 *735:A3 37.0741 
*END

*D_NET *565 0.000133188
*CONN
*I *735:A2 I *D AO31x2_ASAP7_75t_R
*I *720:B I *D AND3x1_ASAP7_75t_R
*I *1196:Y O *D BUFx3_ASAP7_75t_R
*CAP
1 *735:A2 0
2 *720:B 0
3 *1196:Y 6.5375e-06
4 *565:37 1.63483e-05
5 *565:27 3.94177e-05
6 *565:10 2.30694e-05
7 *565:8 6.5375e-06
8 *565:8 *720:A 8.1656e-06
9 *565:27 *566:27 6.78069e-06
10 *565:37 *566:8 4.37666e-07
11 *565:37 *566:27 6.39567e-06
12 *272:6 *565:27 6.60831e-06
13 *286:8 *565:27 0
14 *564:20 *565:8 1.28893e-05
*RES
1 *1196:Y *565:8 41.158 
2 *565:8 *565:10 17.2 
3 *565:10 *720:B 17.2 
4 *565:10 *565:27 49.3026 
5 *565:27 *565:37 41.5571 
6 *565:37 *735:A2 17.2 
*END

*D_NET *566 0.000116566
*CONN
*I *735:A1 I *D AO31x2_ASAP7_75t_R
*I *720:A I *D AND3x1_ASAP7_75t_R
*I *1197:Y O *D BUFx3_ASAP7_75t_R
*CAP
1 *735:A1 0
2 *720:A 1.40525e-05
3 *1197:Y 1.34627e-05
4 *566:27 1.96063e-05
5 *566:8 4.71214e-05
6 *272:6 *720:A 5.4358e-07
7 *565:8 *720:A 8.1656e-06
8 *565:27 *566:27 6.78069e-06
9 *565:37 *566:8 4.37666e-07
10 *565:37 *566:27 6.39567e-06
*RES
1 *1197:Y *566:8 43.4107 
2 *566:8 *720:A 43.8888 
3 *566:8 *566:27 44.1686 
4 *566:27 *735:A1 34.4 
*END

*D_NET *567 0.000162955
*CONN
*I *680:B I *D NAND2x1_ASAP7_75t_R
*I *898:A I *D AND2x2_ASAP7_75t_R
*I *701:B I *D OR3x1_ASAP7_75t_R
*I *1198:Y O *D BUFx3_ASAP7_75t_R
*CAP
1 *680:B 2.00907e-06
2 *898:A 2.47108e-05
3 *701:B 0
4 *1198:Y 1.02296e-05
5 *567:14 2.54276e-05
6 *567:8 5.01383e-05
7 *567:6 1.22387e-05
8 *898:A *578:12 0
9 *898:A *614:25 0
10 *898:A *614:91 0
11 *567:6 *614:14 1.08167e-05
12 *567:14 *614:25 0
13 *232:15 *567:6 1.27802e-05
14 *232:17 *567:14 2.43534e-06
15 *233:8 *567:14 6.79293e-06
16 *429:14 *898:A 5.37569e-06
*RES
1 *1198:Y *567:6 25.2224 
2 *567:6 *567:8 17.2 
3 *567:8 *567:14 33.6982 
4 *567:14 *701:B 17.2 
5 *567:8 *898:A 49.5488 
6 *567:6 *680:B 18.2696 
*END

*D_NET *568 7.49807e-05
*CONN
*I *668:A3 I *D AO31x2_ASAP7_75t_R
*I *1199:Y O *D BUFx3_ASAP7_75t_R
*CAP
1 *668:A3 1.11217e-05
2 *1199:Y 6.76922e-06
3 *568:8 1.78909e-05
4 *668:A3 *574:27 0
5 *668:A3 *610:38 0
6 *218:23 *568:8 0
7 *219:8 *668:A3 9.8079e-06
8 *219:25 *668:A3 8.33112e-06
9 *220:25 *668:A3 2.00151e-05
10 *220:25 *568:8 1.04475e-06
*RES
1 *1199:Y *568:8 37.0741 
2 *568:8 *668:A3 47.3528 
*END

*D_NET *569 1.41238e-05
*CONN
*I *668:A1 I *D AO31x2_ASAP7_75t_R
*I *1200:Y O *D BUFx3_ASAP7_75t_R
*CAP
1 *668:A1 0
2 *1200:Y 7.0619e-06
3 *569:8 7.0619e-06
4 *226:10 *569:8 0
*RES
1 *1200:Y *569:8 40.0317 
2 *569:8 *668:A1 34.4 
*END

*D_NET *570 0.000348903
*CONN
*I *822:A I *D OR3x1_ASAP7_75t_R
*I *913:B I *D NOR2x1_ASAP7_75t_R
*I *1201:Y O *D BUFx3_ASAP7_75t_R
*CAP
1 *822:A 2.35059e-05
2 *913:B 0
3 *1201:Y 0
4 *570:31 6.83486e-05
5 *570:25 5.27454e-05
6 *570:10 4.36685e-05
7 *570:8 5.71393e-05
8 *570:4 2.13734e-05
9 *570:10 *611:10 0
10 *570:10 *656:8 0
11 *570:10 *656:21 0
12 *914:B *570:10 1.09842e-06
13 *1278:A *570:31 7.84772e-07
14 *226:37 *570:10 4.51828e-05
15 *274:16 *570:10 0
16 *275:16 *570:10 6.13287e-06
17 *275:24 *570:10 4.74248e-06
18 *289:6 *570:8 2.12481e-06
19 *289:17 *570:8 1.01907e-05
20 *289:17 *570:25 3.81627e-06
21 *308:26 *570:25 1.88168e-06
22 *322:12 *570:10 0
23 *330:14 *570:31 3.93964e-06
24 *560:10 *570:10 2.22736e-06
*RES
1 *1201:Y *570:4 17.2 
2 *570:4 *570:8 26.292 
3 *570:8 *570:10 35.4795 
4 *570:10 *913:B 34.4 
5 *570:4 *570:25 39.8705 
6 *570:25 *570:31 33.8734 
7 *570:31 *822:A 48.3055 
*END

*D_NET *571 1.10712e-05
*CONN
*I *896:A I *D XNOR2x2_ASAP7_75t_R
*I *1202:Y O *D BUFx3_ASAP7_75t_R
*CAP
1 *896:A 0
2 *1202:Y 3.33013e-06
3 *571:8 3.33013e-06
4 *428:10 *571:8 4.41094e-06
*RES
1 *1202:Y *571:8 37.779 
2 *571:8 *896:A 34.4 
*END

*D_NET *572 9.75116e-05
*CONN
*I *892:A I *D XNOR2x2_ASAP7_75t_R
*I *1203:Y O *D BUFx3_ASAP7_75t_R
*CAP
1 *892:A 7.35527e-06
2 *1203:Y 4.10094e-05
3 *572:8 4.83647e-05
4 *892:B *572:8 5.4358e-07
5 *555:8 *892:A 2.38727e-07
*RES
1 *1203:Y *572:8 49.9099 
2 *572:8 *892:A 39.4685 
*END

*D_NET *573 0.000256906
*CONN
*I *670:A I *D NOR3x1_ASAP7_75t_R
*I *665:B I *D OR3x1_ASAP7_75t_R
*I *666:A1 I *D OAI21x1_ASAP7_75t_R
*I *671:A1 I *D OA21x2_ASAP7_75t_R
*I *1204:Y O *D BUFx3_ASAP7_75t_R
*CAP
1 *670:A 2.76409e-06
2 *665:B 1.35056e-05
3 *666:A1 0
4 *671:A1 0
5 *1204:Y 0
6 *573:41 2.29928e-05
7 *573:33 4.12114e-05
8 *573:29 1.09621e-05
9 *573:25 4.44691e-05
10 *573:14 1.25092e-05
11 *573:4 5.34933e-05
12 *665:B *608:36 0
13 *665:B *608:53 2.84286e-06
14 *573:25 *608:36 9.67251e-06
15 *573:41 *666:B 9.08513e-06
16 *573:41 *608:17 3.6269e-06
17 *573:41 *608:30 3.42494e-06
18 *1204:A *573:14 7.58265e-07
19 *1204:A *573:25 2.52755e-07
20 *213:10 *573:14 3.79923e-06
21 *214:10 *573:25 0
22 *214:21 *573:25 0
23 *220:8 *665:B 2.04071e-05
24 *224:8 *665:B 1.12894e-06
*RES
1 *1204:Y *573:4 17.2 
2 *573:4 *573:14 40.9879 
3 *573:14 *671:A1 17.2 
4 *573:4 *573:25 41.7773 
5 *573:25 *573:29 18.8045 
6 *573:29 *573:33 21.7053 
7 *573:33 *573:41 46.3079 
8 *573:41 *666:A1 34.4 
9 *573:33 *665:B 48.3941 
10 *573:29 *670:A 18.8045 
*END

*D_NET *574 0.000275981
*CONN
*I *667:B I *D OR2x2_ASAP7_75t_R
*I *772:A I *D INVx1_ASAP7_75t_R
*I *672:D I *D OR5x1_ASAP7_75t_R
*I *1206:A I *D BUFx3_ASAP7_75t_R
*I *1205:Y O *D BUFx3_ASAP7_75t_R
*CAP
1 *667:B 1.01257e-05
2 *772:A 1.23585e-05
3 *672:D 0
4 *1206:A 0
5 *1205:Y 0
6 *574:33 2.07589e-05
7 *574:27 4.97435e-05
8 *574:25 4.27639e-05
9 *574:14 1.88067e-05
10 *574:4 3.48189e-05
11 *667:B *610:25 7.72307e-07
12 *667:B *610:38 5.0551e-07
13 *574:14 *771:B 6.7842e-07
14 *574:14 *575:10 1.35961e-06
15 *574:14 *575:16 8.2174e-07
16 *574:25 *771:B 6.70433e-06
17 *574:25 *575:16 0
18 *574:25 *610:18 5.79724e-07
19 *574:27 *610:8 0
20 *574:27 *610:18 2.22736e-06
21 *574:27 *610:38 2.0153e-05
22 *664:A *574:33 6.15135e-06
23 *668:A3 *574:27 0
24 *672:E *574:33 2.66797e-07
25 *773:C *772:A 1.01102e-06
26 *210:10 *574:14 5.62196e-06
27 *211:8 *574:14 1.69273e-05
28 *218:12 *574:27 6.33206e-07
29 *218:12 *574:33 1.13463e-05
30 *219:25 *574:27 0
31 *220:8 *574:33 2.25787e-06
32 *225:27 *574:33 8.58704e-06
*RES
1 *1205:Y *574:4 17.2 
2 *574:4 *574:14 48.7022 
3 *574:14 *1206:A 17.2 
4 *574:4 *574:25 28.7147 
5 *574:25 *574:27 14.6423 
6 *574:27 *574:33 35.1363 
7 *574:33 *672:D 17.2 
8 *574:27 *772:A 40.2831 
9 *574:25 *667:B 38.1438 
*END

*D_NET *575 0.000122174
*CONN
*I *771:B I *D NOR2x1_ASAP7_75t_R
*I *893:A I *D XNOR2x2_ASAP7_75t_R
*I *1206:Y O *D BUFx3_ASAP7_75t_R
*CAP
1 *771:B 6.54726e-06
2 *893:A 0
3 *1206:Y 1.02559e-05
4 *575:22 4.07866e-06
5 *575:16 3.55691e-05
6 *575:10 4.82935e-05
7 *575:16 *610:12 1.59615e-06
8 *575:16 *610:18 5.22486e-06
9 *210:14 *575:10 0
10 *427:12 *575:16 1.04475e-06
11 *574:14 *771:B 6.7842e-07
12 *574:14 *575:10 1.35961e-06
13 *574:14 *575:16 8.2174e-07
14 *574:25 *771:B 6.70433e-06
15 *574:25 *575:16 0
*RES
1 *1206:Y *575:10 40.5098 
2 *575:10 *575:16 37.442 
3 *575:16 *575:22 37.2158 
4 *575:22 *893:A 17.2 
5 *575:10 *771:B 39.2134 
*END

*D_NET *576 0.000224493
*CONN
*I *689:D I *D OR4x1_ASAP7_75t_R
*I *690:A I *D INVx1_ASAP7_75t_R
*I *711:A1 I *D OA31x2_ASAP7_75t_R
*I *1207:Y O *D BUFx3_ASAP7_75t_R
*CAP
1 *689:D 7.12482e-06
2 *690:A 0
3 *711:A1 0
4 *1207:Y 0
5 *576:34 2.40836e-05
6 *576:21 4.49864e-05
7 *576:8 5.43093e-05
8 *576:4 2.62816e-05
9 *689:D *1178:A 1.23408e-05
10 *576:21 *711:B1 0
11 *576:21 *612:25 0
12 *100:18 *576:21 1.68138e-05
13 *133:6 *576:21 0
14 *194:8 *576:8 0
15 *194:8 *576:34 0
16 *194:12 *689:D 2.29378e-05
17 *194:12 *576:34 8.31096e-06
18 *209:12 *576:8 0
19 *209:12 *576:21 0
20 *209:23 *576:21 0
21 *242:10 *689:D 4.57952e-06
22 *499:8 *576:21 2.0915e-06
23 *547:8 *576:8 0
24 *547:8 *576:21 0
25 *547:8 *576:34 6.33206e-07
*RES
1 *1207:Y *576:4 17.2 
2 *576:4 *576:8 23.958 
3 *576:8 *711:A1 34.4 
4 *576:8 *576:21 46.6794 
5 *576:21 *690:A 17.2 
6 *576:4 *576:34 44.2252 
7 *576:34 *689:D 26.8269 
*END

*D_NET *577 0.000311479
*CONN
*I *696:B I *D OR4x1_ASAP7_75t_R
*I *895:B I *D OR3x1_ASAP7_75t_R
*I *694:C I *D OR4x1_ASAP7_75t_R
*I *698:A I *D INVx1_ASAP7_75t_R
*I *1208:Y O *D BUFx3_ASAP7_75t_R
*CAP
1 *696:B 1.05407e-05
2 *895:B 4.85475e-06
3 *694:C 3.29558e-06
4 *698:A 0
5 *1208:Y 1.71849e-05
6 *577:32 4.40981e-05
7 *577:30 5.17071e-05
8 *577:19 5.21864e-06
9 *577:17 1.51215e-05
10 *577:6 3.23064e-05
11 *694:C *614:56 7.80516e-06
12 *577:6 *613:40 7.63254e-07
13 *577:6 *613:55 2.79851e-06
14 *577:17 *613:61 0
15 *577:30 *614:56 5.85387e-06
16 *577:32 *645:8 0
17 *696:A *696:B 6.7842e-07
18 *712:A2 *577:32 2.70287e-05
19 *235:8 *577:32 0
20 *238:35 *577:32 1.12894e-06
21 *248:16 *577:6 3.81627e-06
22 *248:16 *577:17 1.56306e-05
23 *249:14 *577:17 1.93545e-05
24 *249:14 *577:32 7.57697e-06
25 *262:16 *895:B 5.12159e-06
26 *263:8 *577:32 8.06923e-06
27 *428:10 *696:B 3.3563e-06
28 *428:10 *577:17 5.52807e-07
29 *428:10 *577:32 1.76159e-05
*RES
1 *1208:Y *577:6 25.2224 
2 *577:6 *698:A 17.2 
3 *577:6 *577:17 34.01 
4 *577:17 *577:19 17.2 
5 *577:19 *694:C 19.3393 
6 *577:19 *577:30 18.8045 
7 *577:30 *577:32 34.3531 
8 *577:32 *895:B 37.609 
9 *577:30 *696:B 45.0151 
*END

*D_NET *578 0.000120148
*CONN
*I *897:A I *D XNOR2x2_ASAP7_75t_R
*I *679:A I *D INVx1_ASAP7_75t_R
*I *1209:Y O *D BUFx3_ASAP7_75t_R
*CAP
1 *897:A 1.46178e-05
2 *679:A 0
3 *1209:Y 0
4 *578:12 3.68685e-05
5 *578:6 5.14863e-05
6 *898:A *578:12 0
7 *205:21 *578:12 5.52807e-07
8 *232:6 *578:12 3.05302e-06
9 *232:15 *578:12 9.15905e-06
10 *429:14 *897:A 0
11 *429:14 *578:12 0
12 *535:8 *897:A 4.41094e-06
*RES
1 *1209:Y *578:6 34.4 
2 *578:6 *578:12 37.442 
3 *578:12 *679:A 17.2 
4 *578:6 *897:A 46.2265 
*END

*D_NET *579 2.04952e-05
*CONN
*I *900:A I *D XNOR2x2_ASAP7_75t_R
*I *1210:Y O *D BUFx3_ASAP7_75t_R
*CAP
1 *900:A 0
2 *1210:Y 8.43415e-06
3 *579:8 8.43415e-06
4 *431:10 *579:8 3.6269e-06
*RES
1 *1210:Y *579:8 41.158 
2 *579:8 *900:A 34.4 
*END

*D_NET *580 0.00057984
*CONN
*I *1210:A I *D BUFx3_ASAP7_75t_R
*I *758:B I *D NOR2x1_ASAP7_75t_R
*I *700:D I *D OR4x1_ASAP7_75t_R
*I *699:C I *D OR4x1_ASAP7_75t_R
*I *701:C I *D OR3x1_ASAP7_75t_R
*I *681:B I *D OR3x1_ASAP7_75t_R
*I *684:A I *D INVx1_ASAP7_75t_R
*I *694:D I *D OR4x1_ASAP7_75t_R
*I *696:C I *D OR4x1_ASAP7_75t_R
*I *1211:Y O *D BUFx3_ASAP7_75t_R
*CAP
1 *1210:A 8.30315e-06
2 *758:B 1.17567e-05
3 *700:D 0
4 *699:C 0
5 *701:C 0
6 *681:B 0
7 *684:A 0
8 *694:D 0
9 *696:C 0
10 *1211:Y 0
11 *580:87 7.46941e-06
12 *580:74 3.15006e-06
13 *580:46 1.64138e-05
14 *580:38 4.77805e-05
15 *580:32 3.87537e-05
16 *580:28 1.69193e-05
17 *580:24 3.2306e-05
18 *580:18 3.61487e-05
19 *580:16 2.74603e-05
20 *580:14 5.18046e-05
21 *580:8 5.83576e-05
22 *580:6 1.28654e-05
23 *580:14 *700:A 1.62517e-06
24 *580:16 *700:A 2.90209e-08
25 *580:18 *700:A 1.04475e-06
26 *580:24 *613:46 2.98693e-05
27 *580:24 *613:61 2.63431e-05
28 *580:24 *614:29 1.65526e-05
29 *580:32 *685:B 0
30 *580:32 *614:29 2.22736e-06
31 *580:38 *685:B 0
32 *580:38 *694:B 1.02506e-06
33 *580:38 *614:29 1.95873e-06
34 *580:46 *613:61 5.79724e-07
35 *580:46 *614:56 7.45896e-06
36 *580:74 *614:25 4.97876e-07
37 *580:74 *614:27 1.41323e-06
38 *580:74 *614:29 1.09842e-06
39 *580:74 *614:76 7.84772e-07
40 *580:87 *699:A 1.12561e-05
41 *681:C *580:28 5.85624e-06
42 *700:B *580:14 2.88335e-06
43 *700:C *580:87 8.06436e-06
44 *203:12 *1210:A 9.08513e-06
45 *203:16 *1210:A 0
46 *203:16 *580:8 0
47 *203:24 *580:8 0
48 *204:20 *1210:A 3.65131e-06
49 *204:26 *1210:A 1.09842e-06
50 *204:26 *580:8 1.64764e-06
51 *233:23 *580:24 1.39013e-05
52 *234:8 *580:38 1.49407e-08
53 *234:8 *580:46 0
54 *237:6 *580:38 1.27782e-06
55 *237:21 *580:38 5.52807e-07
56 *238:8 *580:38 2.27786e-06
57 *247:8 *580:46 3.05118e-08
58 *248:29 *580:74 4.67779e-07
59 *248:29 *580:87 1.90925e-05
60 *249:8 *580:46 7.35354e-06
61 *249:14 *580:46 7.18471e-06
62 *251:10 *580:87 1.10281e-05
63 *252:8 *580:87 4.33445e-06
64 *254:10 *580:16 4.74894e-06
65 *254:10 *580:18 2.03526e-06
66 *428:10 *1210:A 0
67 *428:10 *580:8 0
68 *428:10 *580:14 0
*RES
1 *1211:Y *580:6 34.4 
2 *580:6 *580:8 3.94216 
3 *580:8 *580:14 40.2295 
4 *580:14 *580:16 4.2786 
5 *580:16 *580:18 4.81343 
6 *580:18 *580:24 42.4574 
7 *580:24 *580:28 23.0831 
8 *580:28 *580:32 22.8317 
9 *580:32 *580:38 33.5565 
10 *580:38 *580:46 46.6763 
11 *580:46 *696:C 17.2 
12 *580:38 *694:D 17.2 
13 *580:32 *684:A 34.4 
14 *580:28 *681:B 17.2 
15 *580:18 *580:74 37.2158 
16 *580:74 *701:C 17.2 
17 *580:16 *580:87 44.3669 
18 *580:87 *699:C 17.2 
19 *580:14 *700:D 17.2 
20 *580:8 *758:B 41.3527 
21 *580:6 *1210:A 41.5795 
*END

*D_NET *581 0.000148986
*CONN
*I *903:A I *D INVx1_ASAP7_75t_R
*I *715:C I *D OR4x1_ASAP7_75t_R
*I *708:C I *D OR4x1_ASAP7_75t_R
*I *1212:Y O *D BUFx3_ASAP7_75t_R
*CAP
1 *903:A 0
2 *715:C 0
3 *708:C 3.81267e-06
4 *1212:Y 1.96645e-05
5 *581:23 9.88647e-06
6 *581:8 4.80068e-05
7 *581:6 5.39722e-05
8 *581:8 *582:14 1.07377e-06
9 *581:8 *585:24 5.85387e-06
10 *581:23 *582:14 4.1009e-06
11 *581:23 *585:10 0
12 *581:23 *585:24 1.09842e-06
13 *1212:A *581:6 1.51653e-06
14 *257:8 *581:23 0
15 *325:20 *708:C 0
16 *325:20 *581:8 0
*RES
1 *1212:Y *581:6 26.292 
2 *581:6 *581:8 15.5099 
3 *581:8 *708:C 18.8045 
4 *581:8 *581:23 41.1013 
5 *581:23 *715:C 17.2 
6 *581:6 *903:A 17.2 
*END

*D_NET *582 0.000104658
*CONN
*I *715:B I *D OR4x1_ASAP7_75t_R
*I *708:B I *D OR4x1_ASAP7_75t_R
*I *1213:Y O *D BUFx3_ASAP7_75t_R
*CAP
1 *715:B 0
2 *708:B 0
3 *1213:Y 1.75065e-05
4 *582:14 9.68068e-06
5 *582:6 2.71872e-05
6 *582:6 *585:14 2.46694e-05
7 *582:6 *585:24 3.89037e-06
8 *582:14 *585:24 1.35814e-05
9 *266:16 *582:14 0
10 *325:20 *582:14 2.96818e-06
11 *581:8 *582:14 1.07377e-06
12 *581:23 *582:14 4.1009e-06
*RES
1 *1213:Y *582:6 26.292 
2 *582:6 *582:14 43.2973 
3 *582:14 *708:B 17.2 
4 *582:6 *715:B 17.2 
*END

*D_NET *583 2.69288e-05
*CONN
*I *906:A I *D NOR2x1_ASAP7_75t_R
*I *901:B I *D XOR2x2_ASAP7_75t_R
*I *1214:Y O *D BUFx3_ASAP7_75t_R
*CAP
1 *906:A 3.80741e-06
2 *901:B 0
3 *1214:Y 3.98682e-06
4 *583:12 5.67016e-06
5 *583:6 1.34644e-05
6 *129:10 *583:12 0
*RES
1 *1214:Y *583:6 18.8045 
2 *583:6 *583:12 37.779 
3 *583:12 *901:B 17.2 
4 *583:6 *906:A 18.8045 
*END

*D_NET *584 0.000486262
*CONN
*I *753:D I *D OR4x1_ASAP7_75t_R
*I *1218:A I *D BUFx3_ASAP7_75t_R
*I *1215:Y O *D BUFx3_ASAP7_75t_R
*CAP
1 *753:D 2.40332e-06
2 *1218:A 0
3 *1215:Y 5.28437e-06
4 *584:29 4.77968e-05
5 *584:27 5.09771e-05
6 *584:18 2.11533e-05
7 *584:12 0.000164667
8 *584:10 0.000149097
9 *584:8 5.28437e-06
10 *584:27 *587:14 5.96787e-07
11 *584:29 *587:34 0
12 *584:29 *587:51 2.70427e-06
13 *584:29 *618:8 1.67815e-06
14 *584:29 *662:10 0
15 *728:A *584:29 0
16 *196:10 *584:29 2.1664e-06
17 *196:14 *584:29 5.52807e-07
18 *196:27 *584:29 0
19 *197:16 *753:D 6.7842e-07
20 *258:12 *584:18 3.75158e-06
21 *258:31 *584:18 2.24968e-06
22 *272:14 *584:29 8.33296e-06
23 *274:14 *584:12 1.43515e-05
24 *310:18 *584:18 2.53656e-06
25 *310:18 *584:29 0
*RES
1 *1215:Y *584:8 37.779 
2 *584:8 *584:10 17.2 
3 *584:10 *584:12 54.0173 
4 *584:12 *584:18 47.3528 
5 *584:18 *1218:A 17.2 
6 *584:18 *584:27 19.8741 
7 *584:27 *584:29 33.2268 
8 *584:29 *753:D 35.4697 
*END

*D_NET *585 0.000626898
*CONN
*I *717:A I *D INVx1_ASAP7_75t_R
*I *902:A I *D XNOR2x2_ASAP7_75t_R
*I *729:A1 I *D OA31x2_ASAP7_75t_R
*I *737:B I *D OR5x1_ASAP7_75t_R
*I *715:A I *D OR4x1_ASAP7_75t_R
*I *708:A I *D OR4x1_ASAP7_75t_R
*I *1216:Y O *D BUFx3_ASAP7_75t_R
*CAP
1 *717:A 0
2 *902:A 0
3 *729:A1 1.68605e-06
4 *737:B 1.32474e-05
5 *715:A 0
6 *708:A 0
7 *1216:Y 0
8 *585:77 3.27606e-05
9 *585:66 6.23077e-05
10 *585:40 5.35905e-05
11 *585:38 9.70681e-05
12 *585:24 1.07259e-05
13 *585:14 1.67598e-05
14 *585:10 4.91935e-05
15 *585:4 7.20235e-05
16 *737:B *587:64 5.29249e-06
17 *737:B *662:10 0
18 *585:10 *1213:A 5.64865e-05
19 *585:14 *1213:A 3.13426e-06
20 *585:40 *726:B 3.16603e-06
21 *585:40 *727:A1 7.54709e-06
22 *585:40 *753:B 0
23 *585:40 *607:14 1.61287e-05
24 *585:40 *607:27 0
25 *585:40 *653:25 3.79923e-06
26 *585:40 *662:10 0
27 *585:66 *726:B 2.05883e-06
28 *585:66 *607:8 1.36943e-05
29 *585:66 *607:14 1.38249e-05
30 *585:66 *641:37 0
31 *585:77 *727:B 8.21017e-06
32 *585:77 *616:6 3.73144e-06
33 *585:77 *617:14 0
34 *585:77 *617:18 1.13547e-05
35 *270:8 *585:66 0
36 *270:8 *585:77 2.74606e-06
37 *272:6 *729:A1 1.04475e-06
38 *277:12 *585:40 0
39 *277:29 *737:B 8.1627e-06
40 *277:29 *585:40 3.6269e-06
41 *279:10 *729:A1 2.20493e-06
42 *281:10 *585:40 0
43 *325:24 *585:10 2.22736e-06
44 *564:8 *585:77 0
45 *581:8 *585:24 5.85387e-06
46 *581:23 *585:10 0
47 *581:23 *585:24 1.09842e-06
48 *582:6 *585:14 2.46694e-05
49 *582:6 *585:24 3.89037e-06
50 *582:14 *585:24 1.35814e-05
*RES
1 *1216:Y *585:4 17.2 
2 *585:4 *585:10 40.9874 
3 *585:10 *585:14 24.6875 
4 *585:14 *585:24 42.7058 
5 *585:24 *708:A 17.2 
6 *585:14 *715:A 17.2 
7 *585:4 *585:38 30.5706 
8 *585:38 *585:40 32.1005 
9 *585:40 *737:B 45.6066 
10 *585:40 *729:A1 36.0045 
11 *585:38 *585:66 36.3723 
12 *585:66 *902:A 17.2 
13 *585:66 *585:77 42.2874 
14 *585:77 *717:A 34.4 
*END

*D_NET *586 0.00017869
*CONN
*I *911:A I *D XOR2x2_ASAP7_75t_R
*I *1217:Y O *D BUFx3_ASAP7_75t_R
*CAP
1 *911:A 0
2 *1217:Y 2.60946e-05
3 *586:12 1.52732e-05
4 *586:8 4.13679e-05
5 *36:12 *586:12 2.18926e-05
6 *139:18 *586:12 1.49407e-08
7 *283:22 *586:8 1.12839e-05
8 *503:8 *586:12 6.27627e-05
*RES
1 *1217:Y *586:8 46.701 
2 *586:8 *586:12 38.6003 
3 *586:12 *911:A 17.2 
*END

*D_NET *587 0.000375388
*CONN
*I *737:C I *D OR5x1_ASAP7_75t_R
*I *734:B I *D OR2x2_ASAP7_75t_R
*I *728:B I *D NOR2x1_ASAP7_75t_R
*I *706:A I *D INVx1_ASAP7_75t_R
*I *723:C I *D AOI211x1_ASAP7_75t_R
*I *1218:Y O *D BUFx3_ASAP7_75t_R
*CAP
1 *737:C 1.15817e-06
2 *734:B 0
3 *728:B 0
4 *706:A 0
5 *723:C 0
6 *1218:Y 7.59404e-06
7 *587:64 3.66389e-05
8 *587:51 1.69132e-05
9 *587:34 2.16984e-05
10 *587:22 3.24796e-05
11 *587:14 7.46933e-05
12 *587:10 5.33928e-05
13 *587:6 4.94687e-05
14 *728:A *587:51 7.24542e-06
15 *737:A *587:64 4.34114e-06
16 *737:B *587:64 5.29249e-06
17 *258:16 *587:10 1.79955e-05
18 *258:16 *587:34 1.32095e-05
19 *258:16 *587:51 5.09995e-06
20 *258:31 *587:14 1.26391e-06
21 *258:31 *587:22 8.70044e-06
22 *272:6 *587:51 3.16328e-06
23 *273:14 *587:22 2.35211e-06
24 *273:18 *587:22 2.19336e-06
25 *277:29 *737:C 6.19506e-06
26 *281:10 *587:64 9.97906e-07
27 *304:10 *587:22 0
28 *584:27 *587:14 5.96787e-07
29 *584:29 *587:34 0
30 *584:29 *587:51 2.70427e-06
*RES
1 *1218:Y *587:6 20.9438 
2 *587:6 *587:10 23.3948 
3 *587:10 *587:14 32.7099 
4 *587:14 *587:22 49.067 
5 *587:22 *723:C 17.2 
6 *587:14 *706:A 17.2 
7 *587:10 *587:34 4.50533 
8 *587:34 *728:B 34.4 
9 *587:34 *587:51 48.7872 
10 *587:51 *734:B 34.4 
11 *587:6 *587:64 34.5128 
12 *587:64 *737:C 36.0045 
*END

*D_NET *588 0.000130486
*CONN
*I *912:C I *D OR4x1_ASAP7_75t_R
*I *913:A I *D NOR2x1_ASAP7_75t_R
*I *1219:Y O *D BUFx3_ASAP7_75t_R
*CAP
1 *912:C 0
2 *913:A 0
3 *1219:Y 1.45088e-05
4 *588:22 1.57412e-05
5 *588:14 2.02359e-05
6 *588:10 1.90035e-05
7 *588:10 *1219:A 7.58265e-07
8 *912:A *588:10 1.6136e-06
9 *912:A *588:22 0
10 *914:B *588:22 1.31716e-05
11 *275:28 *588:22 3.48165e-06
12 *275:39 *588:10 2.84286e-06
13 *275:39 *588:22 3.53295e-05
14 *324:18 *588:10 3.79923e-06
15 *324:22 *588:14 0
*RES
1 *1219:Y *588:10 45.0151 
2 *588:10 *588:14 18.8045 
3 *588:14 *588:22 48.9006 
4 *588:22 *913:A 17.2 
5 *588:14 *912:C 17.2 
*END

*D_NET *589 0.000253532
*CONN
*I *744:A1 I *D OAI21x1_ASAP7_75t_R
*I *743:B I *D OR3x1_ASAP7_75t_R
*I *917:A I *D NOR2x1p5_ASAP7_75t_R
*I *1220:Y O *D BUFx3_ASAP7_75t_R
*CAP
1 *744:A1 0
2 *743:B 4.38269e-06
3 *917:A 0
4 *1220:Y 6.20162e-06
5 *589:42 3.60297e-05
6 *589:36 4.45583e-05
7 *589:23 2.39917e-05
8 *589:10 4.27184e-05
9 *589:8 3.78396e-05
10 *743:B *743:C 1.44167e-06
11 *743:B *621:16 3.73144e-06
12 *589:10 *1220:A 8.58704e-06
13 *589:10 *621:10 0
14 *589:10 *623:12 0
15 *589:36 *916:B 1.25267e-05
16 *589:36 *621:27 8.06436e-06
17 *589:42 *744:A2 2.20966e-06
18 *589:42 *623:20 2.20966e-06
19 *589:42 *623:35 0
20 *1256:A *589:10 0
21 *294:6 *589:23 6.78445e-06
22 *295:6 *743:B 1.56713e-06
23 *295:6 *589:23 2.90209e-08
24 *321:25 *589:42 3.49456e-06
25 *321:35 *589:36 0
26 *442:16 *589:42 6.61478e-06
27 *443:10 *589:23 5.49212e-07
28 *443:10 *589:36 0
29 *444:8 *589:10 0
30 *444:8 *589:23 0
*RES
1 *1220:Y *589:8 37.0741 
2 *589:8 *589:10 25.9056 
3 *589:10 *917:A 34.4 
4 *589:10 *589:23 25.8989 
5 *589:23 *743:B 20.9438 
6 *589:23 *589:36 41.158 
7 *589:36 *589:42 37.3853 
8 *589:42 *744:A1 34.4 
*END

*D_NET *590 0.000235495
*CONN
*I *919:A I *D XNOR2x2_ASAP7_75t_R
*I *742:A I *D INVx1_ASAP7_75t_R
*I *750:B I *D OR5x1_ASAP7_75t_R
*I *1221:Y O *D BUFx3_ASAP7_75t_R
*CAP
1 *919:A 0
2 *742:A 8.78352e-06
3 *750:B 6.74603e-06
4 *1221:Y 0
5 *590:38 3.4671e-05
6 *590:25 5.87936e-05
7 *590:12 3.01489e-05
8 *590:4 3.8742e-05
9 *590:12 *1217:A 2.28884e-06
10 *590:12 *602:12 9.93857e-06
11 *750:E *590:12 6.33206e-07
12 *750:E *590:25 0
13 *920:A *742:A 6.7842e-07
14 *920:A *590:38 7.46759e-06
15 *104:8 *590:38 1.54378e-05
16 *192:10 *590:25 0
17 *192:12 *750:B 1.1488e-05
18 *301:10 *590:25 9.67723e-06
19 *446:10 *590:38 0
*RES
1 *1221:Y *590:4 17.2 
2 *590:4 *590:12 46.871 
3 *590:12 *750:B 20.409 
4 *590:4 *590:25 46.2265 
5 *590:25 *742:A 20.9438 
6 *590:25 *590:38 37.7784 
7 *590:38 *919:A 34.4 
*END

*D_NET *591 0.000149159
*CONN
*I *786:A1 I *D OAI21x1_ASAP7_75t_R
*I *926:A I *D NOR2x1_ASAP7_75t_R
*I *1222:Y O *D BUFx3_ASAP7_75t_R
*CAP
1 *786:A1 0
2 *926:A 5.28395e-06
3 *1222:Y 2.02427e-06
4 *591:16 3.84612e-05
5 *591:12 4.3198e-05
6 *591:8 1.2045e-05
7 *591:8 *785:C 0
8 *591:8 *627:27 0
9 *591:12 *627:27 6.7842e-07
10 *591:16 *785:C 6.33206e-07
11 *591:16 *626:10 0
12 *591:16 *626:25 7.87863e-06
13 *591:16 *627:40 0
14 *926:B *926:A 9.08513e-06
15 *1294:A *591:16 2.22736e-06
16 *184:36 *591:8 8.58188e-06
17 *450:10 *591:16 9.11516e-06
18 *532:8 *591:16 9.94685e-06
*RES
1 *1222:Y *591:8 37.2158 
2 *591:8 *591:12 23.0831 
3 *591:12 *591:16 46.4846 
4 *591:16 *926:A 37.0741 
5 *591:12 *786:A1 17.2 
*END

*D_NET *592 0.00024306
*CONN
*I *921:B I *D XNOR2x2_ASAP7_75t_R
*I *745:B I *D OR2x2_ASAP7_75t_R
*I *750:C I *D OR5x1_ASAP7_75t_R
*I *1223:Y O *D BUFx3_ASAP7_75t_R
*CAP
1 *921:B 0
2 *745:B 4.34078e-06
3 *750:C 2.03047e-06
4 *1223:Y 2.58925e-05
5 *592:36 2.49365e-05
6 *592:23 4.58905e-05
7 *592:10 4.45362e-05
8 *592:10 *602:12 1.61287e-05
9 *592:10 *654:51 5.09299e-06
10 *592:10 *660:14 1.76928e-06
11 *592:23 *602:12 2.96923e-05
12 *592:23 *602:16 1.64764e-06
13 *592:23 *625:8 1.692e-05
14 *592:36 *602:16 1.37455e-06
15 *1256:A *592:23 0
16 *188:8 *592:10 0
17 *188:8 *592:23 0
18 *192:12 *750:C 5.85387e-06
19 *296:8 *745:B 1.04475e-06
20 *296:8 *592:36 2.66992e-06
21 *299:6 *750:C 2.03526e-06
22 *301:10 *592:36 1.12039e-05
*RES
1 *1223:Y *592:10 49.1237 
2 *592:10 *750:C 36.0045 
3 *592:10 *592:23 34.6581 
4 *592:23 *745:B 19.8741 
5 *592:23 *592:36 34.233 
6 *592:36 *921:B 34.4 
*END

*D_NET *593 8.54412e-05
*CONN
*I *923:A I *D XOR2x2_ASAP7_75t_R
*I *1224:Y O *D BUFx3_ASAP7_75t_R
*CAP
1 *923:A 1.9279e-05
2 *1224:Y 5.20164e-06
3 *593:8 2.44806e-05
4 *1228:A *593:8 1.32768e-05
5 *8:10 *593:8 2.32031e-05
*RES
1 *1224:Y *593:8 42.2843 
2 *593:8 *923:A 43.492 
*END

*D_NET *594 5.64833e-05
*CONN
*I *795:A I *D OR4x1_ASAP7_75t_R
*I *783:A I *D INVx1_ASAP7_75t_R
*I *1225:Y O *D BUFx3_ASAP7_75t_R
*CAP
1 *795:A 8.21679e-06
2 *783:A 0
3 *1225:Y 1.73959e-05
4 *594:8 2.56127e-05
5 *788:B *795:A 0
6 *795:D *594:8 0
7 *179:50 *594:8 0
8 *180:23 *594:8 0
9 *335:8 *795:A 5.25794e-06
10 *451:22 *795:A 0
11 *451:22 *594:8 0
*RES
1 *1225:Y *594:8 46.2265 
2 *594:8 *783:A 34.4 
3 *594:8 *795:A 40.9596 
*END

*D_NET *595 5.14453e-05
*CONN
*I *928:B I *D XNOR2x2_ASAP7_75t_R
*I *1226:Y O *D BUFx3_ASAP7_75t_R
*CAP
1 *928:B 0
2 *1226:Y 2.35258e-05
3 *595:10 2.35258e-05
4 *10:6 *595:10 0
5 *88:15 *595:10 2.19685e-06
6 *529:12 *595:10 2.19685e-06
*RES
1 *1226:Y *595:10 46.9277 
2 *595:10 *928:B 34.4 
*END

*D_NET *596 4.66163e-05
*CONN
*I *930:B I *D XNOR2x2_ASAP7_75t_R
*I *1227:Y O *D BUFx3_ASAP7_75t_R
*CAP
1 *930:B 9.45337e-06
2 *1227:Y 7.59682e-06
3 *596:8 1.70502e-05
4 *179:12 *596:8 4.45472e-06
5 *453:10 *930:B 8.06117e-06
*RES
1 *1227:Y *596:8 41.158 
2 *596:8 *930:B 41.3527 
*END

*D_NET *597 5.29824e-05
*CONN
*I *1224:A I *D BUFx3_ASAP7_75t_R
*I *1228:Y O *D BUFx3_ASAP7_75t_R
*CAP
1 *1224:A 1.7043e-05
2 *1228:Y 5.42354e-06
3 *597:8 2.24666e-05
4 *791:A1 *1224:A 3.05245e-06
5 *8:10 *597:8 4.99685e-06
*RES
1 *1228:Y *597:8 38.9053 
2 *597:8 *1224:A 42.4224 
*END

*D_NET *598 0.000137123
*CONN
*I *934:A I *D INVx1_ASAP7_75t_R
*I *932:B I *D XOR2x2_ASAP7_75t_R
*I *1229:Y O *D BUFx3_ASAP7_75t_R
*CAP
1 *934:A 4.18439e-06
2 *932:B 0
3 *1229:Y 6.35452e-06
4 *598:14 1.88818e-05
5 *598:10 4.5105e-05
6 *598:8 2.83933e-05
7 *963:A *598:14 2.3386e-05
8 *177:10 *598:10 0
9 *177:10 *598:14 0
10 *455:8 *598:10 1.64348e-06
11 *456:10 *598:10 9.17492e-06
*RES
1 *1229:Y *598:8 37.0741 
2 *598:8 *598:10 17.4581 
3 *598:10 *598:14 33.5318 
4 *598:14 *932:B 17.2 
5 *598:10 *934:A 36.0045 
*END

*D_NET *599 3.99887e-05
*CONN
*I *933:A I *D XNOR2x2_ASAP7_75t_R
*I *1230:Y O *D BUFx3_ASAP7_75t_R
*CAP
1 *933:A 0
2 *1230:Y 1.96777e-05
3 *599:8 1.96777e-05
4 *173:14 *599:8 6.33206e-07
5 *174:8 *599:8 0
*RES
1 *1230:Y *599:8 46.2265 
2 *599:8 *933:A 34.4 
*END

*D_NET *600 7.17294e-05
*CONN
*I *1274:A I *D BUFx6f_ASAP7_75t_R
*I *877:A1 I *D AOI21x1_ASAP7_75t_R
*I *1231:Y O *D BUFx3_ASAP7_75t_R
*CAP
1 *1274:A 0
2 *877:A1 1.41112e-05
3 *1231:Y 1.58369e-05
4 *600:8 2.99481e-05
5 *396:10 *600:8 0
6 *403:8 *600:8 1.02072e-05
7 *404:16 *877:A1 5.0551e-07
8 *405:44 *600:8 1.12055e-06
*RES
1 *1231:Y *600:8 46.2265 
2 *600:8 *877:A1 41.9726 
3 *600:8 *1274:A 34.4 
*END

*D_NET *601 7.68253e-05
*CONN
*I *940:A I *D XOR2x2_ASAP7_75t_R
*I *811:B I *D AOI21x1_ASAP7_75t_R
*I *1232:Y O *D BUFx3_ASAP7_75t_R
*CAP
1 *940:A 1.47528e-05
2 *811:B 0
3 *1232:Y 8.01673e-06
4 *601:18 1.49651e-05
5 *601:10 2.97179e-05
6 *601:8 8.01673e-06
7 *171:18 *601:18 8.06799e-07
8 *359:10 *601:8 0
9 *359:10 *601:18 5.49212e-07
10 *543:8 *601:8 0
*RES
1 *1232:Y *601:8 40.0317 
2 *601:8 *601:10 17.2 
3 *601:10 *601:18 44.1686 
4 *601:18 *811:B 17.2 
5 *601:10 *940:A 26.292 
*END

*D_NET *602 0.000264143
*CONN
*I *1219:A I *D BUFx3_ASAP7_75t_R
*I *1233:Y O *D BUFx3_ASAP7_75t_R
*CAP
1 *1219:A 1.59954e-05
2 *1233:Y 0
3 *602:16 6.57239e-05
4 *602:14 4.97285e-05
5 *602:12 2.4502e-05
6 *602:6 2.4502e-05
7 *602:12 *654:51 0
8 *602:16 *921:A 9.77825e-06
9 *602:16 *625:8 1.00883e-05
10 *746:B *602:16 2.43534e-06
11 *188:8 *602:12 0
12 *298:8 *602:12 1.59615e-06
13 *301:10 *602:12 0
14 *301:10 *602:16 0
15 *321:41 *602:16 0
16 *324:12 *1219:A 2.52755e-07
17 *588:10 *1219:A 7.58265e-07
18 *590:12 *602:12 9.93857e-06
19 *592:10 *602:12 1.61287e-05
20 *592:23 *602:12 2.96923e-05
21 *592:23 *602:16 1.64764e-06
22 *592:36 *602:16 1.37455e-06
*RES
1 *1233:Y *602:6 34.4 
2 *602:6 *602:12 38.4586 
3 *602:12 *602:14 17.2 
4 *602:14 *602:16 40.548 
5 *602:16 *1219:A 44.5617 
*END

*D_NET *603 0.000438527
*CONN
*I *942:A I *D XOR2x2_ASAP7_75t_R
*I *946:A I *D NOR2x1_ASAP7_75t_R
*I *849:D I *D OR5x1_ASAP7_75t_R
*I *830:A I *D NOR2x1_ASAP7_75t_R
*I *829:A I *D OR4x2_ASAP7_75t_R
*I *1234:Y O *D BUFx3_ASAP7_75t_R
*CAP
1 *942:A 1.82804e-06
2 *946:A 0
3 *849:D 0
4 *830:A 0
5 *829:A 1.45879e-05
6 *1234:Y 0
7 *603:62 3.856e-05
8 *603:41 5.92439e-06
9 *603:35 2.00107e-05
10 *603:18 6.19086e-05
11 *603:14 4.60347e-05
12 *603:12 3.5895e-05
13 *603:4 5.98267e-05
14 *603:14 *659:12 6.78445e-06
15 *603:18 *659:12 2.36609e-05
16 *603:35 *659:8 0
17 *828:A *603:35 2.01215e-05
18 *849:B *603:41 2.05883e-06
19 *964:A *603:62 6.62106e-06
20 *964:B *603:62 0
21 *1145:A *942:A 2.03526e-06
22 *17:10 *603:62 2.22736e-06
23 *49:22 *603:62 0
24 *114:8 *603:62 0
25 *115:10 *942:A 5.62196e-06
26 *115:10 *603:62 8.33296e-06
27 *149:8 *603:62 0
28 *167:12 *603:12 3.53857e-06
29 *167:12 *603:62 1.01102e-06
30 *167:20 *603:12 2.66797e-07
31 *167:20 *603:14 5.41446e-06
32 *168:27 *603:12 2.74606e-06
33 *169:30 *829:A 0
34 *169:30 *603:18 8.146e-06
35 *376:25 *603:41 5.37569e-06
36 *378:12 *603:41 5.21648e-06
37 *378:51 *829:A 9.1618e-06
38 *378:51 *603:35 2.83449e-06
39 *378:51 *603:41 5.79724e-07
40 *382:6 *603:35 1.2768e-05
41 *382:10 *603:35 7.35354e-06
42 *537:25 *829:A 1.20741e-05
*RES
1 *1234:Y *603:4 17.2 
2 *603:4 *603:12 47.4342 
3 *603:12 *603:14 9.09202 
4 *603:14 *603:18 44.4761 
5 *603:18 *829:A 46.733 
6 *603:18 *603:35 29.8411 
7 *603:35 *603:41 40.0317 
8 *603:41 *830:A 17.2 
9 *603:35 *849:D 17.2 
10 *603:14 *946:A 17.2 
11 *603:4 *603:62 44.6534 
12 *603:62 *942:A 36.0045 
*END

*D_NET *604 9.20811e-05
*CONN
*I *766:A2 I *D AOI21x1_ASAP7_75t_R
*I *1235:Y O *D BUFx3_ASAP7_75t_R
*CAP
1 *766:A2 0
2 *1235:Y 1.26335e-05
3 *604:12 1.89251e-05
4 *604:8 3.15586e-05
5 *139:18 *604:12 0
6 *297:35 *604:12 0
7 *301:55 *604:8 2.12481e-06
8 *301:55 *604:12 3.47607e-06
9 *315:16 *604:12 0
10 *316:10 *604:8 8.06588e-06
11 *317:10 *604:12 7.75e-06
12 *558:8 *604:12 7.54709e-06
*RES
1 *1235:Y *604:8 43.492 
2 *604:8 *604:12 34.6581 
3 *604:12 *766:A2 17.2 
*END

*D_NET *605 0.000359528
*CONN
*I *856:C I *D OR3x1_ASAP7_75t_R
*I *853:C I *D OR3x1_ASAP7_75t_R
*I *847:A1 I *D OAI21x1_ASAP7_75t_R
*I *950:A I *D XNOR2x2_ASAP7_75t_R
*I *1236:Y O *D BUFx3_ASAP7_75t_R
*CAP
1 *856:C 7.4596e-06
2 *853:C 0
3 *847:A1 0
4 *950:A 4.53939e-05
5 *1236:Y 6.82471e-06
6 *605:48 1.13763e-05
7 *605:40 3.02069e-05
8 *605:22 4.77036e-05
9 *605:16 5.53067e-05
10 *605:10 6.3237e-05
11 *605:8 2.84357e-05
12 *605:8 *630:44 4.45472e-06
13 *605:10 *630:44 5.52264e-06
14 *605:16 *630:44 1.89833e-06
15 *847:B *605:48 8.33296e-06
16 *856:B *856:C 6.70433e-06
17 *856:B *605:40 2.03526e-06
18 *162:12 *605:48 1.69273e-05
19 *163:12 *605:8 0
20 *163:12 *605:10 0
21 *163:12 *605:16 0
22 *385:8 *950:A 6.70433e-06
23 *385:39 *856:C 3.68287e-06
24 *394:10 *605:10 2.35211e-06
25 *394:10 *605:16 2.35211e-06
26 *395:8 *605:16 2.25787e-06
27 *397:16 *605:22 3.58577e-07
28 *400:12 *605:22 0
29 *404:10 *605:48 0
*RES
1 *1236:Y *605:8 41.158 
2 *605:8 *605:10 10.137 
3 *605:10 *605:16 37.1817 
4 *605:16 *605:22 35.8079 
5 *605:22 *950:A 43.4064 
6 *605:10 *847:A1 34.4 
7 *605:8 *605:40 23.0831 
8 *605:40 *605:48 43.8888 
9 *605:48 *853:C 17.2 
10 *605:40 *856:C 23.6179 
*END

*D_NET *606 1.43073e-05
*CONN
*I *959:A I *D FAx1_ASAP7_75t_R
*I *1237:Y O *D BUFx3_ASAP7_75t_R
*CAP
1 *959:A 0
2 *1237:Y 4.31693e-06
3 *606:8 4.31693e-06
4 *28:18 *606:8 0
5 *208:8 *606:8 5.67344e-06
*RES
1 *1237:Y *606:8 38.9053 
2 *606:8 *959:A 17.2 
*END

*D_NET *607 0.000155193
*CONN
*I *726:C I *D NOR3x1_ASAP7_75t_R
*I *727:A2 I *D OA21x2_ASAP7_75t_R
*I *719:A2 I *D OAI21x1_ASAP7_75t_R
*I *1238:Y O *D BUFx3_ASAP7_75t_R
*CAP
1 *726:C 0
2 *727:A2 0
3 *719:A2 0
4 *1238:Y 1.5537e-05
5 *607:27 9.07336e-06
6 *607:14 3.00966e-05
7 *607:8 3.65603e-05
8 *607:8 *641:37 0
9 *607:8 *641:41 0
10 *607:14 *641:41 0
11 *607:14 *653:23 4.92332e-06
12 *607:27 *727:A1 4.42421e-06
13 *607:27 *653:25 5.49212e-07
14 *201:12 *607:8 0
15 *277:12 *607:27 1.03816e-05
16 *585:40 *607:14 1.61287e-05
17 *585:40 *607:27 0
18 *585:66 *607:8 1.36943e-05
19 *585:66 *607:14 1.38249e-05
*RES
1 *1238:Y *607:8 47.3528 
2 *607:8 *607:14 33.2201 
3 *607:14 *719:A2 17.2 
4 *607:14 *607:27 43.8888 
5 *607:27 *727:A2 17.2 
6 *607:8 *726:C 34.4 
*END

*D_NET *608 0.000352937
*CONN
*I *665:C I *D OR3x1_ASAP7_75t_R
*I *671:A2 I *D OA21x2_ASAP7_75t_R
*I *666:A2 I *D OAI21x1_ASAP7_75t_R
*I *859:A I *D INVx1_ASAP7_75t_R
*I *1239:Y O *D BUFx3_ASAP7_75t_R
*CAP
1 *665:C 0
2 *671:A2 1.09998e-05
3 *666:A2 0
4 *859:A 2.18992e-05
5 *1239:Y 0
6 *608:53 8.76756e-06
7 *608:36 3.10595e-05
8 *608:30 3.84022e-05
9 *608:17 4.4613e-05
10 *608:15 5.84274e-05
11 *608:4 4.52887e-05
12 *608:36 *666:B 5.00816e-06
13 *665:B *608:36 0
14 *665:B *608:53 2.84286e-06
15 *671:B *671:A2 6.0212e-06
16 *130:10 *859:A 0
17 *214:21 *608:36 2.01457e-05
18 *214:38 *671:A2 1.35684e-06
19 *214:38 *608:36 6.33206e-07
20 *216:14 *859:A 2.63228e-06
21 *216:14 *608:15 1.75265e-06
22 *220:8 *608:53 1.34329e-05
23 *224:8 *608:17 2.22736e-06
24 *224:8 *608:30 5.49212e-07
25 *224:8 *608:53 2.0153e-05
26 *573:25 *608:36 9.67251e-06
27 *573:41 *608:17 3.6269e-06
28 *573:41 *608:30 3.42494e-06
*RES
1 *1239:Y *608:4 17.2 
2 *608:4 *859:A 26.292 
3 *608:4 *608:15 27.3617 
4 *608:15 *608:17 28.1583 
5 *608:17 *666:A2 34.4 
6 *608:17 *608:30 23.7029 
7 *608:30 *608:36 34.1197 
8 *608:36 *671:A2 41.3527 
9 *608:30 *608:53 43.2973 
10 *608:53 *665:C 17.2 
*END

*D_NET *609 2.20788e-05
*CONN
*I *666:B I *D OAI21x1_ASAP7_75t_R
*I *1240:Y O *D BUFx3_ASAP7_75t_R
*CAP
1 *666:B 3.99277e-06
2 *1240:Y 3.99277e-06
3 *573:41 *666:B 9.08513e-06
4 *608:36 *666:B 5.00816e-06
*RES
1 *1240:Y *666:B 38.1438 
*END

*D_NET *610 0.000112041
*CONN
*I *773:A I *D AND5x1_ASAP7_75t_R
*I *667:A I *D OR2x2_ASAP7_75t_R
*I *771:A I *D NOR2x1_ASAP7_75t_R
*I *1241:Y O *D BUFx3_ASAP7_75t_R
*CAP
1 *773:A 0
2 *667:A 0
3 *771:A 0
4 *1241:Y 6.44197e-06
5 *610:38 1.15883e-05
6 *610:25 1.56853e-05
7 *610:18 9.89865e-06
8 *610:12 2.24606e-05
9 *610:8 1.49069e-05
10 *667:B *610:25 7.72307e-07
11 *667:B *610:38 5.0551e-07
12 *668:A3 *610:38 0
13 *124:8 *610:8 0
14 *574:25 *610:18 5.79724e-07
15 *574:27 *610:8 0
16 *574:27 *610:18 2.22736e-06
17 *574:27 *610:38 2.0153e-05
18 *575:16 *610:12 1.59615e-06
19 *575:16 *610:18 5.22486e-06
*RES
1 *1241:Y *610:8 38.9053 
2 *610:8 *610:12 22.0134 
3 *610:12 *610:18 42.2843 
4 *610:18 *771:A 17.2 
5 *610:12 *610:25 2.67412 
6 *610:25 *667:A 17.2 
7 *610:25 *610:38 43.8321 
8 *610:38 *773:A 17.2 
*END

*D_NET *611 0.000321053
*CONN
*I *674:B I *D NAND3x2_ASAP7_75t_R
*I *687:A I *D AND3x1_ASAP7_75t_R
*I *688:B I *D AOI21x1_ASAP7_75t_R
*I *675:B I *D AO21x2_ASAP7_75t_R
*I *1242:Y O *D BUFx3_ASAP7_75t_R
*CAP
1 *674:B 7.43526e-06
2 *687:A 6.7374e-06
3 *688:B 7.55574e-06
4 *675:B 0
5 *1242:Y 1.08098e-05
6 *611:29 2.82681e-05
7 *611:25 3.56251e-05
8 *611:23 2.16501e-05
9 *611:16 1.48296e-05
10 *611:10 2.11785e-05
11 *611:8 2.45939e-05
12 *674:B *656:8 5.78114e-06
13 *674:C *674:B 0
14 *675:A1 *611:25 2.20493e-06
15 *675:A2 *611:25 2.83523e-05
16 *1242:A *611:10 0
17 *1242:A *611:25 1.90474e-05
18 *210:14 *611:25 1.77431e-05
19 *226:10 *687:A 3.3563e-06
20 *226:10 *611:29 4.42421e-06
21 *229:8 *611:16 5.62196e-06
22 *559:14 *611:16 1.73158e-05
23 *559:20 *611:16 3.8522e-05
24 *570:10 *611:10 0
*RES
1 *1242:Y *611:8 41.3527 
2 *611:8 *611:10 2.81583 
3 *611:10 *611:16 41.887 
4 *611:16 *675:B 17.2 
5 *611:10 *611:23 17.2 
6 *611:23 *611:25 35.8333 
7 *611:25 *611:29 27.337 
8 *611:29 *688:B 38.1438 
9 *611:29 *687:A 40.0317 
10 *611:8 *674:B 40.0317 
*END

*D_NET *612 0.00019966
*CONN
*I *691:B I *D AO31x2_ASAP7_75t_R
*I *686:A I *D INVx1_ASAP7_75t_R
*I *711:B1 I *D OA31x2_ASAP7_75t_R
*I *1243:Y O *D BUFx3_ASAP7_75t_R
*CAP
1 *691:B 0
2 *686:A 0
3 *711:B1 1.35624e-05
4 *1243:Y 1.7079e-05
5 *612:40 1.56885e-05
6 *612:25 2.33265e-05
7 *612:8 3.82793e-05
8 *612:40 *644:14 9.67723e-06
9 *100:12 *612:8 3.31198e-05
10 *100:12 *612:40 7.98105e-06
11 *209:23 *711:B1 9.67723e-06
12 *209:31 *711:B1 3.65131e-06
13 *229:14 *612:40 5.09299e-06
14 *229:24 *711:B1 8.58704e-06
15 *229:24 *612:40 4.36464e-06
16 *239:10 *711:B1 0
17 *239:10 *612:40 4.10928e-06
18 *499:8 *612:25 0
19 *547:8 *711:B1 1.64764e-06
20 *548:14 *711:B1 3.81627e-06
21 *576:21 *711:B1 0
22 *576:21 *612:25 0
*RES
1 *1243:Y *612:8 44.5617 
2 *612:8 *711:B1 48.3374 
3 *612:8 *612:25 22.1835 
4 *612:25 *686:A 17.2 
5 *612:25 *612:40 49.7152 
6 *612:40 *691:B 17.2 
*END

*D_NET *613 0.000461568
*CONN
*I *695:A I *D INVx1_ASAP7_75t_R
*I *694:B I *D OR4x1_ASAP7_75t_R
*I *699:A I *D OR4x1_ASAP7_75t_R
*I *681:A I *D OR3x1_ASAP7_75t_R
*I *685:B I *D AND3x1_ASAP7_75t_R
*I *1244:Y O *D BUFx3_ASAP7_75t_R
*CAP
1 *695:A 0
2 *694:B 1.23625e-05
3 *699:A 1.04936e-05
4 *681:A 7.88857e-06
5 *685:B 1.14168e-05
6 *1244:Y 2.29058e-05
7 *613:61 2.51983e-05
8 *613:55 1.74042e-05
9 *613:46 1.57759e-05
10 *613:40 2.49835e-05
11 *613:18 2.9479e-05
12 *613:12 2.53064e-05
13 *613:10 2.29058e-05
14 *685:B *614:29 0
15 *694:B *614:56 9.75645e-06
16 *613:10 *614:29 0
17 *613:10 *658:8 1.3295e-05
18 *613:18 *614:29 0
19 *613:46 *614:29 3e-05
20 *613:61 *614:29 1.64764e-06
21 *681:C *613:61 4.97654e-06
22 *699:B *699:A 2.71368e-06
23 *205:21 *613:10 2.11853e-06
24 *207:31 *613:10 5.0551e-07
25 *232:17 *685:B 3.03495e-05
26 *232:17 *613:10 7.87025e-06
27 *232:17 *613:18 2.2412e-05
28 *233:12 *699:A 3.48165e-06
29 *233:23 *699:A 1.44167e-06
30 *233:23 *613:61 1.46465e-05
31 *234:8 *613:61 5.67735e-06
32 *237:21 *685:B 1.03237e-05
33 *252:8 *699:A 1.59615e-06
34 *577:6 *613:40 7.63254e-07
35 *577:6 *613:55 2.79851e-06
36 *577:17 *613:61 0
37 *580:24 *613:46 2.98693e-05
38 *580:24 *613:61 2.63431e-05
39 *580:32 *685:B 0
40 *580:38 *685:B 0
41 *580:38 *694:B 1.02506e-06
42 *580:46 *613:61 5.79724e-07
43 *580:87 *699:A 1.12561e-05
*RES
1 *1244:Y *613:10 49.1804 
2 *613:10 *613:12 17.2 
3 *613:12 *613:18 26.6888 
4 *613:18 *685:B 46.1415 
5 *613:18 *681:A 38.6786 
6 *613:12 *613:40 9.09202 
7 *613:40 *613:46 44.537 
8 *613:46 *699:A 24.6875 
9 *613:40 *613:55 2.67412 
10 *613:55 *613:61 49.6055 
11 *613:61 *694:B 24.1527 
12 *613:55 *695:A 17.2 
*END

*D_NET *614 0.000623401
*CONN
*I *899:A I *D XNOR2x2_ASAP7_75t_R
*I *700:A I *D OR4x1_ASAP7_75t_R
*I *701:A I *D OR3x1_ASAP7_75t_R
*I *694:A I *D OR4x1_ASAP7_75t_R
*I *683:A I *D INVx1_ASAP7_75t_R
*I *680:A I *D NAND2x1_ASAP7_75t_R
*I *1245:Y O *D BUFx3_ASAP7_75t_R
*CAP
1 *899:A 0
2 *700:A 1.45731e-05
3 *701:A 0
4 *694:A 0
5 *683:A 0
6 *680:A 0
7 *1245:Y 0
8 *614:91 2.8639e-05
9 *614:76 2.5594e-05
10 *614:56 2.5793e-05
11 *614:41 3.87095e-05
12 *614:31 6.45025e-05
13 *614:29 3.31173e-05
14 *614:27 3.39189e-05
15 *614:25 3.30591e-05
16 *614:23 5.46915e-05
17 *614:14 2.64371e-05
18 *614:4 3.12529e-05
19 *614:29 *658:8 0
20 *685:B *614:29 0
21 *694:B *614:56 9.75645e-06
22 *694:C *614:56 7.80516e-06
23 *700:B *700:A 7.80516e-06
24 *700:C *700:A 1.66706e-05
25 *898:A *614:25 0
26 *898:A *614:91 0
27 *899:B *614:91 8.23084e-06
28 *203:30 *614:25 0
29 *204:20 *614:14 4.75943e-06
30 *204:20 *614:23 2.0895e-06
31 *205:21 *614:14 4.10928e-06
32 *232:17 *614:41 0
33 *233:8 *614:25 2.86811e-06
34 *233:8 *614:27 1.00689e-06
35 *233:8 *614:29 2.22736e-06
36 *234:8 *614:29 2.21127e-05
37 *237:29 *614:41 6.33206e-07
38 *248:29 *614:25 0
39 *248:29 *614:76 4.88445e-06
40 *249:14 *614:56 7.37651e-06
41 *253:8 *700:A 2.71368e-06
42 *254:10 *700:A 1.711e-05
43 *307:8 *614:41 0
44 *325:8 *614:29 5.19818e-06
45 *325:14 *614:76 2.74614e-06
46 *567:6 *614:14 1.08167e-05
47 *567:14 *614:25 0
48 *577:30 *614:56 5.85387e-06
49 *580:14 *700:A 1.62517e-06
50 *580:16 *700:A 2.90209e-08
51 *580:18 *700:A 1.04475e-06
52 *580:24 *614:29 1.65526e-05
53 *580:32 *614:29 2.22736e-06
54 *580:38 *614:29 1.95873e-06
55 *580:46 *614:56 7.45896e-06
56 *580:74 *614:25 4.97876e-07
57 *580:74 *614:27 1.41323e-06
58 *580:74 *614:29 1.09842e-06
59 *580:74 *614:76 7.84772e-07
60 *613:10 *614:29 0
61 *613:18 *614:29 0
62 *613:46 *614:29 3e-05
63 *613:61 *614:29 1.64764e-06
*RES
1 *1245:Y *614:4 17.2 
2 *614:4 *614:14 47.9407 
3 *614:14 *680:A 17.2 
4 *614:4 *614:23 19.8741 
5 *614:23 *614:25 15.2993 
6 *614:25 *614:27 1.59564 
7 *614:27 *614:29 34.0715 
8 *614:29 *614:31 17.2 
9 *614:31 *614:41 48.1481 
10 *614:41 *683:A 17.2 
11 *614:31 *614:56 46.1909 
12 *614:56 *694:A 17.2 
13 *614:27 *701:A 34.4 
14 *614:25 *614:76 39.8628 
15 *614:76 *700:A 45.6313 
16 *614:23 *614:91 36.5991 
17 *614:91 *899:A 17.2 
*END

*D_NET *615 8.48051e-05
*CONN
*I *705:A I *D XNOR2x2_ASAP7_75t_R
*I *708:D I *D OR4x1_ASAP7_75t_R
*I *1246:Y O *D BUFx3_ASAP7_75t_R
*CAP
1 *705:A 0
2 *708:D 1.4199e-05
3 *1246:Y 1.32432e-05
4 *615:8 2.74422e-05
5 *266:10 *615:8 9.17492e-06
6 *266:16 *708:D 1.44908e-05
7 *266:16 *615:8 4.89331e-06
8 *325:20 *708:D 1.36155e-06
*RES
1 *1246:Y *615:8 46.2265 
2 *615:8 *708:D 46.733 
3 *615:8 *705:A 34.4 
*END

*D_NET *616 6.20417e-05
*CONN
*I *902:B I *D XNOR2x2_ASAP7_75t_R
*I *1247:Y O *D BUFx3_ASAP7_75t_R
*CAP
1 *902:B 0
2 *1247:Y 2.91551e-05
3 *616:6 2.91551e-05
4 *585:77 *616:6 3.73144e-06
*RES
1 *1247:Y *616:6 33.7796 
2 *616:6 *902:B 17.2 
*END

*D_NET *617 0.000215828
*CONN
*I *1247:A I *D BUFx3_ASAP7_75t_R
*I *726:A I *D NOR3x1_ASAP7_75t_R
*I *719:B I *D OAI21x1_ASAP7_75t_R
*I *727:B I *D OA21x2_ASAP7_75t_R
*I *1248:Y O *D BUFx3_ASAP7_75t_R
*CAP
1 *1247:A 0
2 *726:A 0
3 *719:B 5.54244e-06
4 *727:B 1.77671e-05
5 *1248:Y 5.23367e-06
6 *617:18 2.87679e-05
7 *617:14 3.72316e-05
8 *617:8 3.7007e-05
9 *1195:A *719:B 4.92332e-06
10 *270:8 *727:B 2.66045e-05
11 *270:8 *617:14 0
12 *270:8 *617:18 2.53836e-05
13 *271:10 *719:B 2.12481e-06
14 *432:10 *617:8 4.89331e-06
15 *432:10 *617:14 7.84037e-07
16 *564:8 *727:B 0
17 *585:77 *727:B 8.21017e-06
18 *585:77 *617:14 0
19 *585:77 *617:18 1.13547e-05
*RES
1 *1248:Y *617:8 38.9053 
2 *617:8 *617:14 36.429 
3 *617:14 *617:18 26.2107 
4 *617:18 *727:B 48.2241 
5 *617:18 *719:B 38.1438 
6 *617:14 *726:A 17.2 
7 *617:8 *1247:A 34.4 
*END

*D_NET *618 1.09916e-05
*CONN
*I *721:A I *D XNOR2x2_ASAP7_75t_R
*I *1249:Y O *D BUFx3_ASAP7_75t_R
*CAP
1 *721:A 0
2 *1249:Y 3.15101e-06
3 *618:8 3.15101e-06
4 *272:14 *618:8 7.84037e-07
5 *310:18 *618:8 2.22736e-06
6 *584:29 *618:8 1.67815e-06
*RES
1 *1249:Y *618:8 37.779 
2 *618:8 *721:A 34.4 
*END

*D_NET *619 2.1637e-05
*CONN
*I *959:B I *D FAx1_ASAP7_75t_R
*I *1250:Y O *D BUFx3_ASAP7_75t_R
*CAP
1 *959:B 0
2 *1250:Y 6.6635e-06
3 *619:8 6.6635e-06
4 *959:CI *619:8 0
5 *208:8 *619:8 8.31005e-06
*RES
1 *1250:Y *619:8 41.158 
2 *619:8 *959:B 17.2 
*END

*D_NET *620 0.00069271
*CONN
*I *725:A I *D XNOR2x2_ASAP7_75t_R
*I *912:B I *D OR4x1_ASAP7_75t_R
*I *823:B I *D AO21x1_ASAP7_75t_R
*I *733:A I *D OR4x2_ASAP7_75t_R
*I *1251:Y O *D BUFx3_ASAP7_75t_R
*CAP
1 *725:A 0
2 *912:B 1.48167e-05
3 *823:B 1.39372e-06
4 *733:A 5.85919e-06
5 *1251:Y 0
6 *620:48 1.48167e-05
7 *620:46 5.71646e-05
8 *620:44 7.49411e-05
9 *620:22 7.2529e-06
10 *620:20 6.63603e-05
11 *620:18 6.63603e-05
12 *620:16 4.23986e-05
13 *620:10 6.26239e-05
14 *620:4 3.80018e-05
15 *739:A *620:16 2.17149e-05
16 *912:A *912:B 3.73144e-06
17 *912:A *620:46 0
18 *100:12 *620:16 1.4007e-05
19 *274:16 *620:46 4.01856e-05
20 *275:16 *620:10 3.27202e-06
21 *276:10 *620:46 0
22 *280:45 *733:A 8.33296e-06
23 *281:10 *733:A 5.06565e-06
24 *281:10 *823:B 1.42562e-06
25 *281:20 *733:A 1.89962e-06
26 *289:6 *620:44 8.65792e-06
27 *289:17 *620:44 2.35847e-05
28 *290:6 *620:20 4.17292e-05
29 *291:10 *823:B 5.79724e-07
30 *308:26 *620:46 1.09067e-05
31 *308:32 *620:46 1.88253e-06
32 *310:18 *620:16 3.47607e-06
33 *322:18 *620:46 2.94909e-05
34 *322:33 *620:46 4.83862e-06
35 *324:22 *912:B 3.55261e-06
36 *325:24 *620:16 8.58704e-06
37 *372:14 *733:A 3.16603e-06
38 *372:14 *823:B 6.33206e-07
*RES
1 *1251:Y *620:4 17.2 
2 *620:4 *620:10 48.4791 
3 *620:10 *620:16 49.4312 
4 *620:16 *620:18 17.2 
5 *620:18 *620:20 35.8333 
6 *620:20 *620:22 17.2 
7 *620:22 *733:A 40.0317 
8 *620:22 *823:B 36.0895 
9 *620:4 *620:44 26.292 
10 *620:44 *620:46 52.3744 
11 *620:46 *620:48 17.2 
12 *620:48 *912:B 27.8965 
13 *620:48 *725:A 17.2 
*END

*D_NET *621 0.000199698
*CONN
*I *916:B I *D XNOR2x2_ASAP7_75t_R
*I *743:C I *D OR3x1_ASAP7_75t_R
*I *744:A2 I *D OAI21x1_ASAP7_75t_R
*I *1252:Y O *D BUFx3_ASAP7_75t_R
*CAP
1 *916:B 1.11616e-05
2 *743:C 8.63469e-07
3 *744:A2 3.79416e-06
4 *1252:Y 1.78567e-05
5 *621:27 1.91514e-05
6 *621:16 3.08785e-05
7 *621:10 5.20674e-05
8 *621:10 *623:12 2.36328e-05
9 *621:10 *623:20 0
10 *621:16 *623:35 6.95709e-06
11 *743:B *743:C 1.44167e-06
12 *743:B *621:16 3.73144e-06
13 *295:6 *743:C 3.68287e-06
14 *295:6 *621:16 0
15 *321:25 *916:B 0
16 *321:25 *621:16 0
17 *321:35 *916:B 0
18 *442:8 *916:B 0
19 *442:16 *916:B 1.67815e-06
20 *589:10 *621:10 0
21 *589:36 *916:B 1.25267e-05
22 *589:36 *621:27 8.06436e-06
23 *589:42 *744:A2 2.20966e-06
*RES
1 *1252:Y *621:10 47.831 
2 *621:10 *621:16 47.7706 
3 *621:16 *744:A2 37.2158 
4 *621:10 *621:27 5.06849 
5 *621:27 *743:C 35.4697 
6 *621:27 *916:B 43.4107 
*END

*D_NET *622 1.80565e-05
*CONN
*I *933:B I *D XNOR2x2_ASAP7_75t_R
*I *1253:Y O *D BUFx3_ASAP7_75t_R
*CAP
1 *933:B 0
2 *1253:Y 9.02825e-06
3 *622:8 9.02825e-06
4 *174:8 *622:8 0
5 *454:8 *622:8 0
*RES
1 *1253:Y *622:8 40.0317 
2 *622:8 *933:B 34.4 
*END

*D_NET *623 0.000143127
*CONN
*I *918:A I *D XNOR2x2_ASAP7_75t_R
*I *743:A I *D OR3x1_ASAP7_75t_R
*I *744:B I *D OAI21x1_ASAP7_75t_R
*I *1254:Y O *D BUFx3_ASAP7_75t_R
*CAP
1 *918:A 0
2 *743:A 0
3 *744:B 0
4 *1254:Y 0
5 *623:35 9.26823e-06
6 *623:20 2.99701e-05
7 *623:12 4.23834e-05
8 *623:6 2.16815e-05
9 *192:35 *623:12 0
10 *295:6 *623:35 7.02463e-06
11 *589:10 *623:12 0
12 *589:42 *623:20 2.20966e-06
13 *589:42 *623:35 0
14 *621:10 *623:12 2.36328e-05
15 *621:10 *623:20 0
16 *621:16 *623:35 6.95709e-06
*RES
1 *1254:Y *623:6 34.4 
2 *623:6 *623:12 36.2059 
3 *623:12 *623:20 47.0411 
4 *623:20 *744:B 17.2 
5 *623:20 *623:35 43.0989 
6 *623:35 *743:A 17.2 
7 *623:12 *918:A 17.2 
*END

*D_NET *624 0.000120775
*CONN
*I *935:A I *D OR3x1_ASAP7_75t_R
*I *936:B I *D OAI21x1_ASAP7_75t_R
*I *1255:Y O *D BUFx3_ASAP7_75t_R
*CAP
1 *935:A 0
2 *936:B 3.62749e-06
3 *1255:Y 4.44882e-06
4 *624:23 2.08404e-05
5 *624:8 2.89167e-05
6 *935:B *624:23 3.68287e-06
7 *935:C *624:23 1.10279e-06
8 *936:A1 *936:B 5.85387e-06
9 *937:A *936:B 3.48165e-06
10 *175:37 *624:23 8.58704e-06
11 *176:19 *624:8 2.1664e-06
12 *177:10 *624:8 1.34329e-05
13 *177:29 *624:8 3.22574e-06
14 *177:29 *624:23 1.95087e-05
15 *177:44 *624:23 1.89962e-06
16 *456:10 *624:23 0
*RES
1 *1255:Y *624:8 40.0317 
2 *624:8 *936:B 37.0741 
3 *624:8 *624:23 33.2767 
4 *624:23 *935:A 17.2 
*END

*D_NET *625 7.06801e-05
*CONN
*I *921:A I *D XNOR2x2_ASAP7_75t_R
*I *745:A I *D OR2x2_ASAP7_75t_R
*I *1256:Y O *D BUFx3_ASAP7_75t_R
*CAP
1 *921:A 6.95886e-06
2 *745:A 0
3 *1256:Y 5.80743e-06
4 *625:8 1.27663e-05
5 *746:B *921:A 8.361e-06
6 *592:23 *625:8 1.692e-05
7 *602:16 *921:A 9.77825e-06
8 *602:16 *625:8 1.00883e-05
*RES
1 *1256:Y *625:8 42.2843 
2 *625:8 *745:A 34.4 
3 *625:8 *921:A 42.2843 
*END

*D_NET *626 0.000214273
*CONN
*I *786:A2 I *D OAI21x1_ASAP7_75t_R
*I *785:C I *D OR3x1_ASAP7_75t_R
*I *925:B I *D XNOR2x2_ASAP7_75t_R
*I *1257:Y O *D BUFx3_ASAP7_75t_R
*CAP
1 *786:A2 0
2 *785:C 1.10449e-05
3 *925:B 3.32468e-06
4 *1257:Y 1.56116e-05
5 *626:25 3.42897e-05
6 *626:10 2.47527e-05
7 *626:6 6.02844e-05
8 *785:C *795:B 7.58265e-07
9 *785:C *627:10 7.84037e-07
10 *785:C *627:27 7.19629e-06
11 *626:25 *627:27 5.49212e-07
12 *626:25 *627:40 3.84449e-06
13 *626:25 *663:6 0
14 *1294:A *626:10 8.51183e-06
15 *1294:A *626:25 1.01102e-06
16 *184:36 *626:6 9.34096e-06
17 *184:36 *626:10 7.75665e-06
18 *448:10 *626:10 9.94583e-06
19 *532:8 *626:10 6.75467e-06
20 *591:8 *785:C 0
21 *591:16 *785:C 6.33206e-07
22 *591:16 *626:10 0
23 *591:16 *626:25 7.87863e-06
*RES
1 *1257:Y *626:6 24.1527 
2 *626:6 *626:10 36.9108 
3 *626:10 *925:B 36.0045 
4 *626:6 *626:25 31.9804 
5 *626:25 *785:C 42.7625 
6 *626:25 *786:A2 34.4 
*END

*D_NET *627 0.000191464
*CONN
*I *927:B I *D XNOR2x2_ASAP7_75t_R
*I *786:B I *D OAI21x1_ASAP7_75t_R
*I *785:A I *D OR3x1_ASAP7_75t_R
*I *1258:Y O *D BUFx3_ASAP7_75t_R
*CAP
1 *927:B 0
2 *786:B 2.81015e-06
3 *785:A 0
4 *1258:Y 1.6229e-05
5 *627:40 2.41075e-05
6 *627:27 4.87349e-05
7 *627:10 3.80462e-05
8 *627:10 *655:23 2.71272e-05
9 *627:10 *655:36 6.71283e-06
10 *627:10 *655:50 3.47607e-06
11 *627:27 *655:50 1.26641e-06
12 *785:C *627:10 7.84037e-07
13 *785:C *627:27 7.19629e-06
14 *1258:A *627:10 1.64764e-06
15 *185:20 *627:10 3.79923e-06
16 *336:10 *627:27 1.12894e-06
17 *336:10 *627:40 2.77657e-06
18 *345:12 *627:40 0
19 *450:10 *627:40 5.49212e-07
20 *451:8 *627:40 0
21 *591:8 *627:27 0
22 *591:12 *627:27 6.7842e-07
23 *591:16 *627:40 0
24 *626:25 *627:27 5.49212e-07
25 *626:25 *627:40 3.84449e-06
*RES
1 *1258:Y *627:10 49.5205 
2 *627:10 *785:A 34.4 
3 *627:10 *627:27 47.6042 
4 *627:27 *786:B 36.0045 
5 *627:27 *627:40 36.9108 
6 *627:40 *927:B 17.2 
*END

*D_NET *628 5.19059e-05
*CONN
*I *930:A I *D XNOR2x2_ASAP7_75t_R
*I *1259:Y O *D BUFx3_ASAP7_75t_R
*CAP
1 *930:A 1.88269e-05
2 *1259:Y 1.88269e-05
3 *179:22 *930:A 1.4252e-05
*RES
1 *1259:Y *930:A 44.5617 
*END

*D_NET *629 3.10989e-05
*CONN
*I *794:A I *D XNOR2x2_ASAP7_75t_R
*I *1260:Y O *D BUFx3_ASAP7_75t_R
*CAP
1 *794:A 0
2 *1260:Y 1.55494e-05
3 *629:8 1.55494e-05
4 *178:18 *629:8 0
5 *338:10 *629:8 0
*RES
1 *1260:Y *629:8 46.2265 
2 *629:8 *794:A 34.4 
*END

*D_NET *630 0.000533407
*CONN
*I *949:B I *D XNOR2x2_ASAP7_75t_R
*I *853:A I *D OR3x1_ASAP7_75t_R
*I *835:A I *D OR3x1_ASAP7_75t_R
*I *843:A I *D OR3x1_ASAP7_75t_R
*I *1261:Y O *D BUFx3_ASAP7_75t_R
*CAP
1 *949:B 5.13334e-06
2 *853:A 0
3 *835:A 2.3256e-06
4 *843:A 1.16403e-05
5 *1261:Y 0
6 *630:57 3.6445e-05
7 *630:44 2.90467e-05
8 *630:20 4.99416e-05
9 *630:14 0.000118453
10 *630:12 6.89314e-05
11 *630:4 4.68128e-05
12 *838:B *630:44 0
13 *847:B *630:44 2.71272e-05
14 *949:A *949:B 1.95129e-06
15 *162:12 *630:44 1.54378e-05
16 *163:18 *843:A 2.31831e-05
17 *163:18 *630:20 2.24085e-06
18 *164:6 *630:12 6.75247e-06
19 *164:6 *630:57 8.20846e-06
20 *164:14 *630:12 6.93361e-07
21 *165:53 *630:44 7.71325e-06
22 *286:8 *843:A 0
23 *382:20 *843:A 5.33881e-07
24 *385:24 *630:44 2.26848e-05
25 *385:39 *630:44 0
26 *386:8 *630:44 0
27 *388:23 *630:44 1.49407e-08
28 *394:10 *630:44 8.33296e-06
29 *396:10 *630:57 1.62335e-05
30 *400:12 *630:12 1.16944e-05
31 *605:8 *630:44 4.45472e-06
32 *605:10 *630:44 5.52264e-06
33 *605:16 *630:44 1.89833e-06
*RES
1 *1261:Y *630:4 17.2 
2 *630:4 *630:12 43.4372 
3 *630:12 *630:14 16.0164 
4 *630:14 *630:20 28.8666 
5 *630:20 *843:A 45.6066 
6 *630:20 *835:A 35.4697 
7 *630:14 *630:44 49.0189 
8 *630:44 *853:A 34.4 
9 *630:4 *630:57 40.5979 
10 *630:57 *949:B 37.0741 
*END

*D_NET *631 2.54648e-05
*CONN
*I *962:A I *D FAx1_ASAP7_75t_R
*I *1262:Y O *D BUFx3_ASAP7_75t_R
*CAP
1 *962:A 0
2 *1262:Y 9.32792e-06
3 *631:8 9.32792e-06
4 *631:8 *635:8 0
5 *40:27 *631:8 0
6 *40:35 *631:8 2.47188e-06
7 *142:8 *631:8 0
8 *143:6 *631:8 5.37866e-07
9 *144:10 *631:8 3.79923e-06
*RES
1 *1262:Y *631:8 42.2843 
2 *631:8 *962:A 17.2 
*END

*D_NET *632 3.97387e-05
*CONN
*I *960:B I *D FAx1_ASAP7_75t_R
*I *1263:Y O *D BUFx3_ASAP7_75t_R
*CAP
1 *960:B 0
2 *1263:Y 1.04875e-05
3 *632:8 1.04875e-05
4 *632:8 *641:20 0
5 *960:CI *632:8 8.81791e-06
6 *32:23 *632:8 0
7 *129:10 *632:8 0
8 *138:8 *632:8 9.94583e-06
*RES
1 *1263:Y *632:8 46.7897 
2 *632:8 *960:B 17.2 
*END

*D_NET *633 0.000109255
*CONN
*I *958:B I *D FAx1_ASAP7_75t_R
*I *1264:Y O *D BUFx3_ASAP7_75t_R
*CAP
1 *958:B 1.57436e-05
2 *1264:Y 0
3 *633:6 1.57436e-05
4 *958:B *650:10 7.16989e-06
5 *54:12 *958:B 2.20519e-06
6 *131:10 *958:B 1.2934e-05
7 *213:10 *958:B 5.54591e-05
8 *522:14 *958:B 0
*RES
1 *1264:Y *633:6 34.4 
2 *633:6 *958:B 38.0371 
*END

*D_NET *634 3.90618e-05
*CONN
*I *963:B I *D FAx1_ASAP7_75t_R
*I *1265:Y O *D BUFx3_ASAP7_75t_R
*CAP
1 *963:B 0
2 *1265:Y 1.92545e-05
3 *634:10 1.92545e-05
4 *147:8 *634:10 5.52807e-07
*RES
1 *1265:Y *634:10 44.8451 
2 *634:10 *963:B 17.2 
*END

*D_NET *635 1.57139e-05
*CONN
*I *962:B I *D FAx1_ASAP7_75t_R
*I *1266:Y O *D BUFx3_ASAP7_75t_R
*CAP
1 *962:B 0
2 *1266:Y 5.64483e-06
3 *635:8 5.64483e-06
4 *40:35 *635:8 0
5 *142:8 *635:8 4.42421e-06
6 *631:8 *635:8 0
*RES
1 *1266:Y *635:8 40.0317 
2 *635:8 *962:B 17.2 
*END

*D_NET *636 2.99603e-05
*CONN
*I *961:A I *D FAx1_ASAP7_75t_R
*I *1267:Y O *D BUFx3_ASAP7_75t_R
*CAP
1 *961:A 7.31559e-06
2 *1267:Y 5.8826e-06
3 *636:8 1.31982e-05
4 *985:B *636:8 2.56604e-06
5 *4:8 *636:8 9.97906e-07
*RES
1 *1267:Y *636:8 39.4685 
2 *636:8 *961:A 20.6764 
*END

*D_NET *637 1.59418e-05
*CONN
*I *961:B I *D FAx1_ASAP7_75t_R
*I *1268:Y O *D BUFx3_ASAP7_75t_R
*CAP
1 *961:B 0
2 *1268:Y 5.93231e-06
3 *637:8 5.93231e-06
4 *139:18 *637:8 4.07716e-06
*RES
1 *1268:Y *637:8 40.0317 
2 *637:8 *961:B 17.2 
*END

*D_NET *638 1.26414e-05
*CONN
*I *960:A I *D FAx1_ASAP7_75t_R
*I *1269:Y O *D BUFx3_ASAP7_75t_R
*CAP
1 *960:A 0
2 *1269:Y 4.65783e-06
3 *638:8 4.65783e-06
4 *32:23 *638:8 3.32579e-06
5 *129:10 *638:8 0
*RES
1 *1269:Y *638:8 38.9053 
2 *638:8 *960:A 17.2 
*END

*D_NET *639 6.48521e-05
*CONN
*I *958:A I *D FAx1_ASAP7_75t_R
*I *1270:Y O *D BUFx3_ASAP7_75t_R
*CAP
1 *958:A 0
2 *1270:Y 9.19695e-06
3 *639:8 9.19695e-06
4 *130:10 *639:8 2.97868e-05
5 *213:10 *639:8 1.63726e-05
6 *216:20 *639:8 2.98814e-07
*RES
1 *1270:Y *639:8 47.3528 
2 *639:8 *958:A 17.2 
*END

*D_NET *640 5.85884e-05
*CONN
*I *963:CI I *D FAx1_ASAP7_75t_R
*I *1271:Y O *D BUFx3_ASAP7_75t_R
*CAP
1 *963:CI 0
2 *1271:Y 2.83697e-05
3 *640:10 2.83697e-05
4 *146:10 *640:10 1.849e-06
*RES
1 *1271:Y *640:10 46.3079 
2 *640:10 *963:CI 17.2 
*END

*D_NET *641 0.000637578
*CONN
*I *718:B I *D OR3x1_ASAP7_75t_R
*I *1284:A I *D BUFx3_ASAP7_75t_R
*I *753:B I *D OR4x1_ASAP7_75t_R
*I *1214:A I *D BUFx3_ASAP7_75t_R
*I *1272:Y O *D BUFx3_ASAP7_75t_R
*CAP
1 *718:B 7.01999e-07
2 *1284:A 1.59738e-06
3 *753:B 2.49832e-05
4 *1214:A 0
5 *1272:Y 4.40521e-06
6 *641:41 5.57278e-05
7 *641:37 7.38926e-05
8 *641:31 6.71618e-05
9 *641:20 3.93631e-05
10 *641:14 0.000130372
11 *641:12 8.19542e-05
12 *641:8 1.70651e-05
13 *753:B *653:12 0
14 *1284:A *653:12 6.78445e-06
15 *718:C *718:B 3.68287e-06
16 *906:B *641:31 2.71199e-05
17 *99:10 *641:12 2.71199e-05
18 *99:22 *641:12 9.30798e-06
19 *197:16 *753:B 3.05302e-06
20 *198:10 *641:12 4.41636e-05
21 *198:32 *718:B 3.68287e-06
22 *201:23 *641:41 0
23 *270:8 *641:37 5.79724e-07
24 *432:10 *641:31 0
25 *432:10 *641:37 0
26 *483:17 *641:8 6.7842e-07
27 *483:21 *641:12 1.41808e-05
28 *585:40 *753:B 0
29 *585:66 *641:37 0
30 *607:8 *641:37 0
31 *607:8 *641:41 0
32 *607:14 *641:41 0
33 *632:8 *641:20 0
*RES
1 *1272:Y *641:8 36.0045 
2 *641:8 *641:12 37.474 
3 *641:12 *641:14 25.1368 
4 *641:14 *641:20 35.076 
5 *641:20 *1214:A 34.4 
6 *641:14 *641:31 36.9108 
7 *641:31 *641:37 38.3983 
8 *641:37 *641:41 36.9108 
9 *641:41 *753:B 47.969 
10 *641:41 *1284:A 39.2134 
11 *641:31 *718:B 35.4697 
*END

*D_NET *642 6.46492e-05
*CONN
*I *919:B I *D XNOR2x2_ASAP7_75t_R
*I *1273:Y O *D BUFx3_ASAP7_75t_R
*CAP
1 *919:B 1.35214e-05
2 *1273:Y 1.19825e-05
3 *642:8 2.5504e-05
4 *139:18 *919:B 4.31787e-06
5 *186:10 *919:B 8.81791e-06
6 *315:12 *642:8 5.0551e-07
*RES
1 *1273:Y *642:8 39.2134 
2 *642:8 *919:B 47.3528 
*END

*D_NET *643 2.89629e-05
*CONN
*I *948:A I *D NAND2x2_ASAP7_75t_R
*I *1274:Y O *D BUFx6f_ASAP7_75t_R
*CAP
1 *948:A 0
2 *1274:Y 1.44814e-05
3 *643:10 1.44814e-05
4 *396:10 *643:10 0
*RES
1 *1274:Y *643:10 42.6491 
2 *643:10 *948:A 34.4 
*END

*D_NET *644 0.000179458
*CONN
*I *710:D I *D AND4x1_ASAP7_75t_R
*I *676:B I *D AND2x2_ASAP7_75t_R
*I *1275:Y O *D BUFx3_ASAP7_75t_R
*CAP
1 *710:D 0
2 *676:B 0
3 *1275:Y 5.57718e-06
4 *644:25 2.73054e-05
5 *644:14 1.4709e-05
6 *644:6 4.75916e-05
7 *100:12 *644:6 9.08513e-06
8 *100:12 *644:25 2.5536e-05
9 *195:10 *644:25 8.79717e-06
10 *239:10 *644:14 2.6808e-05
11 *242:18 *644:25 5.67747e-07
12 *243:10 *644:14 6.7842e-07
13 *243:18 *644:14 3.12503e-06
14 *612:40 *644:14 9.67723e-06
*RES
1 *1275:Y *644:6 19.8741 
2 *644:6 *644:14 47.831 
3 *644:14 *676:B 17.2 
4 *644:6 *644:25 33.1067 
5 *644:25 *710:D 34.4 
*END

*D_NET *645 3.22847e-05
*CONN
*I *712:B1 I *D OAI22x1_ASAP7_75t_R
*I *1276:Y O *D BUFx3_ASAP7_75t_R
*CAP
1 *712:B1 3.24994e-06
2 *1276:Y 6.05108e-06
3 *645:8 9.30102e-06
4 *712:B1 *712:B2 7.63254e-07
5 *645:8 *648:8 1.07573e-06
6 *712:A2 *645:8 2.83874e-07
7 *238:27 *645:8 3.79923e-06
8 *238:35 *712:B1 3.65131e-06
9 *238:35 *645:8 4.10928e-06
10 *577:32 *645:8 0
*RES
1 *1276:Y *645:8 40.0317 
2 *645:8 *712:B1 37.0741 
*END

*D_NET *646 4.77814e-05
*CONN
*I *842:A I *D NOR2x1_ASAP7_75t_R
*I *1277:Y O *D BUFx3_ASAP7_75t_R
*CAP
1 *842:A 0
2 *1277:Y 1.37868e-05
3 *646:10 1.37868e-05
4 *839:A *646:10 1.02895e-05
5 *839:B *646:10 3.55124e-06
6 *382:20 *646:10 6.36708e-06
*RES
1 *1277:Y *646:10 41.5228 
2 *646:10 *842:A 34.4 
*END

*D_NET *647 2.0941e-05
*CONN
*I *819:B I *D AOI21x1_ASAP7_75t_R
*I *1278:Y O *D BUFx3_ASAP7_75t_R
*CAP
1 *819:B 1.94474e-06
2 *1278:Y 4.53801e-06
3 *647:8 6.48275e-06
4 *559:44 *819:B 2.28976e-06
5 *561:10 *647:8 0
6 *563:10 *647:8 5.68573e-06
*RES
1 *1278:Y *647:8 38.9053 
2 *647:8 *819:B 36.0045 
*END

*D_NET *648 3.20446e-05
*CONN
*I *712:B2 I *D OAI22x1_ASAP7_75t_R
*I *1279:Y O *D BUFx3_ASAP7_75t_R
*CAP
1 *712:B2 7.98922e-06
2 *1279:Y 6.21605e-06
3 *648:8 1.42053e-05
4 *712:A2 *648:8 0
5 *712:B1 *712:B2 7.63254e-07
6 *1279:A *648:8 0
7 *238:27 *648:8 7.84037e-07
8 *238:35 *712:B2 1.01102e-06
9 *645:8 *648:8 1.07573e-06
*RES
1 *1279:Y *648:8 39.4685 
2 *648:8 *712:B2 39.2134 
*END

*D_NET *649 0.000210575
*CONN
*I *722:A I *D AND4x1_ASAP7_75t_R
*I *910:A I *D XNOR2x2_ASAP7_75t_R
*I *1280:Y O *D BUFx3_ASAP7_75t_R
*CAP
1 *722:A 1.03164e-05
2 *910:A 1.34138e-05
3 *1280:Y 4.00192e-06
4 *649:14 2.37302e-05
5 *649:12 4.43798e-05
6 *649:8 4.83817e-05
7 *722:B *722:A 1.61096e-06
8 *909:A *649:12 7.42565e-06
9 *909:B *649:12 1.40132e-05
10 *1177:A *649:8 3.75158e-06
11 *1177:A *649:12 1.23408e-05
12 *268:18 *722:A 4.7643e-07
13 *275:16 *722:A 8.61943e-06
14 *275:16 *910:A 1.65839e-05
15 *437:8 *722:A 7.21451e-07
16 *437:8 *910:A 8.07455e-07
*RES
1 *1280:Y *649:8 37.779 
2 *649:8 *649:12 35.9189 
3 *649:12 *649:14 17.2 
4 *649:14 *910:A 47.916 
5 *649:14 *722:A 43.354 
*END

*D_NET *650 6.22268e-05
*CONN
*I *891:A I *D XOR2x2_ASAP7_75t_R
*I *1281:Y O *D BUFx3_ASAP7_75t_R
*CAP
1 *891:A 0
2 *1281:Y 1.74152e-05
3 *650:10 1.74152e-05
4 *958:B *650:10 7.16989e-06
5 *54:12 *650:10 1.60475e-05
6 *213:14 *650:10 4.17901e-06
*RES
1 *1281:Y *650:10 46.9844 
2 *650:10 *891:A 34.4 
*END

*D_NET *651 4.42382e-05
*CONN
*I *894:A I *D XOR2x2_ASAP7_75t_R
*I *1282:Y O *D BUFx3_ASAP7_75t_R
*CAP
1 *894:A 4.08006e-06
2 *1282:Y 1.53445e-05
3 *651:10 1.94245e-05
4 *651:10 *1282:A 2.66797e-07
5 *126:8 *651:10 1.09842e-06
6 *134:9 *651:10 0
7 *208:8 *651:10 0
8 *525:12 *894:A 4.02391e-06
*RES
1 *1282:Y *651:10 43.8888 
2 *651:10 *894:A 37.0741 
*END

*D_NET *652 0.000179795
*CONN
*I *756:A1 I *D OAI21x1_ASAP7_75t_R
*I *755:B I *D OR3x1_ASAP7_75t_R
*I *1282:A I *D BUFx3_ASAP7_75t_R
*I *1283:Y O *D BUFx3_ASAP7_75t_R
*CAP
1 *756:A1 2.75748e-06
2 *755:B 0
3 *1282:A 2.11403e-05
4 *1283:Y 0
5 *652:10 2.52785e-05
6 *652:8 2.43958e-05
7 *652:6 1.75002e-05
8 *756:A2 *756:A1 5.85387e-06
9 *756:A2 *652:8 4.83862e-06
10 *756:A2 *652:10 1.51765e-05
11 *1156:A *1282:A 1.59615e-06
12 *206:10 *652:8 8.87893e-06
13 *206:22 *652:8 6.45149e-06
14 *206:22 *652:10 1.69273e-05
15 *208:8 *1282:A 2.00151e-05
16 *208:8 *652:10 8.71771e-06
17 *651:10 *1282:A 2.66797e-07
*RES
1 *1283:Y *652:6 34.4 
2 *652:6 *652:8 16.3318 
3 *652:8 *652:10 7.88432 
4 *652:10 *1282:A 49.1804 
5 *652:10 *755:B 34.4 
6 *652:8 *756:A1 36.0045 
*END

*D_NET *653 0.000281563
*CONN
*I *726:B I *D NOR3x1_ASAP7_75t_R
*I *719:A1 I *D OAI21x1_ASAP7_75t_R
*I *727:A1 I *D OA21x2_ASAP7_75t_R
*I *1213:A I *D BUFx3_ASAP7_75t_R
*I *1284:Y O *D BUFx3_ASAP7_75t_R
*CAP
1 *726:B 1.28195e-05
2 *719:A1 0
3 *727:A1 3.75483e-06
4 *1213:A 2.31365e-05
5 *1284:Y 0
6 *653:25 8.94268e-06
7 *653:23 3.96294e-05
8 *653:12 4.75688e-05
9 *653:4 4.60544e-05
10 *753:B *653:12 0
11 *1284:A *653:12 6.78445e-06
12 *197:16 *653:12 1.56713e-06
13 *201:23 *653:12 5.21648e-06
14 *270:8 *726:B 0
15 *277:12 *726:B 0
16 *585:10 *1213:A 5.64865e-05
17 *585:14 *1213:A 3.13426e-06
18 *585:40 *726:B 3.16603e-06
19 *585:40 *727:A1 7.54709e-06
20 *585:40 *653:25 3.79923e-06
21 *585:66 *726:B 2.05883e-06
22 *607:14 *653:23 4.92332e-06
23 *607:27 *727:A1 4.42421e-06
24 *607:27 *653:25 5.49212e-07
*RES
1 *1284:Y *653:4 17.2 
2 *653:4 *653:12 47.9974 
3 *653:12 *1213:A 36.9885 
4 *653:4 *653:23 26.292 
5 *653:23 *653:25 3.94216 
6 *653:25 *727:A1 40.0317 
7 *653:25 *719:A1 34.4 
8 *653:23 *726:B 42.6491 
*END

*D_NET *654 0.000277059
*CONN
*I *1217:A I *D BUFx3_ASAP7_75t_R
*I *1220:A I *D BUFx3_ASAP7_75t_R
*I *749:A1 I *D OA21x2_ASAP7_75t_R
*I *748:B I *D NOR3x1_ASAP7_75t_R
*I *1285:Y O *D BUFx3_ASAP7_75t_R
*CAP
1 *1217:A 1.30487e-05
2 *1220:A 2.06084e-05
3 *749:A1 1.42471e-06
4 *748:B 0
5 *1285:Y 3.02412e-06
6 *654:59 3.84178e-05
7 *654:51 4.70532e-05
8 *654:20 2.45675e-05
9 *654:12 2.59922e-05
10 *654:10 2.86774e-05
11 *654:6 3.27772e-05
12 *654:51 *660:14 2.28976e-06
13 *748:A *654:20 2.12481e-06
14 *749:B *654:20 1.56713e-06
15 *1254:A *1220:A 0
16 *188:8 *1220:A 0
17 *188:8 *654:10 0
18 *188:8 *654:51 1.37303e-06
19 *189:29 *654:59 7.84037e-07
20 *190:8 *654:10 0
21 *190:8 *654:20 1.12894e-06
22 *192:20 *749:A1 3.89037e-06
23 *192:20 *654:20 1.23408e-05
24 *192:22 *654:20 0
25 *283:22 *654:59 0
26 *589:10 *1220:A 8.58704e-06
27 *590:12 *1217:A 2.28884e-06
28 *592:10 *654:51 5.09299e-06
29 *602:12 *654:51 0
*RES
1 *1285:Y *654:6 18.8045 
2 *654:6 *654:10 22.8317 
3 *654:10 *654:12 17.2 
4 *654:12 *654:20 47.3775 
5 *654:20 *748:B 17.2 
6 *654:12 *749:A1 18.2696 
7 *654:10 *1220:A 47.2678 
8 *654:6 *654:51 48.6721 
9 *654:51 *654:59 42.7339 
10 *654:59 *1217:A 25.2224 
*END

*D_NET *655 0.000366673
*CONN
*I *785:B I *D OR3x1_ASAP7_75t_R
*I *1222:A I *D BUFx3_ASAP7_75t_R
*I *795:B I *D OR4x1_ASAP7_75t_R
*I *790:B I *D NOR3x1_ASAP7_75t_R
*I *1286:Y O *D BUFx3_ASAP7_75t_R
*CAP
1 *785:B 0
2 *1222:A 0
3 *795:B 2.76119e-05
4 *790:B 0
5 *1286:Y 1.37083e-05
6 *655:58 1.8842e-05
7 *655:50 4.65316e-05
8 *655:36 3.08387e-05
9 *655:23 5.01357e-05
10 *655:12 2.30869e-05
11 *655:8 1.74205e-05
12 *785:C *795:B 7.58265e-07
13 *787:B *655:23 0
14 *790:A *655:12 1.02895e-05
15 *790:A *655:23 6.19506e-06
16 *795:D *795:B 3.68287e-06
17 *795:D *655:23 0
18 *1258:A *655:23 2.98814e-08
19 *182:18 *655:8 1.64226e-05
20 *182:27 *655:8 3.03713e-05
21 *184:8 *655:50 1.16945e-06
22 *184:36 *655:50 4.64191e-07
23 *184:36 *655:58 1.59919e-05
24 *185:12 *655:50 6.7842e-07
25 *185:12 *655:58 2.25464e-07
26 *185:28 *795:B 1.12037e-05
27 *185:37 *655:58 1.16711e-06
28 *335:8 *795:B 2.66797e-07
29 *341:8 *655:8 9.97906e-07
30 *627:10 *655:23 2.71272e-05
31 *627:10 *655:36 6.71283e-06
32 *627:10 *655:50 3.47607e-06
33 *627:27 *655:50 1.26641e-06
*RES
1 *1286:Y *655:8 49.6055 
2 *655:8 *655:12 19.8741 
3 *655:12 *790:B 17.2 
4 *655:12 *655:23 32.8836 
5 *655:23 *795:B 48.3055 
6 *655:23 *655:36 20.0158 
7 *655:36 *655:50 48.5038 
8 *655:50 *655:58 45.9147 
9 *655:58 *1222:A 17.2 
10 *655:36 *785:B 17.2 
*END

*D_NET *656 0.000230969
*CONN
*I *688:A2 I *D AOI21x1_ASAP7_75t_R
*I *674:A I *D NAND3x2_ASAP7_75t_R
*I *1287:Y O *D BUFx6f_ASAP7_75t_R
*CAP
1 *688:A2 0
2 *674:A 0
3 *1287:Y 1.1028e-05
4 *656:41 2.27489e-06
5 *656:35 1.00894e-05
6 *656:27 4.88387e-05
7 *656:21 7.45824e-05
8 *656:8 4.45862e-05
9 *674:B *656:8 5.78114e-06
10 *674:C *656:27 0
11 *222:21 *656:35 8.46363e-06
12 *222:34 *656:27 1.41719e-05
13 *222:62 *656:35 1.03306e-05
14 *226:10 *656:35 0
15 *226:10 *656:41 8.2174e-07
16 *229:10 *656:27 0
17 *560:10 *656:8 0
18 *560:16 *656:21 0
19 *570:10 *656:8 0
20 *570:10 *656:21 0
*RES
1 *1287:Y *656:8 42.2843 
2 *656:8 *674:A 17.2 
3 *656:8 *656:21 49.4601 
4 *656:21 *656:27 39.9744 
5 *656:27 *656:35 42.1993 
6 *656:35 *656:41 37.2158 
7 *656:41 *688:A2 17.2 
*END

*D_NET *657 0.00013066
*CONN
*I *1178:A I *D BUFx3_ASAP7_75t_R
*I *1288:Y O *D BUFx3_ASAP7_75t_R
*CAP
1 *1178:A 1.9936e-05
2 *1288:Y 1.87862e-05
3 *657:8 3.87223e-05
4 *689:B *1178:A 0
5 *689:D *1178:A 1.23408e-05
6 *1288:A *657:8 3.56177e-06
7 *194:12 *1178:A 4.57952e-06
8 *222:62 *657:8 2.70601e-05
9 *226:27 *1178:A 1.34406e-06
10 *240:8 *657:8 4.32973e-06
11 *242:10 *1178:A 0
*RES
1 *1288:Y *657:8 48.8403 
2 *657:8 *1178:A 48.1107 
*END

*D_NET *658 5.05279e-05
*CONN
*I *1208:A I *D BUFx3_ASAP7_75t_R
*I *1289:Y O *D BUFx3_ASAP7_75t_R
*CAP
1 *1208:A 0
2 *1289:Y 1.31016e-05
3 *658:8 1.31016e-05
4 *203:38 *658:8 3.19649e-06
5 *232:17 *658:8 4.48523e-06
6 *233:8 *658:8 2.22736e-06
7 *325:8 *658:8 1.12055e-06
8 *613:10 *658:8 1.3295e-05
9 *614:29 *658:8 0
*RES
1 *1289:Y *658:8 47.3528 
2 *658:8 *1208:A 34.4 
*END

*D_NET *659 0.000274314
*CONN
*I *964:CI I *D FAx1_ASAP7_75t_R
*I *1290:Y O *D BUFx3_ASAP7_75t_R
*CAP
1 *964:CI 2.25992e-05
2 *1290:Y 1.75087e-05
3 *659:18 3.58501e-05
4 *659:12 4.96364e-05
5 *659:8 5.38943e-05
6 *834:A *659:8 0
7 *841:A *659:8 0
8 *964:A *964:CI 5.37866e-07
9 *49:30 *964:CI 2.52755e-07
10 *148:10 *659:8 0
11 *149:8 *964:CI 2.35211e-06
12 *168:6 *964:CI 7.63254e-06
13 *168:16 *964:CI 2.12481e-06
14 *168:16 *659:18 9.41947e-07
15 *168:27 *659:18 3.68435e-05
16 *463:8 *659:18 1.36943e-05
17 *603:14 *659:12 6.78445e-06
18 *603:18 *659:12 2.36609e-05
19 *603:35 *659:8 0
*RES
1 *1290:Y *659:8 46.2265 
2 *659:8 *659:12 38.0582 
3 *659:12 *659:18 49.0423 
4 *659:18 *964:CI 48.054 
*END

*D_NET *660 0.000191766
*CONN
*I *1233:A I *D BUFx3_ASAP7_75t_R
*I *1291:Y O *D BUFx3_ASAP7_75t_R
*CAP
1 *1233:A 0
2 *1291:Y 2.0729e-05
3 *660:14 2.38418e-05
4 *660:8 4.45708e-05
5 *39:8 *660:14 7.64042e-07
6 *187:14 *660:8 1.65819e-05
7 *187:16 *660:14 2.27635e-05
8 *187:29 *660:14 1.50678e-05
9 *188:8 *660:14 0
10 *189:10 *660:14 3.60403e-05
11 *189:29 *660:14 7.34823e-06
12 *592:10 *660:14 1.76928e-06
13 *654:51 *660:14 2.28976e-06
*RES
1 *1291:Y *660:8 44.5617 
2 *660:8 *660:14 41.6676 
3 *660:14 *1233:A 17.2 
*END

*D_NET *661 6.0455e-05
*CONN
*I *831:B I *D NAND3x1_ASAP7_75t_R
*I *1292:Y O *D BUFx3_ASAP7_75t_R
*CAP
1 *831:B 1.54011e-05
2 *1292:Y 4.19703e-06
3 *661:8 1.95981e-05
4 *831:C *831:B 3.73144e-06
5 *379:8 *831:B 2.28976e-06
6 *379:10 *661:8 1.34402e-05
7 *536:6 *831:B 2.52755e-07
8 *536:14 *661:8 0
9 *536:25 *831:B 1.54461e-06
*RES
1 *1292:Y *661:8 38.9053 
2 *661:8 *831:B 44.5617 
*END

*D_NET *662 0.000104337
*CONN
*I *736:A I *D INVx1_ASAP7_75t_R
*I *1293:Y O *D BUFx3_ASAP7_75t_R
*CAP
1 *736:A 0
2 *1293:Y 0
3 *662:10 2.76933e-05
4 *662:6 2.76933e-05
5 *737:B *662:10 0
6 *258:16 *662:10 4.89505e-05
7 *584:29 *662:10 0
8 *585:40 *662:10 0
*RES
1 *1293:Y *662:6 34.4 
2 *662:6 *662:10 40.853 
3 *662:10 *736:A 17.2 
*END

*D_NET *663 0.000171695
*CONN
*I *782:A I *D INVx3_ASAP7_75t_R
*I *1294:Y O *D BUFx6f_ASAP7_75t_R
*CAP
1 *782:A 0
2 *1294:Y 7.14971e-05
3 *663:12 5.68094e-06
4 *663:6 7.71781e-05
5 *1294:A *663:6 7.35354e-06
6 *142:8 *663:12 5.79724e-07
7 *184:36 *663:6 9.406e-06
8 *626:25 *663:6 0
*RES
1 *1294:Y *663:6 44.4761 
2 *663:6 *663:12 37.779 
3 *663:12 *782:A 17.2 
*END
